Tb14 Yb14 Ho15 Er15 Lu14 Si36 C36 O252
1.0
   0.0004632349496561   19.4495149916839800    0.0103242200700320
  19.8820155822125173    0.0004772050388727    0.0109404553402361
  -0.0066187873946111   -3.8889542841803291  -11.9307072600949464
C Er Ho Lu O Si Tb Yb
36 15 15 14 252 36 14 14
direct
   0.0446742237170050    0.4457609678559115    0.8858077520371752 C
   0.0994690097143635    0.8089067715761591    0.6019393094029830 C
   0.0994006502848287    0.4604532256569711    0.6171143274580237 C
   0.7804492136344351    0.0116641326685103    0.1376682422328987 C
   0.4409469196726685    0.6736387893170837    0.1318699250119763 C
   0.4524545335376174    0.3472973545449373    0.1319180910956459 C
   0.4480478264618022    0.0072868325261570    0.1397790493664633 C
   0.1126772025002813    0.3592484238214511    0.1224709059016106 C
   0.1020330399542428    0.0196487376890485    0.1288028928811880 C
   0.9027242288396284    0.1960221627903799    0.3763660002148336 C
   0.5543540957227044    0.8626382347444650    0.3863064989824055 C
   0.5606189841699305    0.5128901997298081    0.3569404663078680 C
   0.5558212619376722    0.1852763979043681    0.3881887943909951 C
   0.2175484178290887    0.8516874429878361    0.3576639620395458 C
   0.2384169009851346    0.5356966283353621    0.3793126338494412 C
   0.2142614022874486    0.1686561034472547    0.3628143600008183 C
   0.7827450886946214    0.1497219616496174    0.6410692020143079 C
   0.7969827346527822    0.4966730587167756    0.6381649961593309 C
   0.4539498458860829    0.8256008585100419    0.6362130116832618 C
   0.2158536783893631    0.9895471714841072    0.8610301007632682 C
   0.6162718770979324    0.1992167162273972    0.1364872510981918 C
   0.2982273812997769    0.5442650642425205    0.1122506442420906 C
   0.3803823705194770    0.0478658563345322    0.3871167267215745 C
   0.0638879753380884    0.3623338986564995    0.3762747563184935 C
   0.7076475546790857    0.7837502086824668    0.9039782065532341 C
   0.7803307912292429    0.8323367970707781    0.6308316665490478 C
   0.0359808346585386    0.1229165346559497    0.8860388131428124 C
   0.9569424620935461    0.2936459703122178    0.6270704450917063 C
   0.7102963709554712    0.4611054407099522    0.8751494921259497 C
   0.6323439878573223    0.2917019093512884    0.6245894185924367 C
   0.8865428589070116    0.9952745053710582    0.8638383240013719 C
   0.8603616731273922    0.6542186912182899    0.8780332562742642 C
   0.8824465477237919    0.3249056985287233    0.8688529372322523 C
   0.5517620711891766    0.6459301682555553    0.8579931965267916 C
   0.5730184896689249    0.3055251965836502    0.8901018435437694 C
   0.6293270286612906    0.9590776396956066    0.6246895287746086 C
   0.1461728813331962    0.2196720413454283    0.1426496600418128 Er
   0.8187885613194466    0.5443104099353933    0.1312534090462823 Er
   0.8266990062186599    0.2060374738868087    0.1354964222369916 Er
   0.4871563944707076    0.5222436322716736    0.1245403257642034 Er
   0.1532416328384973    0.8676692123000119    0.1182154571102933 Er
   0.1798451013212425    0.0207029388979169    0.3624078312454591 Er
   0.0458439299701455    0.2142957473692842    0.3581482753846488 Er
   0.0450975583608098    0.9527595224199761    0.8664053619530003 Er
   0.2804957900106825    0.0509248066447234    0.1301433129973186 Er
   0.0501903877193510    0.6015421105029647    0.8625028260016799 Er
   0.0404354818641006    0.2803362450828734    0.8624080257494217 Er
   0.6288547452857065    0.7836913322654198    0.6365203379945934 Er
   0.6230463026034530    0.1196573326135572    0.6456587306271210 Er
   0.0525506202325802    0.8792130631010620    0.3470143834906536 Er
   0.6032205331764803    0.7031305589651339    0.1307225761814759 Er
   0.2796340714295623    0.7829546691969081    0.6205865514728692 Ho
   0.4934141031010409    0.3015252619848074    0.6462862158786570 Ho
   0.6180380325337907    0.0425350581936183    0.1397744362283385 Ho
   0.7259659514125407    0.5494736052090081    0.3621111199992991 Ho
   0.3934338295111869    0.2766697374464666    0.8455869630022089 Ho
   0.3902618277024523    0.6072864506032908    0.8399253134539837 Ho
   0.7193252163880060    0.9537524283017610    0.8632388062774063 Ho
   0.1412328502247162    0.6203986689964980    0.6198701533192882 Ho
   0.3822370009473032    0.2193178662093750    0.3823770840993596 Ho
   0.1565641860602395    0.5289696129913698    0.1414118280841099 Ho
   0.7852789179499250    0.6569063680877137    0.6047266369490316 Ho
   0.5105260472440304    0.7220754618077577    0.3652472686025628 Ho
   0.1733663074040330    0.6976323639307495    0.3466466770279575 Ho
   0.1721947651284670    0.1387723155430615    0.8560154707261403 Ho
   0.5124940482269731    0.7943820796842109    0.8584709407307377 Ho
   0.7096500774312311    0.6202370078621281    0.8731181727919523 Lu
   0.4838783343027081    0.9795924751618441    0.6472919079981800 Lu
   0.5056455940975966    0.4547698283052864    0.8588963937675336 Lu
   0.2838885829793914    0.7217606296546737    0.1314484425267048 Lu
   0.0786261392619231    0.5301366789741813    0.3643163103280062 Lu
   0.2689228979739767    0.1191155515820916    0.6375338189631576 Lu
   0.8314240771059342    0.8646719823378762    0.1372345270050580 Lu
   0.1662922116514382    0.2986979354882614    0.6303066304545993 Lu
   0.1541750050545684    0.9581062775975406    0.6328794008675003 Lu
   0.2854249324887351    0.3849111181180058    0.1257422570820728 Lu
   0.8437544560606027    0.0421294720461245    0.3673035617153736 Lu
   0.8275793625979415    0.9749092214714354    0.6341244998185118 Lu
   0.8402287338735516    0.3582694450706762    0.3784366110058335 Lu
   0.1820399890452205    0.4642443403968325    0.8523461776257141 Lu
   0.3038968406208803    0.6004366358999693    0.9056586623396193 O
   0.6961874751821399    0.7379120386057902    0.5317922838494477 O
   0.7031642856326645    0.4101753111690939    0.0684798640429571 O
   0.3187783367837632    0.9081084220075893    0.9682803956989873 O
   0.2991092245374834    0.2543228371461092    0.9806840917977886 O
   0.5877465047200784    0.6611747701486523    0.7904727485687898 O
   0.8555103576092137    0.6827147874896342    0.7821765923487439 O
   0.9228235664827626    0.3307255884850930    0.8037382196582571 O
   0.6022113931141803    0.9939314366871875    0.7958748832192819 O
   0.5950654432257776    0.3244878634067730    0.7999301354276545 O
   0.2571180222091905    0.9916514811804487    0.7972405717697751 O
   0.2016302805698156    0.6772947808292914    0.7647221806522397 O
   0.9269976071424912    1.0012943860871160    0.7984836917176095 O
   0.6781228492700849    0.0792340938339488    0.0236121763057010 O
   0.9761139973717914    0.5737682091128252    0.9705677158790070 O
   0.6462987249536423    0.5829225618177722    0.9717004070625219 O
   0.6930880374817997    0.4156772649539542    0.5338112440173912 O
   0.6785349843873754    0.0855168879451534    0.5224138520429887 O
   0.3503865984135338    0.7464107714617195    0.5207691043487030 O
   0.0508666635601739    0.0655176378833732    0.0802253004943802 O
   0.0465836368454069    0.3864675912144717    0.1001467184871476 O
   0.3650505430787808    0.4246958139200275    0.5208158112758832 O
   0.3532107592802901    0.1057210325282974    0.5635786439911878 O
   0.0316050915836697    0.7392826984109433    0.0206806442391600 O
   0.0407981894177840    0.7607370907300900    0.5352590645458427 O
   0.0452508912774596    0.4205803028342735    0.5619810157185909 O
   0.3513106350113914    0.1000721434839263    0.0400136747449569 O
   0.3575054280427125    0.4172997356275996    0.0318199580889754 O
   0.0283176565184712    0.0920417915263241    0.5258360434319022 O
   0.3623907025075678    0.7671687314179453    0.0320764559584713 O
   0.9764261051181253    0.9083954239707269    0.9538218530309303 O
   0.9773677672270056    0.2456492527046033    0.9671950388643429 O
   0.6320939142888178    0.9181336430656163    0.9698706751583343 O
   0.6267707501793551    0.2775561603858153    0.9732191824610991 O
   0.2713271439795490    0.3128721131018617    0.7866720098400577 O
   0.7403269055771162    0.0047798879158802    0.2035456376072300 O
   0.7530775843329187    0.5069552118111937    0.6950678043491741 O
   0.5514837425893738    0.1429139082997723    0.2970800087742469 O
   0.2535965543689657    0.8467556569482023    0.2873145259310351 O
   0.2639873856068050    0.5171229414884922    0.2963723045827427 O
   0.2555352489295313    0.1667942165934417    0.2992359797083355 O
   0.7182146903622304    0.8586857134896760    0.1555419226704084 O
   0.7082582941532390    0.5361112746571269    0.1749745227196804 O
   0.6836788405434737    0.1886874236367162    0.1714861339674405 O
   0.3688638013266131    0.8693675273659234    0.1837638170332508 O
   0.3656480727348714    0.5317238587887780    0.1535994978910709 O
   0.3646148169096359    0.2003199119209726    0.1904972647731296 O
   0.0458064975965115    0.8591938430864571    0.1613563936602008 O
   0.0476362402733364    0.5258688080961265    0.1764029803901259 O
   0.0414698551999138    0.2014435523432862    0.1750173027012437 O
   0.9537122523347450    0.7014149896062444    0.3465091953964968 O
   1.0001731672593142    0.3423747828665316    0.3185310638943831 O
   0.9526715669449850    0.0277095999577122    0.3370491426077635 O
   0.6153285196528747    0.7060145562454638    0.3168342125392895 O
   0.6070042564189656    0.5094273173993582    0.3012139234736379 O
   0.7448897650409360    0.8340580186641861    0.7049893189243118 O
   0.5303238415080378    0.8246273926140233    0.2854409070292349 O
   0.9661790014649925    0.5119897326323612    0.3231666898058864 O
   0.7416418398770489    0.1599782806333961    0.7042480544357916 O
   0.4098805613924170    0.8201134153401235    0.6948462238324229 O
   0.3970627511860663    0.4915037439221125    0.7105689611472064 O
   0.4142498036191225    0.1741686987054449    0.7454544843997120 O
   0.0773073129538012    0.8246669966040363    0.6924227772576941 O
   0.0818704262872616    0.4928634253617715    0.7073357322727986 O
   0.0620925060705558    0.1593487920478510    0.7138583340213138 O
   0.7185892472142996    0.6896211179909989    0.1921268563475678 O
   0.7378761576966303    0.3258377763887830    0.2326733904770051 O
   0.6951590798751920    0.7521068222059000    0.0028609087034469 O
   0.4010535952198139    0.6749001833728592    0.1972389310207822 O
   0.4173073332588250    0.3370507771689386    0.2023602216366239 O
   0.4046118449722959    0.0069284860830138    0.1995618740002135 O
   0.0677475318130374    0.6727341070950538    0.2089248125714673 O
   0.1304604799435987    0.3194692418308077    0.2183466058717922 O
   0.0786390438891039   -0.0080671648034857    0.2196131772053891 O
   0.9361780565313464    0.8464012109750993    0.2865723347577320 O
   0.9244988781541638    0.1700033900631018    0.2850204534991650 O
   0.3033047495356344    0.2722711233329070    0.4473754304152135 O
   0.0857547585805054    0.6473127870069210    0.4405571521534317 O
   0.3081042134915473    0.9268274283672455    0.4651711321671759 O
   0.1633283781303584    0.9462458934742765    0.8322572973129546 O
   0.1647475064289189    0.5744489692198359    0.8638180772597018 O
   0.1623809263293138    0.2564044339535234    0.8287902456745118 O
   0.8298032134494358    0.0582427475787827    0.1676502719990645 O
   0.8980889506621467    0.6743273469254817    0.5760269393276168 O
   0.9142753204237607    0.3413134386158380    0.5688902021465040 O
   0.8440440138747609    0.3994440708186955    0.2089946247577646 O
   0.4920240271194042    0.7201608020834547    0.1539316880308543 O
   0.8293292778578840    0.7542832101330922    0.1640972315331145 O
   0.5721971503435116    0.6832622330907964    0.5465802596666788 O
   0.1629320469833628    0.2127519179670816    0.3372941344596564 O
   0.1748658420219230    0.5782527800498709    0.3263389219595373 O
   0.5861429700614312    0.3393804577432531    0.5715806054264121 O
   0.1692303040182844    0.9003625142711833    0.3382449582964481 O
   0.5804649961676333    0.0055437741440817    0.5746804039718240 O
   0.2304779006589021    0.6779676114599694    0.5385428382422252 O
   0.9084961404366936    0.0181666433586575    0.5506580144500053 O
   0.2446429353077317    0.3505245846494227    0.5615852366874623 O
   0.5003421856536275    0.3971695465713118    0.1533844305270382 O
   0.5118688580291616    0.2609142654916282    0.8432189278569897 O
   0.8435996595071220    0.4474014907319559    0.6696090527303937 O
   0.8286412910952644    0.0984388517078263    0.6689249017396228 O
   0.5104702909313870    0.7854158989743967    0.6681724725807372 O
   0.5027352460112600    0.4258393212276566    0.6738734505842661 O
   0.4962819262924058    0.0894809167323845    0.6793786445449419 O
   0.1640064406090195    0.7761929073817804    0.6362948325159827 O
   0.1645634466922437    0.4209416160072728    0.6722377449607044 O
   0.4988423995002796    0.0524306093049103    0.1626628347103288 O
   0.1630395255869822    0.0906177789996462    0.6695850335047093 O
   0.1712933783152887    0.0487403989399020    0.1835262395949874 O
   0.8301132244286793    0.5969505879082625    0.8790578816449268 O
   0.8315869642581423    0.2795954930357688    0.8431049768605894 O
   0.1671972243137164    0.4085910759262365    0.1385095381040233 O
   0.1676560476572327    0.7401366300562486    0.1584381892500479 O
   0.4981655945955824    0.9222152629700805    0.8205821147783041 O
   0.5072902265459627    0.5950478868703327    0.8327824445995968 O
   0.8290700527116609    0.9561588356646585    0.8212512426414614 O
   0.2947714275266984    0.5783193378819370    0.4573608475476620 O
   0.2372488856340373    0.0121727634714204    0.5594542067871047 O
   0.7564232119529298    0.8411360926515985    0.9393411271484643 O
   0.1042562014460686    0.3182688594746550    0.4458705977089850 O
   0.9069138787038500    0.8229689852713249    0.0465900717147210 O
   0.9066109007992322    0.4885483204570944    0.0660407208096045 O
   0.9092368363718970    0.1522068511839833    0.0593120437576883 O
   0.5741803410714474    0.8133268408425801    0.0505870002861868 O
   0.5741382708615137    0.4804535443156622    0.0418555871249478 O
   0.5705422014277691    0.1527349008485925    0.0769308316513156 O
   0.8296106645347110    0.7868194176854463    0.6476876708784085 O
   0.2393270873893937    0.8221685008356066    0.0508424715241359 O
   0.2273575264521563    0.1590841341313690    0.0578392697557832 O
   0.9696553851428279    0.9145115726130431    0.4725133445608228 O
   0.9519809186382211    0.5600571053082346    0.5139114609113795 O
   0.9592627828204929    0.2309960746375837    0.4435022752060349 O
   0.6214970888093760    0.8864708985785371    0.4059219372858701 O
   0.6684175363985810    0.5933248981236654    0.4946712000090521 O
   0.6210653004906528    0.2148950015622623    0.4129105802478023 O
   0.2508771496513114    0.4948382751802620    0.0669805846412563 O
   0.4998020985019596    0.2322258734228246    0.3514529578022210 O
   0.0921457690711975    0.9875275607635062    0.4499627360935899 O
   0.4263260486298723    0.6610299241759729    0.4294313953736245 O
   0.7539543440051567    0.5082791827530981    0.9340853720933563 O
   0.6275232961891857    0.3617068506329056    0.3260211522264071 O
   0.7573694399768345    0.1778048062753865    0.9606246433363662 O
   0.4272530538968881    0.8402037730444535    0.9220060918715928 O
   0.4274921698327580    0.5065493526643525    0.9403186752619535 O
   0.4251404417056937    0.1805157059470812    0.9548782638692846 O
   0.0941811761069885    0.8393208784386185    0.9311965359846915 O
   0.4341681194601635    0.3251050726338321    0.4525200023111332 O
   0.5049102978002409    0.5522039337767974    0.3131483070127927 O
   0.0911238484184868    0.4909247373356656    0.9440252846480680 O
   0.8423883825587687    0.2399891891446250    0.3267846086561714 O
   0.0821692518836953    0.1720999978259487    0.9371481793162427 O
   0.7646737686086531    0.9945080596536851    0.4574443520778983 O
   0.7553579834296811    0.6630378125282079    0.4163619216328704 O
   0.7623221893015871    0.3217712221764311    0.4590913255547805 O
   0.4257794360607672    1.0037599916929185    0.4522479349730528 O
   0.5057773957142656    0.9139863532944229    0.3798052666393543 O
   0.6342986309538101    0.0234817844530660    0.3248244328412017 O
   0.7433072388214541    0.7357287220543766    0.8625362686353198 O
   0.3069636869047788    0.3781930689683475    0.3072570488280962 O
   0.7872893305239802    0.1928897142382726    0.5684237502492865 O
   0.8019928743481465    0.5387389275556334    0.5610651734218421 O
   0.7704351483650647    0.8787405954515446    0.5569156791384559 O
   0.2191638708862331    0.0347492198484816    0.9366219665661393 O
   0.2204576236896061    0.3693930048590555    0.9445765164287800 O
   0.2233458871933283    0.6950633359105536    0.9678459702776402 O
   0.5453445523854589    0.0272946006359272    0.9606686384687954 O
   0.5501313293247467    0.3626992076424233    0.9369559455333272 O
   0.5509390909925233    0.6887866152972278    0.9363781494317844 O
   0.8940359474875859    0.0317747632633383    0.9495325291408332 O
   0.8878693501574466    0.3694350539721747    0.9462572121519597 O
   0.8871483156109043    0.6917754943470898    0.9642026501179356 O
   0.2568872026833467    0.2267891580687875    0.6161992853659612 O
   0.2515425177120870    0.5656498187088372    0.6439658959802252 O
   0.2571102700530114    0.8932232392379758    0.6362812413114740 O
   0.6018668876088805    0.2354410039393106    0.6366888697851426 O
   0.5880354223456369    0.5605144346972083    0.6287122662189942 O
   0.6057019569217441    0.9010941492832416    0.6394014326139250 O
   0.9263999526599717    0.2411113262772260    0.6525840965907239 O
   0.4502219969655974    0.8738085384905806    0.5663545971061436 O
   0.4457824986008236    0.5350315189737015    0.5412786691194711 O
   0.4487195065996682    0.2038292529259149    0.5612430990084922 O
   0.1042091544121656    0.8647729223848071    0.5387412450405757 O
   0.2173971400495399    0.1238920077888114    0.4386626932051246 O
   0.2179649813404804    0.4853362377321191    0.4362628176141936 O
   0.2185669140369552    0.8061372130763562    0.4297944755185667 O
   0.5491491673281885    0.1432207989383656    0.4716769158961546 O
   0.5653146649632549    0.4738562319393254    0.4397892865044583 O
   0.5561438461494699    0.8126713189744366    0.4692083643295091 O
   0.8832623795632906    0.1436559442598674    0.4329928885459899 O
   0.8949334740038896    0.4494349973171267    0.4471096882394044 O
   0.8838145493527080    0.8068954052881125    0.4523520096640721 O
   0.9477971726005058    0.5663441890896749    0.7175128254763222 O
   0.1105769107911556    0.3109245140644650    0.0345044737826542 O
   0.1071993877889592    0.9694420580439179    0.0536226830379378 O
   0.4517010717978251    0.3024684380869840    0.0569390260707481 O
   0.2881453518749017    0.6998220019089180    0.3113587185285587 O
   0.4476100519344612    0.9603024669790647    0.0676126084643715 O
   0.7841864901215088    0.3019343864236569    0.0585448680870057 O
   0.7786281828776932    0.6396734059937144    0.0481266341222130 O
   0.7782579653774309    0.9688361260034097    0.0594141223159052 O
   0.1113990460485791    0.2038464931785491    0.5483317837623388 O
   0.1141271616452077    0.5110964926175060    0.5488179282056309 O
   0.1137220465777431    0.6235331883599711    0.0456447371796440 O
   0.9200986837163658    0.9042644161622684    0.6473932845467968 O
   0.4385773698650876    0.6275715856817633    0.0602994015031639 O
   0.0724991090507708    0.3929978067727172    0.8552828435018104 O
   0.0253999975298243    0.3036833139717700    0.6694225279306774 O
   0.0419972288115383    0.6368740131212199    0.6660763283219505 O
   0.0454398082759555    0.9709991453736186    0.6710027566022306 O
   0.3804611004040714    0.3038585467341518    0.6653393191656845 O
   0.3694062713275482    0.6356486453816883    0.6574512553545923 O
   0.3763650181639902    0.9716071962133381    0.6738683230349760 O
   0.6992052456142299    0.3033052309592590    0.6695633056303529 O
   0.6992619629240215    0.6459336526481591    0.6955086150833344 O
   0.6969198231624243    0.9750844309539105    0.6662399229542431 O
   0.9283414795174284    0.9410547333346386    0.1299484130026597 O
   0.2867086802639793    0.1408793742171265    0.8243566253635992 O
   0.2907099230238765    0.7914519895453979    0.8091597317009769 O
   0.6239473866321976    0.1425335495348288    0.8273877567956280 O
   0.6420205450256542    0.4741541264027102    0.8278671429606264 O
   0.6415985073579844    0.8014922830692707    0.8325568138004050 O
   0.9690720317715190    0.1334977952104338    0.8431490194646765 O
   0.9774382715934462    0.4583329819641218    0.8476229375300630 O
   0.9573233610839069    0.7920178957330077    0.8220466776263967 O
   0.3155682394840545    0.0290309475701446    0.3287538641721987 O
   0.0688827180314970    0.0678493180947261    0.8730200912191494 O
   0.2890812659941823    0.4634458209535684    0.8247094627904711 O
   0.9232331900051545    0.6047323990549834    0.1465932357755024 O
   0.8348826026156021    0.9185111727357359    0.3241498437329975 O
   0.6076507858681266    0.9273618235916192    0.1657586927847820 O
   0.9209808168438878    0.2725718435858122    0.1328505574293445 O
   0.0757596846392309    0.7153588926659974    0.8505928171660343 O
   0.4043066203643882    0.0595154757078383    0.8729469273812596 O
   0.4126137870994381    0.7180744378904973    0.8622551785168531 O
   0.7418228127202516    0.0616565120614005    0.8643008126201484 O
   0.7385717271911509    0.4069007287315150    0.8529168234970904 O
   0.8372312043141701    0.5600603550659728    0.3194855972757993 O
   0.0673631105295634    0.1020883586458850    0.3433310590886834 O
   0.0915956612161799    0.4181443670186932    0.3585330494584541 O
   0.0787585214657592    0.7698456766901096    0.3554786820304692 O
   0.4116104260686926    0.3884024301821242    0.8609960581318113 O
   0.4292030088205518    0.4434126225638406    0.3600484305733318 O
   0.5847459942818468    0.2506531158734954    0.1650838438534715 O
   0.4059871976002854    0.1050865485631767    0.3727857088866913 O
   0.5778056701377906    0.5963188075335945    0.1252472118985037 O
   0.2685366415998865    0.6001920528589682    0.1240652374512258 O
   0.2506780323595797    0.9441544114184234    0.1200083537768647 O
   0.7308921434881148    0.7903970625182073    0.3568701166367822 O
   0.7495654594818155    0.4394173907875455    0.3711740394100893 O
   0.7464969663926182    0.1078702224884810    0.3609289582032954 O
   0.4063135436348659    0.7818032745663259    0.3603384977219847 O
   0.2502325327518202    0.2793759622008997    0.1466270032178687 O
   0.6312824088928948    0.6199458508912197    0.5863032982388829 Si
   0.2261801469715511    0.6338839807078553    0.8824359060309845 Si
   0.2899832303207222    0.6159907165303847    0.5748330472706245 Si
   0.3023095152733269    0.2856836738762116    0.5736002491798710 Si
   0.5675925662476605    0.9678687248727198    0.8906220730003940 Si
   0.2365928523927361    0.3007040189503422    0.8869700375106797 Si
   0.7584062738978199    0.7093447150826540    0.1008472478847597 Si
   0.4269852103208391    0.1427610094127156    0.6316584758496667 Si
   0.0922304350583967    0.1388006219864471    0.6120791058513998 Si
   0.7679880202254857    0.3610558246925573    0.1358720051255935 Si
   0.0960337326307650    0.6918265026340188    0.1042289913422287 Si
   0.9031677931694359    0.8689585524411615    0.3871836297877844 Si
   0.9104788186178425    0.5208708274065535    0.3941401730449979 Si
   0.9575157064122872    0.6147888974253256    0.6163958448518482 Si
   0.4305185586080916    0.4722869211984446    0.6089985796093869 Si
   0.9653885065358545    0.9529041380605422    0.5882918438539114 Si
   0.2988260207366601    0.9502628324916443    0.5827200592448722 Si
   0.3626021949903553    0.1182443402047672    0.9205077340666240 Si
   0.0370210779673805    0.7742073241595930    0.9026127186062299 Si
   0.9682777074639318    0.8846389409052252    0.0724579471963212 Si
   0.9682242963628758    0.5519438776875790    0.0919199537606970 Si
   0.9648944638707704    0.2181009256625483    0.0795088607530549 Si
   0.6346970420469080    0.8753619201091265    0.0866806916304664 Si
   0.6305057360932637    0.5467682385095516    0.0766185745756147 Si
   0.2965630180516914    0.8866993640127250    0.0764011302388485 Si
   0.2889010674212277    0.2199378330766598    0.0966735319688219 Si
   0.3642995178379375    0.7212161769885108    0.4069408476099472 Si
   0.7024182651553847    0.3847010024832006    0.4192852154588189 Si
   0.3668027713375595    0.4418080180741527    0.9153306446120979 Si
   0.3668451455963572    0.7759535440851719    0.9049989070771860 Si
   0.6986766912812508    0.1151618795491008    0.9219477916960440 Si
   0.6953480390430735    0.7264778049673963    0.4007220628321514 Si
   0.0357626158939838    0.7181810195681910    0.4160156469921149 Si
   0.3816501379057381    0.3913632174421496    0.4064117907690962 Si
   0.7031594617513220    0.0568962197430807    0.4198322307008379 Si
   0.0327651192030848    0.0505580126890704    0.4132417389861368 Si
   0.3824131186155355    0.8925087228752215    0.3686903363247716 Tb
   0.3823434412208553    0.9502590511865526    0.8610318043082195 Tb
   0.6153931540391473    0.3645665209973390    0.1281706404602431 Tb
   0.9575192183927610    0.0501801689015458    0.1534916206706075 Tb
   0.9411536979898556    0.3833587328938258    0.1382351088900684 Tb
   0.2738408987354847    0.4554278379738422    0.6372210879391307 Tb
   0.6260359015623539    0.4550405364031432    0.6327674988631746 Tb
   0.9572810536190357    0.4582352012197676    0.6355813687355285 Tb
   0.7140206862385239    0.8995525405754784    0.3339344495153684 Tb
   0.8510508704322270    0.7925101879583233    0.8619709615778144 Tb
   0.5155273321642396    0.1336162271994285    0.8761913764847752 Tb
   0.4582167424218301    0.8458817591162908    0.1154959037552331 Tb
   0.4679832622519020    0.1903256238525804    0.1456922889909429 Tb
   0.1778275362171805    0.7792512097026405    0.8371466765519383 Tb
   0.4834579014022250    0.6330243371070784    0.6158226320014747 Yb
   0.3913613871391057    0.5538508570852617    0.3557138420502564 Yb
   0.7307409775165321    0.2205005552728201    0.3659140429370230 Yb
   0.8385610054291910    0.7159756969228391    0.3529393716859773 Yb
   0.5200910601751484    0.3617423112560075    0.3660889762848897 Yb
   0.9466478482313331    0.7196351864474518    0.1581589399772076 Yb
   0.2109967318310276    0.3685511534903440    0.3678759278699035 Yb
   0.8638497932210811    0.4839507610545446    0.8706902782374550 Yb
   0.9384897202763673    0.1290969173236239    0.6275855028538044 Yb
   0.8423966954982334    0.1358453417522948    0.8734430718652129 Yb
   0.9481448492181941    0.7859301887267003    0.6317598794699597 Yb
   0.7173206737836944    0.2893614140240283    0.8781975079388191 Yb
   0.5297266452616753    0.0360391360502592    0.3738035085010464 Yb
   0.8151187237858154    0.3044921043842941    0.6448498478215949 Yb
