Hf31 Ta31 Ti31 Cr32 B250
1.0
   7.6070943960522657  -13.1744680171013968    0.0030260278404510
   7.6054402409117268   13.1735127604476627    0.0029616518336504
   0.0065351402688002   -0.0000372746220264   16.4945868989078228
B Cr Hf Ta Ti
250 32 31 31 31
direct
   0.5347358665689230    0.4632105504240059    0.5055668462406853 B
   0.0700628554837794    0.1338233059581327    0.9004402128097482 B
   0.0709650856640773    0.1351345615509582    0.6989690353786999 B
   0.0703932739488045    0.1339038590332544    0.4938074633623863 B
   0.0666797481207860    0.1314357092663223    0.3021143994734197 B
   0.0627217423948718    0.1278185535172670    0.1076177126939165 B
   0.9397149725756585    0.8684628055180184    0.9014852821428631 B
   0.9349443620386343    0.8655524553467391    0.6963522833228707 B
   0.9359435375570824    0.8670862275204424    0.5009276063089269 B
   0.9374038657076467    0.8719057460232117    0.2973109537340758 B
   0.9337621263201263    0.8686374237547192    0.1027195321137953 B
   0.9374689948866654    0.6703726408537571    0.8986391962238836 B
   0.9366084434879293    0.6685788251669521    0.6995245072202109 B
   0.9343930658183524    0.6661350323453930    0.4977794358898256 B
   0.9328672595477638    0.6677933852148994    0.2990072978020880 B
   0.9325685385256045    0.6679486573013390    0.0981257227673137 B
   0.9316557078878338    0.4656218246368669    0.9001554002063060 B
   0.9311062380239927    0.4647777230532694    0.7015645069063522 B
   0.9306501855059301    0.4648082595458792    0.4972528714647507 B
   0.9260634309369495    0.4656436012538932    0.3071679610976483 B
   0.0655157239726565    0.3328857853929774    0.1064009662448507 B
   0.0651781984193327    0.3329604567050941    0.3017940160638904 B
   0.0673957286570459    0.3347806949495047    0.4962999529435653 B
   0.0667095918198084    0.3316895387053947    0.7043851344181606 B
   0.2725437688811655    0.1370728299741689    0.6970539529835645 B
   0.2683096531538840    0.1354677271537428    0.4860707368164194 B
   0.2662193848272289    0.1323531693523173    0.3128523217577714 B
   0.2582215889956280    0.1326601249713086    0.0981617647836211 B
   0.0701816556965214    0.9327051916852001    0.8991579931154252 B
   0.0692119295960571    0.9336299826981871    0.6959150059730952 B
   0.0688594402874418    0.9355378414709281    0.4955484122348492 B
   0.0728847796661955    0.9391408606569565    0.2941485265506405 B
   0.0607011888335034    0.9305115747308098    0.0847792698818246 B
   0.9333762207253391    0.4645341304295023    0.0931918992418692 B
   0.0697526715245118    0.7350325496714720    0.8983900419596922 B
   0.0672982696190864    0.7345398206754826    0.4939907098626971 B
   0.0697457301502416    0.7385979280606206    0.3019819286128974 B
   0.0670399502979861    0.7364073132511335    0.0902938240988279 B
   0.0657276140968072    0.5321960350005744    0.9011578392805557 B
   0.0669693718920094    0.5333889280254837    0.7023344886304529 B
   0.0648972064443393    0.5329851456494678    0.4976476280712437 B
   0.0626424415924407    0.5333740553985843    0.3031057372329660 B
   0.0659536808474392    0.5319220517003131    0.0932545099472034 B
   0.0638181094730291    0.3310342100055347    0.8995963878159829 B
   0.0679161787363600    0.7343700327632562    0.7017398325453343 B
   0.2673740207684037    0.1365823072434462    0.8998760813358377 B
   0.9334455518295077    0.2695389354363688    0.9017501946395378 B
   0.9310854147396316    0.2678637627090463    0.4972266505996502 B
   0.7317858877542484    0.2652484579763694    0.5022958263896975 B
   0.7305367511880381    0.2683570755247519    0.3082460413548254 B
   0.7332358058064112    0.2678270398808283    0.1008061691635892 B
   0.7355667316991261    0.0716499498276430    0.9034017445443498 B
   0.7325840981604563    0.0688119595290577    0.6914694850661723 B
   0.7291354906931679    0.0661017244530791    0.4964281514572741 B
   0.7299117771862869    0.0667754565349989    0.3051913162375451 B
   0.7318125293789840    0.0682960317456686    0.1061997879176611 B
   0.5319302873128013    0.8670917484662906    0.9002907687605877 B
   0.5315115870351340    0.8663048554652771    0.6977085020381180 B
   0.5338859516303976    0.8711101622597343    0.4947413899897786 B
   0.5332106695982596    0.8693919204692619    0.3017424255498781 B
   0.5318769583351205    0.8675575915990704    0.1056335015099552 B
   0.5291588988263780    0.6641510236508417    0.8972510448868236 B
   0.5317014194413282    0.6626798916962312    0.7023519332384887 B
   0.5303309899769825    0.6597979444449542    0.4964521211655331 B
   0.5289636626548041    0.6624107812657446    0.3022973724941661 B
   0.5281359379829721    0.6643445763750122    0.1000092123336954 B
   0.5341302367457942    0.4665651367935825    0.8990611848624592 B
   0.7266841068434893    0.2640690446971696    0.6933697959119283 B
   0.7335078548319379    0.2722346656793949    0.9011672893288224 B
   0.7309184798991502    0.4649411563024578    0.0979513295525496 B
   0.7307656166975723    0.4639383224715358    0.2937719382917846 B
   0.9304214364438776    0.2672981232476496    0.3030837288149186 B
   0.9327035597908433    0.2681587057122206    0.1036184608858772 B
   0.9384206970893381    0.0700256058327986    0.9000363984522934 B
   0.9376518342785244    0.0694571739655533    0.6988714933510288 B
   0.9355190376580744    0.0654570020650633    0.4942434299796268 B
   0.9325088708594947    0.0666642622611089    0.3007967147393433 B
   0.9330913759546783    0.0674687541332179    0.1143130905112474 B
   0.7387986570539341    0.8678073395583712    0.8981053980390191 B
   0.7358546370468445    0.8631009992402099    0.6987780130807979 B
   0.9335173528784239    0.2691705974024999    0.6998287781160293 B
   0.7355980210796684    0.8652921069396879    0.4974369511742602 B
   0.7336326344845793    0.8689891034165450    0.1076977599983883 B
   0.7386545301490721    0.6715585268115857    0.8962249130029126 B
   0.7334234616161114    0.6655003698697497    0.6953820848400583 B
   0.7338217973464057    0.6634808340793379    0.5056596805736856 B
   0.7362066655976596    0.6610055083172929    0.2950147474166938 B
   0.7341201980702081    0.6614298893521430    0.1035698689353036 B
   0.7332931802927852    0.4667975798689957    0.8984220118466500 B
   0.7360456978923985    0.4630300723970612    0.7024327825587566 B
   0.7363293930532143    0.4604652868501412    0.5042451611415592 B
   0.7340690640401492    0.8684958376196783    0.2993350307865327 B
   0.5371871795481781    0.4683351496209023    0.7002453698777408 B
   0.2681724933280853    0.3322651831457537    0.1029360032394853 B
   0.2685022283592777    0.3309812488018213    0.4895867253980536 B
   0.6652824332404093    0.9351104456980772    0.6943643738406442 B
   0.6657190754948514    0.9361769735692602    0.4954049450659433 B
   0.6656688887557796    0.9358053085752602    0.3008467926575445 B
   0.6650441869110657    0.9348882477028549    0.1081041964889742 B
   0.6701453059342473    0.7348686415535007    0.8948661092249736 B
   0.6674767319701099    0.7289779886539204    0.6972908686222864 B
   0.6664811932401119    0.7273374240639133    0.5028306568017615 B
   0.6671869498162997    0.7314290292906639    0.2988302538056308 B
   0.6658859065122015    0.7331863177402318    0.1040299619631320 B
   0.6659215638468254    0.5308531488374001    0.8980206266040455 B
   0.6664929571685442    0.5297254270816167    0.6973911818525441 B
   0.6673408209728908    0.5296566661414318    0.5072461097219343 B
   0.6642214663061440    0.5260999155178988    0.2937277093808286 B
   0.6637870181031983    0.5259008968659842    0.0988317059732207 B
   0.6686322644134927    0.3386529129595080    0.8996557633071361 B
   0.6721142899983116    0.3351227247739572    0.7108994833929567 B
   0.6673211685627070    0.3290722940390199    0.5067581175092963 B
   0.6637009978345200    0.3322074640260823    0.2996443797738250 B
   0.6632382518529208    0.3345434712355889    0.1040905477296803 B
   0.6684694830657899    0.9364323718387535    0.9021229991119956 B
   0.8654927916271916    0.1354381463155693    0.1075634402314763 B
   0.8636633284013459    0.1331423111728007    0.3024791676738363 B
   0.8641159576693671    0.1333673649004998    0.4955747337842104 B
   0.8701151254459544    0.9328518422662938    0.4961042107276437 B
   0.8687006237547031    0.9358996048494310    0.3002796955849674 B
   0.8722400341906539    0.9376957476342900    0.1114058577247479 B
   0.8730728803317717    0.7383450503847208    0.8987803742621036 B
   0.8679901891921973    0.7357827557085213    0.6978843269949853 B
   0.8684850699349628    0.7330063883280019    0.5016437411614433 B
   0.8683595719056174    0.7336217307627165    0.2965175557470507 B
   0.8672486394884660    0.7314615961295259    0.1047886921819731 B
   0.8666596141210260    0.5317299099655628    0.8979680819306238 B
   0.6681241185729979    0.1397045081073560    0.9032787518012673 B
   0.8680910290928312    0.5305562657979922    0.7023564509214905 B
   0.8622273230248347    0.5344607044625882    0.2976254274873026 B
   0.8641246105699947    0.5331944093633967    0.0997309153103953 B
   0.8661374675322132    0.3362659217272367    0.9034694056864125 B
   0.8604349578967523    0.3344822388380864    0.6943497252996446 B
   0.8626394687692236    0.3342967843516689    0.5006704295051930 B
   0.8620649775301185    0.3349862139424392    0.3088702633134103 B
   0.8683437090754719    0.3341318354936975    0.0938481652331238 B
   0.8711648951868756    0.1377602030126566    0.9002037532847302 B
   0.8702628634347874    0.1371767116682655    0.6995413937280289 B
   0.8668216212152607    0.5300333497153034    0.4969439235751096 B
   0.2674348326882778    0.3313944180401729    0.3058535291907054 B
   0.6646494375916567    0.1332226113013501    0.6848448604085393 B
   0.6638874538104448    0.1328700308241500    0.3078509579799249 B
   0.4643791020547753    0.1319753727559301    0.3126814378122957 B
   0.4657565508168879    0.1354752907831341    0.1077487833378169 B
   0.2663223925871238    0.9317851699821855    0.8980561541476169 B
   0.2685550134726389    0.9361315161058292    0.6993039425829450 B
   0.2682899221840916    0.9361691473493018    0.4843467276518075 B
   0.2675079140688630    0.9346345294374490    0.3171382722719351 B
   0.2604112887692125    0.9323150174893835    0.1038327166028764 B
   0.2647599914009717    0.7323049121165627    0.9004656968073357 B
   0.2661073167120263    0.7313879493787299    0.7046535684747288 B
   0.2652716631431855    0.7348718980756168    0.4914206689798568 B
   0.2644668815755841    0.7362648949187582    0.3035381632895650 B
   0.2637308810768212    0.7351021862083783    0.0976525085807501 B
   0.2705634427493578    0.5358966303715615    0.9022303176651459 B
   0.2679544748469060    0.5333932019668740    0.7056371508396330 B
   0.2677934800358407    0.5316562385361276    0.4941665604926697 B
   0.2665925261211988    0.5326418401192339    0.3052239600366259 B
   0.2653193440521207    0.5336607810646123    0.0984427651480080 B
   0.2673796454970478    0.3324828683902357    0.9008916731751471 B
   0.2672901798346585    0.3327580008745282    0.7031402762291886 B
   0.4654209190819162    0.1337145857204733    0.4973303471035120 B
   0.4780557552753973    0.1396887629713857    0.6916835914698986 B
   0.4743383137135201    0.1408963208696088    0.8999799452011286 B
   0.4655372148767472    0.3325276028642503    0.1109382442539591 B
   0.6653666171300374    0.1347005007753504    0.1048766736211701 B
   0.4664157640301411    0.9344785031273775    0.9007008284932798 B
   0.4679161006504427    0.9343930944804167    0.6931818470741994 B
   0.4688097608760038    0.9369391852760749    0.4921820609384721 B
   0.4671090753660121    0.9355023721569199    0.3091907947973436 B
   0.4649904929591876    0.9337623812953013    0.1055489620451525 B
   0.4623057027333863    0.7288390912517605    0.8994270197581148 B
   0.4634766148853093    0.7292576211927024    0.7039814952214941 B
   0.4639804800828543    0.7289347491351691    0.4932818278044920 B
   0.6636036957333222    0.1302895188781976    0.4990504134782868 B
   0.4645272075450588    0.7320494645461918    0.3023312509362329 B
   0.4646273325632753    0.5333296755940287    0.8976198352901364 B
   0.4666955269344984    0.5319269790098365    0.7054204470827399 B
   0.4644966300924711    0.5269182117632690    0.4931644987058469 B
   0.4603600950655108    0.5255220780716923    0.3045443683798749 B
   0.4624799480389949    0.5279784782342647    0.0971195662829009 B
   0.4702754542286302    0.3386492940272001    0.9024846257955760 B
   0.4748885609442601    0.3364479791361917    0.7018548712975216 B
   0.4645474536309962    0.3238736151875353    0.5058273486311858 B
   0.4608444077746591    0.3289781613671214    0.3026459535412134 B
   0.4631767068767998    0.7323755064615657    0.1013925933056432 B
   0.8686043243365070    0.9306877712071896    0.6974368702571774 B
   0.8727670570381661    0.9344054856923628    0.9003344125786472 B
   0.5312502753349235    0.4595979654281178    0.0975709439714934 B
   0.3349285714217145    0.0692417626809768    0.4858994851829517 B
   0.3328987306950019    0.0672345930233322    0.3194554289270158 B
   0.3259142302167016    0.0662283571277419    0.1050218048836257 B
   0.1350248981468091    0.8644309485480424    0.8983766363016317 B
   0.1345753815489948    0.8675865942633851    0.7012200289477168 B
   0.1362533362075897    0.8684344678878111    0.4902526888389365 B
   0.1396990804387256    0.8740673837579755    0.3002638153317038 B
   0.1299156663842024    0.8652972988852032    0.0904697777765543 B
   0.1341908255470897    0.6669744131314854    0.9005779105186774 B
   0.1330587437840465    0.6657771425874975    0.7036650586055596 B
   0.5251047079678596    0.4574232217472378    0.2973833379085895 B
   0.1331741399136548    0.6707675047962591    0.3024260570073899 B
   0.1341027099480474    0.6704948986440878    0.0944058566733024 B
   0.3411708343148201    0.0732071619783081    0.6941327835090548 B
   0.1318786561501887    0.4667722561324885    0.9024835682388729 B
   0.1329781464965555    0.4662335565697434    0.4980125511620423 B
   0.1309128958292720    0.4655198292526578    0.3018134692632714 B
   0.1297050246289865    0.4654341082765847    0.1000616681952277 B
   0.1326560281288978    0.2637750677621952    0.8979122971736856 B
   0.1330982483288613    0.2663829584381577    0.7047560819297721 B
   0.1366349050066260    0.2666453741414519    0.4941324843096436 B
   0.1338838561080051    0.2649287781173635    0.3030246356482578 B
   0.1337568435067929    0.2630250749863757    0.1060096147262515 B
   0.1361547730944808    0.0688138083123480    0.8995250445762846 B
   0.1384839517058450    0.0689393249880125    0.6970281271080535 B
   0.1364184859036812    0.0696204950640893    0.4910786042391475 B
   0.1357628891286104    0.0672058274850439    0.3008648096656878 B
   0.1255532848460799    0.0641584452185646    0.0887122665673589 B
   0.1343224749146164    0.4665127407739912    0.7012279280873329 B
   0.3345857179162168    0.0681146084090739    0.8989207523304884 B
   0.1317496733195138    0.6676829472538564    0.4943398539403918 B
   0.3307204818106808    0.2656383343769179    0.3086689758108221 B
   0.5395783366305894    0.2759850275221942    0.8997401442299799 B
   0.3317079679477756    0.2670346991357575    0.1039882665488972 B
   0.5327618768459297    0.2615374173136872    0.5105725924902967 B
   0.5290986326229052    0.2634535866136032    0.3031629576067254 B
   0.5340263923038523    0.2698517862094667    0.1126896001800053 B
   0.5370382902637540    0.0720246286435075    0.9015212240320607 B
   0.5362679477787436    0.0661552006277250    0.6825712006267156 B
   0.5340100602439911    0.0668509892281136    0.4954532631350262 B
   0.5328537004975151    0.0663390381750037    0.3105125178645354 B
   0.5332907409837231    0.0686682061798270    0.1070245997559063 B
   0.3300380679606397    0.8637316890519012    0.8999593179722996 B
   0.3330812171337534    0.8657741086641244    0.7006773803110510 B
   0.3330972423827288    0.8694584022224614    0.4879712282557262 B
   0.3312984693533264    0.8680502282159648    0.3103564078069558 B
   0.5423212532100476    0.2693346367313414    0.7047173678236061 B
   0.3328283804900777    0.6651906630956332    0.9003842863814109 B
   0.3278936547386140    0.8657556381609305    0.1034945068740847 B
   0.3383620052275359    0.2684625199470524    0.6993858034451653 B
   0.3335910713311528    0.2693152696058125    0.9022275713254597 B
   0.3326864212636757    0.4650100058887636    0.0995679209459514 B
   0.3316648943066975    0.4633690437336426    0.3091343296114925 B
   0.3339073787587685    0.4647557803340298    0.4898365696685747 B
   0.3353805117508634    0.2668794633061991    0.4872263858772936 B
   0.3360418431399740    0.4699896244661150    0.9016814595516973 B
   0.3307002664404519    0.6662263957268411    0.0973864228228876 B
   0.3322065494167828    0.6664008898277245    0.3041031594782591 B
   0.3322013833136747    0.6639417053366847    0.4931927422467524 B
   0.3344640095759736    0.4672905430372882    0.7069175016478771 B
   0.3321936323534793    0.6641994449452109    0.7078237681871843 B
   0.3943507381523490    0.5982357691559788    0.0095724829339829 Cr
   0.3993706099531071    0.5930647099853846    0.3991625170584057 Cr
   0.4003279954987134    0.5977301297727208    0.8000184363139754 Cr
   0.5998410799442313    0.0016351669698276    0.3978764531617737 Cr
   0.6097143228459653    0.2201959105113353    0.8107325350302207 Cr
   0.5989052919185242    0.1890245919309106    0.5871136685268091 Cr
   0.6059890216461268    0.4097623346137683   -0.0094256717035876 Cr
   0.5866424993942436    0.3864495301753055    0.2131912999040999 Cr
   0.6092244560465615    0.3976400430182793    0.7977226504291830 Cr
   0.3916846534517733    0.3964485136175687    0.3982979302793564 Cr
   0.6023506083046074    0.0057833225770097    0.5927153841078460 Cr
   0.4021122365084372    0.3977486310969459    0.1884358030553349 Cr
   0.1988549756190222    0.1945347468504703   -0.0113608744344569 Cr
   0.3931591462651690    0.1992072268598568    0.3983173137692161 Cr
   0.4061758170532424    0.0023126091402505    0.4014727495779370 Cr
   0.2011756691893588    0.8036352990209560    0.3972713405472850 Cr
   0.1917173098677830    0.7929772296805797   -0.0086568091328533 Cr
   0.2074940249804038    0.2014166598864507    0.3979804939758436 Cr
   0.1989912987516736    0.0034598485800384    0.4004826590880310 Cr
   0.1789838469861021   -0.0061761420102094    0.1737612481398270 Cr
   0.0125499302787467    0.8042161955568601   -0.0136204113033764 Cr
  -0.0040559942839171    0.4042373867552093   -0.0097490547846493 Cr
   0.0033355269963106    0.2045506101872518    0.8041390259714033 Cr
  -0.0035952175318247    0.0073018082785646    0.2140192113070701 Cr
   0.4216683003430063    0.2112572384487068    0.6135526522121854 Cr
   0.6083450330163241    0.5950999783813110    0.5999063255179338 Cr
   0.0111153147650891    0.0007775914802205   -0.0149931540801264 Cr
   0.7992633602927430    0.7975827915153514    0.7904839777291427 Cr
   0.8011824923430846    0.3931492557623346    0.4104709003690010 Cr
   0.7831395026652697    0.3825993734394261    0.6019028147084663 Cr
   0.7931035094532785    0.4005867705128935    0.8084340426913873 Cr
   0.7876524528260479    0.5843019403114351    0.1934000048309077 Cr
   0.1995420238194656    0.8007925794881581    0.5966687813907617 Hf
   0.7989726608175360    0.2065195164984832    0.7977431224747897 Hf
   0.4026275195930030    0.3979241073550591    0.5993659674281803 Hf
   0.4054494778213054    0.2055216152374665    0.8005115299671879 Hf
   0.4037284033442989    0.2068421797662717    0.0035268386512428 Hf
   0.4054777374477560    0.0056656427549515    0.7968149056624190 Hf
   0.3911868529938280    0.0011400509710976    0.2090325167478118 Hf
   0.5994684806453213    0.7992367532266840    0.3988333500433151 Hf
   0.3962837938835605    0.5950696721499016    0.2023218833937411 Hf
   0.1986329378152891    0.3974402266561613    0.0014529739533333 Hf
   0.2075540862681758    0.0070763852361300    0.5931330717703093 Hf
   0.8023554766487840    0.6019774440056198    0.7984443569180852 Hf
   0.8082798114693811    0.8031354237543396    0.0027043530239430 Hf
  -0.0006792287496623    0.6027428594085986    0.1987455198609956 Hf
   0.0020013270444418    0.2012491115389584    0.5970582342592520 Hf
   0.0027072412204007    0.1989438014318512    0.0049290652888786 Hf
   0.0029881414116052   -0.0001101147653657    0.7973443535139056 Hf
   0.3966892671528825   -0.0014260304713601    0.0028361167623176 Hf
   0.4007771896751356    0.5959407629133543    0.5990921216048413 Hf
   0.5996706636141294    0.5929025221031066    0.3993391767830743 Hf
   0.5966930853871156    0.3927078842705020    0.4044881643393369 Hf
   0.8064468329968909    0.0029420881079358    0.0049443451609544 Hf
   0.8007761985845231    0.0001423054240127    0.5964966462362710 Hf
   0.8038252550097459    0.0026119614500872    0.7984852273387656 Hf
   0.5979009008652082    0.5980510105581108   -0.0008575430589930 Hf
   0.5951794065016969    0.5918873022119190    0.1992853560607902 Hf
   0.6016737047782608    0.0073603238500706    0.7962544737331546 Hf
   0.5980416723987931    0.7990228052698706    0.0014576777675347 Hf
   0.3994289373681137    0.8004850044021132    0.5956533646748023 Hf
   0.5991920019032756    0.7971746790615298    0.5975375775574686 Hf
   0.6006271638921740    0.7999095577787712    0.7988192809199949 Hf
   0.8026295779767154    0.7996042005713316    0.3991423121720664 Ta
   0.2010710311023431    0.3959971770660169    0.2030291257291081 Ta
   0.2064446968308291    0.2019338582042596    0.5979477895200100 Ta
   0.7999308236398136    0.5951469534559608    0.4011238878340587 Ta
   0.1969775749080960    0.1938542520038213    0.2032525136248343 Ta
   0.8006361790985227    0.5934730227206033    0.6020161896946645 Ta
   0.6002380316859400    0.5978183129889011    0.7997845014526007 Ta
   0.1999790818368409   -0.0001363044939309   -0.0049899531297845 Ta
   0.0051247051312602    0.8088180492645130    0.1974664518444097 Ta
   0.8000878518048076    0.7992770587047552    0.2006828188535471 Ta
   0.2005215010391007    0.3994401321550173    0.5967125069236742 Ta
  -0.0030047386297418    0.5969130915249869    0.6010065144414551 Ta
  -0.0017360366441486    0.1990297795374208    0.3989328309533330 Ta
  -0.0002045827019809    0.6016862456366093   -0.0028596252007806 Ta
  -0.0012260122424062    0.4000425192348169    0.8010744181788133 Ta
  -0.0055584107825206    0.3998479851984820    0.5989350703465559 Ta
  -0.0032579542325742    0.3992870574417736    0.2050747549906902 Ta
   0.0034947705312586    0.8040846065577513    0.3965975474889777 Ta
   0.2020222417818171    0.4009986931354542    0.8058695792962016 Ta
   0.3966947220320643    0.8015999478931154    0.2056335138156940 Ta
   0.3914065092814721    0.1973297990751568    0.2067872568945055 Ta
   0.1974349839056503    0.6013452209407989    0.1994141676867026 Ta
   0.6015991586176147    0.2064800465217328    0.0058316173830589 Ta
   0.7956159892548257    0.3986003282890607    0.1977880603963051 Ta
   0.4025084470956056    0.0049069707636233    0.5930025185160754 Ta
   0.8025124945619682    0.6008589601447620   -0.0030607450179869 Ta
   0.6015133385013527    0.0034997391544268    0.0023180450817860 Ta
   0.3954145723425940    0.7968964532555832   -0.0016960913210771 Ta
   0.1976055467180945    0.5975148012303902    0.6001403467951316 Ta
   0.1983216172416015    0.6003351959382160    0.3982630325214978 Ta
   0.7960368918373927    0.2011274550211387    0.2054952294527084 Ta
   0.7968371631035223    0.2021243313546817    0.5973475462191583 Ti
   0.0001252764504589    0.1996720118074876    0.2041163413574439 Ti
   0.0035514143664121    0.0008106745412825    0.5971803056755878 Ti
   0.3989075028299711    0.7979161800775496    0.8013622148294013 Ti
   0.3996488902046355    0.4001660483307993   -0.0003667119618318 Ti
   0.8009490465740692    0.7972372562686660    0.5988990704427509 Ti
   0.4039213608811193    0.4026426680862282    0.8024292837888942 Ti
   0.5974761757432731    0.0013338705172075    0.2057903334639281 Ti
   0.0059263475340537    0.0014996888689952    0.3981242965648230 Ti
  -0.0040732692548670    0.3997406130780919    0.4009830057138402 Ti
   0.7967968679970890    0.4013535415627813    0.0011810340537368 Ti
   0.7954001244747234    0.1998142617720013    0.4033620768512521 Ti
   0.1998730796596782    0.5996212437002127   -0.0012559560963524 Ti
   0.8018319034267126    0.2046266518269795    0.0007695305408975 Ti
   0.2000625791087592    0.3985128712134808    0.3987902453700262 Ti
   0.2010692133199585    0.5989488330825836    0.8047588587600089 Ti
   0.4001254406072670    0.8004866248630199    0.3994659022632141 Ti
   0.2018219227532876    0.2024567469996146    0.7987315951179175 Ti
   0.7982384051300149    0.0013201218695281    0.2055018201011896 Ti
   0.1973089218694539    0.8052177215969238    0.2028440434514379 Ti
   0.7996348915737442    0.0005709760896064    0.3992410162796926 Ti
   0.2029344516108198    0.0013036276732300    0.7977196569363126 Ti
   0.6036592683722324    0.3939264450843362    0.6035730982076711 Ti
   0.2005901184044631    0.8000385817017858    0.7993702786797581 Ti
   0.5978832803454451    0.1998027809974994    0.4038445616529716 Ti
   0.0011063317155275    0.8015095070726388    0.7975866897052443 Ti
   0.0011976472585622    0.8005402056876856    0.5982660374158512 Ti
   0.5973587520844060    0.2017355738965081    0.2079517158870575 Ti
  -0.0000646552071813    0.5983565514669067    0.8009944407198134 Ti
  -0.0032844412017157    0.5997324535419434    0.3979106017133022 Ti
   0.5977090465529596    0.7993326760602433    0.2029217103832935 Ti
