Hf31 Zr31 Ti31 Cr32 B250
1.0
   7.6736942905416994  -13.2856718540037573    0.0054045800946003
   7.6652399385263239   13.2807907360531985    0.0011980424219600
   0.0072149260382129   -0.0026573912030995   16.6382496209748219
B Cr Hf Ti Zr
250 32 31 31 31
direct
   0.5364363586467603    0.4675390188776284    0.5033953589689681 B
   0.0631800775585666    0.1275957916431790    0.9004742755037873 B
   0.0638469719365068    0.1291215442129116    0.6870479894780592 B
   0.0693092267417533    0.1343064741604364    0.5131007285912103 B
   0.0749931120574086    0.1377754104200607    0.2959712553065195 B
   0.0663483310722820    0.1321675938006308    0.1060703443375550 B
   0.9296318249843128    0.8674814630388678    0.9021186390336144 B
   0.9333894422695110    0.8689394315546403    0.7001393283421555 B
   0.9391020608131100    0.8666224130035814    0.5006625510919599 B
   0.9379636866171516    0.8638662017959701    0.3061204326736225 B
   0.9311441614082401    0.8653405373833956    0.0977325386202877 B
   0.9286740349124779    0.6655457704908763    0.9053608831279786 B
   0.9330467177975220    0.6691340333929763    0.6952863830825957 B
   0.9349079666316085    0.6672090655843418    0.4902079045240906 B
   0.9368179632800092    0.6664737247267651    0.3136686562047549 B
   0.9292761557039506    0.6626155017275670    0.1038465138479211 B
   0.9349045663373078    0.4633660442769231    0.9053293276996243 B
   0.9363275583550551    0.4653201016658535    0.7037263072975405 B
   0.9345337501650115    0.4709283320130968    0.4919156218998273 B
   0.9333675256676610    0.4736501184946252    0.3052399381540689 B
   0.0628177736883515    0.3334788411384676    0.1000466520932330 B
   0.0682121431568687    0.3324336895566520    0.3015655259392411 B
   0.0683408990629273    0.3293957138834976    0.5015295849295855 B
   0.0644987792351946    0.3315712840469762    0.6991278024223644 B
   0.2679381717870009    0.1337168098500748    0.6926458017011782 B
   0.2675131145159322    0.1368177833535874    0.4979424392773324 B
   0.2698090104802019    0.1376709421230556    0.2834950698446284 B
   0.2649441364693471    0.1301602978267259    0.1102747937444910 B
   0.0652602053584038    0.9339610282132182    0.9036685778182921 B
   0.0635824756843677    0.9346972667567174    0.6940720728006684 B
   0.0682120601622975    0.9352628525049153    0.5014308443911041 B
   0.0732724359478761    0.9346397675745332    0.2971500490589450 B
   0.0696513222784249    0.9345454082759805    0.1003681323418471 B
   0.9316016130740714    0.4666034799857726    0.0972903609852981 B
   0.0688649901128377    0.7345627137905443    0.8997031573087881 B
   0.0652638921822528    0.7338981877044921    0.4913911683895714 B
   0.0656944046948179    0.7334163611141762    0.3040738828687909 B
   0.0688851767691237    0.7344974259160925    0.1080320704197422 B
   0.0655375822488601    0.5293325508094582    0.8943647115061970 B
   0.0716910448867614    0.5343478635780584    0.7036081055807252 B
   0.0695927493958761    0.5372359607360174    0.4950030103796311 B
   0.0657133303381813    0.5393078685844392    0.3041056919244903 B
   0.0635346427438089    0.5338070084438665    0.1005624743714168 B
   0.0625225953279567    0.3372066216212919    0.8974534667895666 B
   0.0692493212469926    0.7341878975015125    0.6994821895035246 B
   0.2700132156922780    0.1309615969618381    0.9057752190001694 B
   0.9329730062515853    0.2702423865599360    0.9010159486640720 B
   0.9349563686548408    0.2637258621356734    0.5069937301552798 B
   0.7316444243996822    0.2658157739685125    0.4990435199872064 B
   0.7267506224078211    0.2667157722157751    0.3060521405322936 B
   0.7267796175918797    0.2643497449311789    0.0978238238994144 B
   0.7258582375813176    0.0618348036993379    0.9033533779025478 B
   0.7342059304784276    0.0660662710915469    0.7027134353077776 B
   0.7360829018390284    0.0662902813639435    0.5034954941072428 B
   0.7333687713848135    0.0643889244691051    0.2986669750474916 B
   0.7271178082617131    0.0599712295709136    0.1057120388544076 B
   0.5290108452040619    0.8652521373853285    0.9105749260319722 B
   0.5321718120518694    0.8642804943496624    0.7009681736403461 B
   0.5354020754239293    0.8651616846232529    0.5010474426357886 B
   0.5349554307565205    0.8693347807082467    0.3030872820674524 B
   0.5348460114607202    0.8703111653679131    0.0823090950931181 B
   0.5275226482860026    0.6659682819767828    0.9057400485863274 B
   0.5341471987293658    0.6674055253369487    0.6946173322812220 B
   0.5378210538955901    0.6695286564266990    0.5076443472401754 B
   0.5384162367426941    0.6735168122380863    0.2998489467088153 B
   0.5305485265766872    0.6733568920030807    0.0887778180303316 B
   0.5323660281846494    0.4651579459320933    0.9000353286372687 B
   0.7303536511648957    0.2638965691001148    0.7004765307806461 B
   0.7275657138505122    0.2640311666322662    0.9021261880241447 B
   0.7320409697070368    0.4673109035041495    0.0949684742528628 B
   0.7357833850436402    0.4699670208465996    0.2989346725885377 B
   0.9334668755166745    0.2647991810385422    0.2983246180904605 B
   0.9308999782644169    0.2667955944751014    0.1016603277696621 B
   0.9302086220683057    0.0613831888623708    0.8994402961919222 B
   0.9349922461794009    0.0623901148065936    0.6984414086381774 B
   0.9388714865801508    0.0686759458301163    0.5080911970677872 B
   0.9329536885187012    0.0674055888740241    0.2975414383290459 B
   0.9296228641950222    0.0643262231184487    0.1067216061099924 B
   0.7309326737032209    0.8646414480096623    0.9022381446192940 B
   0.7335090811860591    0.8622391427184352    0.7071256237619288 B
   0.9336628460551722    0.2651018750313828    0.6974460172290983 B
   0.7321037940171713    0.8652996306513812    0.5000194883255190 B
   0.7299873621105017    0.8675227395067631    0.1141027773440252 B
   0.7345758283700817    0.6696210017407132    0.9043185668226510 B
   0.7301881898339782    0.6655935739458630    0.6944278419451803 B
   0.7352689188724301    0.6642725164686043    0.5032141319773848 B
   0.7412132400104339    0.6622337354437539    0.2995893649930036 B
   0.7345218054907657    0.6655740517795085    0.0955133685247601 B
   0.7329020231196289    0.4668728582295844    0.9103943094548669 B
   0.7316477554114661    0.4668263203245352    0.6957822772011149 B
   0.7363421818029149    0.4706131375862276    0.4966249128004654 B
   0.7355365631090272    0.8709605467101929    0.3011907482947604 B
   0.5339503330797940    0.4675149253924052    0.6952266212518108 B
   0.2640955774649600    0.3285161968504509    0.1035916229920519 B
   0.2664486528351314    0.3285145748227096    0.4931416367031736 B
   0.6657344111584631    0.9292178837286701    0.7019371772282119 B
   0.6670561813644644    0.9302689872334037    0.5008823187766730 B
   0.6690591220304868    0.9336709166097147    0.3008946277939008 B
   0.6604008943504056    0.9259883284131175    0.1118641947239941 B
   0.6670942933199160    0.7352678994350186    0.9041571332212592 B
   0.6631239955047591    0.7312366986931930    0.6924756058028385 B
   0.6654967221862772    0.7318073716838265    0.5062270445995577 B
   0.6695426263215978    0.7368428182136516    0.3011405581140425 B
   0.6622714033331397    0.7400027712543987    0.0970543891504338 B
   0.6689193499243231    0.5340450155023979    0.9070629268288907 B
   0.6650801381772087    0.5344111412239789    0.6900403680432556 B
   0.6684615979039433    0.5341246336670900    0.5052430385042008 B
   0.6708718464688880    0.5331205046126426    0.2920668085400996 B
   0.6693044772619874    0.5327580062993498    0.0963743506642649 B
   0.6649788107556239    0.3316354364444147    0.9058255558205730 B
   0.6645037367276860    0.3296246951025997    0.6988910686879282 B
   0.6665966456680449    0.3315582379132836    0.4975527610521365 B
   0.6617730915593129    0.3306853504368568    0.2981590057320321 B
   0.6623286802372339    0.3318785095439308    0.0974534583511404 B
   0.6597967321983084    0.9292858379572324    0.9074211597918397 B
   0.8617212277283611    0.1280395511100868    0.1093905448288716 B
   0.8647908074624262    0.1287330729807919    0.2965215401950831 B
   0.8706011360124313    0.1329271201663602    0.5064541444313319 B
   0.8723828283851001    0.9359614898752970    0.5010120305065133 B
   0.8664866076739919    0.9355765998216565    0.3009810995327930 B
   0.8635223197018246    0.9317674205294346    0.1024422887299154 B
   0.8630906106682678    0.7347058261505872    0.9059379995554010 B
   0.8657174665167584    0.7344473889886954    0.6975718179834957 B
   0.8710946398871723    0.7319019652920687    0.4965028721764307 B
   0.8712398961622204    0.7300932247858309    0.3097016670168395 B
   0.8630519186382553    0.7276853255179088    0.0980696592960854 B
   0.8640210937911340    0.5322587888570941    0.9075571325236975 B
   0.6599357875874551    0.1317290294211961    0.9025592933708148 B
   0.8662583321983109    0.5345060977361888    0.6987806717259958 B
   0.8663359579865954    0.5384538605635830    0.3076050967334041 B
   0.8627112216891074    0.5340692074442059    0.0980384467486863 B
   0.8666135206061969    0.3339702150258894    0.9057037414542867 B
   0.8683538198401271    0.3320569757525832    0.7019281816090379 B
   0.8668974496735895    0.3329648483869188    0.4998270193514652 B
   0.8639935103141329    0.3356053686835520    0.3030786157429453 B
   0.8650030843649945    0.3340871569066402    0.0958637193400294 B
   0.8622467201313909    0.1291669918792373    0.8998977927589878 B
   0.8691976174198685    0.1326286793627142    0.6973548041407115 B
   0.8680896984229404    0.5368914057088410    0.4892757964824662 B
   0.2671421488078219    0.3319549683127903    0.3066012909496574 B
   0.6642728111850728    0.1337211154378125    0.7009759041998735 B
   0.6582150073523910    0.1360816002601111    0.3045711848534271 B
   0.4590674638306355    0.1288073095457428    0.2814767517034620 B
   0.4612298410044095    0.1320305308607441    0.0976375126750762 B
   0.2699474800898077    0.9349281405078970    0.9011606627315519 B
   0.2715946642085717    0.9335536654634268    0.7009665349539695 B
   0.2750899497898948    0.9370096808950921    0.4983637510712952 B
   0.2668306872732966    0.9362777521422981    0.2781680651546568 B
   0.2673582235706179    0.9371980686464116    0.1046202883637534 B
   0.2698618848678752    0.7344424868797971    0.8952694808555808 B
   0.2659434706169537    0.7310356300417377    0.7076205646516167 B
   0.2664152540896255    0.7327313972266467    0.4965028688414505 B
   0.2682397751288831    0.7403166553541976    0.2982315805817733 B
   0.2688065567834624    0.7397924661741798    0.1003026382948047 B
   0.2681693907986248    0.5370738444683275    0.8965326945239376 B
   0.2641620124140237    0.5366664716349546    0.7048902996149498 B
   0.2650025812934905    0.5348414874171422    0.4977749287296874 B
   0.2671873906986256    0.5362553213663697    0.3041343636208485 B
   0.2691983727206486    0.5384776548523118    0.0942082114233221 B
   0.2685213144791209    0.3330528102502663    0.8974483381986683 B
   0.2661014210579731    0.3290010699138395    0.6968528982980896 B
   0.4703006725355814    0.1321663720428354    0.5009381004439624 B
   0.4687319392092796    0.1323636843549974    0.6949510033242143 B
   0.4681316774268955    0.1332651882647867    0.9028579145908110 B
   0.4643673985816661    0.3257291345833546    0.0995413451418682 B
   0.6586045915728087    0.1278367776932464    0.0970480958010851 B
   0.4644341253669856    0.9315748437929132    0.9074008593122789 B
   0.4635569412346747    0.9340937669463325    0.7032061187081738 B
   0.4674743736762909    0.9347644961805281    0.5022950695345155 B
   0.4621197636667770    0.9394762112893877    0.3090917256125753 B
   0.4657811559402292    0.9321890270524777    0.0869430665549976 B
   0.4623836786927682    0.7324138600156899    0.9082250886405574 B
   0.4648730516470175    0.7318932503144574    0.7025794303097251 B
   0.4708735940564778    0.7363078820676410    0.5025515925468251 B
   0.6677734748022277    0.1354162070907789    0.5038386544093435 B
   0.4723552293751880    0.7402778247761708    0.3010204654236205 B
   0.4642919595690346    0.5332211701082840    0.8984287740066882 B
   0.4684450045793350    0.5335825482360740    0.7005551050959065 B
   0.4716078955931770    0.5343892175417577    0.5024147911488732 B
   0.4690338758446362    0.5341117479399806    0.3014818901046756 B
   0.4649539401767287    0.5381795020426157    0.0941411161179137 B
   0.4666976122993171    0.3290258637622193    0.9028150006300911 B
   0.4674269476953312    0.3319411968564655    0.6959291623344817 B
   0.4673166645732641    0.3308019702624017    0.4994903402396601 B
   0.4654206791505868    0.3298823464156113    0.2947509108214114 B
   0.4659162163524604    0.7384667145939812    0.0800646640709375 B
   0.8644709651299893    0.9290229012048098    0.7124785512010153 B
   0.8626771615888389    0.9297624016112859    0.9001490615627380 B
   0.5346632706156614    0.4632313587158923    0.0990063210080763 B
   0.3402887250604426    0.0678894772748324    0.5003366411576424 B
   0.3302191620789005    0.0673572704699296    0.2752544747230998 B
   0.3324792009451656    0.0694405878365441    0.1009039532074498 B
   0.1364654777860820    0.8698685576219657    0.9019967723335950 B
   0.1341217037642093    0.8668154255115316    0.6983258590083811 B
   0.1309824661662939    0.8656381116513210    0.4953283429980392 B
   0.1372372890618318    0.8669793721230558    0.2907363707030368 B
   0.1371197033598353    0.8693927482528047    0.1068016551944037 B
   0.1370292040103752    0.6664799058592599    0.8939715897176105 B
   0.1374914499525813    0.6649557901291732    0.7022254246537151 B
   0.1336095976914369    0.6671834752744693    0.4932026420333104 B
   0.1325953317898314    0.6701434549739138    0.3008426038412715 B
   0.1342870988158851    0.6704461271672388    0.1053456203157791 B
   0.3385852470302724    0.0652268607399619    0.6953934732949366 B
   0.1320501058803199    0.4686139117972227    0.8925073484435929 B
   0.1352782274541839    0.4692692533017112    0.4978748392052823 B
   0.1348494105567556    0.4702859220961804    0.3046862565121083 B
   0.1290509001645750    0.4669651650553663    0.0961790309084796 B
   0.1310555210567667    0.2652518201729782    0.8996042022546744 B
   0.1299577545276518    0.2601703712908536    0.6909887716076318 B
   0.1368322822220953    0.2624771388339451    0.5009450208534310 B
   0.1376636542557713    0.2663375800203069    0.3022224405302758 B
   0.1309420323246353    0.2637736975264980    0.1059957206813252 B
   0.1309942961069757    0.0666182856312939    0.6911999988497224 B
   0.1361656564924681    0.0719379769516974    0.5043047315353046 B
   0.1411578792895703    0.0717418689989759    0.2923607524902503 B
   0.1349529239844819    0.0658803666740540    0.1050445123159259 B
   0.5349954419899924    0.4656356632857928    0.2979743213770935 B
   0.1330310721061429    0.4683104694811545    0.7033284594579370 B
   0.3365612021615746    0.0669418406138415    0.9059288411107193 B
   0.1324616207993876    0.0632298923183286    0.9037654995613510 B
   0.3296046997302340    0.2647473223301887    0.3006787633429370 B
   0.3321373776535049    0.2591193428633312    0.1065751749010509 B
   0.5342707759370683    0.2639528140704941    0.6952343990672205 B
   0.5357415201468311    0.2641092617244780    0.5004431506074584 B
   0.5299338664078834    0.2624999428116728    0.2876107713661749 B
   0.5289964747104235    0.2620903130956787    0.0975163447833364 B
   0.5301442152227802    0.0647432535462506    0.9047675714155151 B
   0.5304792035199948    0.0666370313907980    0.7005601680082125 B
   0.5339415719059256    0.0679756795229250    0.5030067548078033 B
   0.5261215885721334    0.0729153687727873    0.3121581969431366 B
   0.5267993290582038    0.0638140446700141    0.0956748388792373 B
   0.5332925013548576    0.2631571660458505    0.9047257139037478 B
   0.3331737782164119    0.8658334299085740    0.7071284231632463 B
   0.3375423159844558    0.8695067436794349    0.4981687846278754 B
   0.3338641833374666    0.8748681525035509    0.2931495227031294 B
   0.3350075144044920    0.8668180138490302    0.8992456870098292 B
   0.3336275756989744    0.6674655086705524    0.8987957060969336 B
   0.3327873687934408    0.2649679720141683    0.4950420069399922 B
   0.3335300512491437    0.2642019232276742    0.6945087574134418 B
   0.3358943706279193    0.2639605886036890    0.8995403319592520 B
   0.3338071526664219    0.8730149638373368    0.1016689222650286 B
   0.3340756932937383    0.4670836659103603    0.3042660445466169 B
   0.3332515960430780    0.4640269968236997    0.4957242946444404 B
   0.3328937606053954    0.4696855416468877    0.0956513799506558 B
   0.3344054052400145    0.4693294517269851    0.8974794479737472 B
   0.3365087585273350    0.6730716737130246    0.0894920105741974 B
   0.3353156754645434    0.6734926484967914    0.3021657517393158 B
   0.3312029641865924    0.6677665594505573    0.4993175945938492 B
   0.3297225784091020    0.6654310469287547    0.7091618697130755 B
   0.3346330320317338    0.4667419571095063    0.7042481228208688 B
   0.7938880383455494   -0.0031332631390307    0.2050917360852345 Cr
   0.1955171778729161    0.1949342477759026    0.6004066918844119 Cr
   0.5995597044610176    0.7961707846617696    0.5983211319691903 Cr
   0.6142462743372935    0.8113908333780020    0.2174493569040467 Cr
   0.5885379248193953    0.7918510817840421   -0.0074254226980629 Cr
   0.6027199359257587    0.5998576596108641    0.5979216894418462 Cr
   0.1983690734937913    0.6000056956028335    0.5842212461303077 Cr
   0.5876473103795262    0.0000944560423322   -0.0037046110723675 Cr
   0.2057465001741803    0.8097975975974493    0.1958130951217780 Cr
   0.5989656192391524    0.1965610025253143    0.7913243295168843 Cr
   0.3908134410533662    0.0046665398185954    0.1861036661531537 Cr
   0.6045687316355441    0.1976729851994197    0.4119925567196728 Cr
   0.4119297109075994   -0.0001482488716567    0.4180004750214486 Cr
   0.4058612330722255    0.0086033480030658    0.5977887765941103 Cr
   0.4085714797866368    0.1973813771058006   -0.0056834440311225 Cr
   0.4038458764793776    0.1948890648850650    0.1921405118854035 Cr
   0.2098939273686577    0.2093738780489009    0.3967925397347323 Cr
   0.2040680825834266    0.6028692688426120    0.8042355048309505 Cr
   0.1993386710087742    0.1946509986536642    0.1974442261880772 Cr
   0.4043383798597485    0.8014916685211795   -0.0061086406153768 Cr
   0.2013680965169781   -0.0003621587439532    0.1950542813404056 Cr
  -0.0025826958077115    0.7924916601933085    0.4020010752166544 Cr
   0.4018107866080980    0.6068873657230910   -0.0032832020884446 Cr
   0.7923830380610427    0.5946013635547522    0.1843391343511959 Cr
   0.8025515283157469    0.8088762061183040    0.8096665142778978 Cr
   0.0082945757356123    0.0049826328633699    0.5965234027317478 Cr
  -0.0016055001520251    0.6037523471377765    0.3977385500719884 Cr
   0.8107762932495105    0.6048680899349254    0.4044930980548430 Cr
   0.0006888910966791    0.1963342683784957    0.6002325788446705 Cr
   0.0048038803063030    0.4021112173593469    0.7917652138577280 Cr
   0.7972838242753912    0.5969046251911830    0.0031830805746716 Cr
  -0.0072098337260496    0.3986700745429462    0.0078412106845814 Cr
  -0.0018595636603772    0.4023161704259750    0.2015623833696102 Hf
   0.0048093639517685    0.1985461040126610    0.4011466884375460 Hf
   0.4036467353499739    0.1966067216597900    0.7984431962041704 Hf
   0.3994949010321956    0.3966661573618665    0.5977098534177213 Hf
  -0.0030764515977577    0.1976794838891106    0.7984510192612064 Hf
   0.2027254701708459    0.8000535062975020    0.5990414489147019 Hf
   0.2051269546782963    0.8033010073815613    0.0003261232364705 Hf
   0.2019544543911278   -0.0005481167565849    0.7994273244378194 Hf
   0.1996572847307246    0.6064807796360553    0.2006606528250288 Hf
   0.0015364634827219    0.4020837271393969    0.4004293287520920 Hf
   0.1999760430494336    0.6018308157002816   -0.0028819650234828 Hf
  -0.0002468491161627    0.5995291213836421    0.0014684777649737 Hf
   0.1989017814368481    0.4003790538314676    0.7983523588422390 Hf
   0.0019306234556635    0.5984342298458866    0.8010174290236920 Hf
   0.1979581125519690    0.4027775185069382   -0.0021539824973459 Hf
  -0.0002467664116605    0.7998378074083065    0.0031788767146372 Hf
  -0.0023566227364014    0.7945478478665012    0.2029520169691904 Hf
   0.2040010091983279    0.8063086132197245    0.3956014066426492 Hf
   0.0031065310867663    0.4009933836572390    0.5995796265684769 Hf
   0.6064067000899553    0.6007151838440802    0.4007444486721288 Hf
   0.7938988569900515    0.1979305001898272    0.2012228228431172 Hf
   0.5998688462839652    0.6016573704178814   -0.0001823316274533 Hf
   0.6006739067573058    0.6031774843587642    0.7997222054042563 Hf
   0.8002885208364786    0.3971682902621114    0.8032365251977247 Hf
   0.5954313159464907   -0.0008596241231849    0.8031504915651139 Hf
   0.5997778541197628   -0.0012120289794470    0.6027532706731984 Hf
   0.8005256065229625    0.7975598939367186    0.2019225453953351 Hf
   0.8027069701399205    0.7990007884022482    0.4019823126640406 Hf
   0.5999717396711700    0.0008189175063780    0.4021351697521028 Hf
   0.7985614080102398    0.1995860844969766    0.8014842569344941 Hf
   0.7931007548912028    0.1962493905781997    0.0018408733443378 Hf
   0.7991962693235523    0.4026067498447674    0.3987725489886492 Ti
   0.4014038491753196    0.8066079519083712    0.3996276829068922 Ti
  -0.0024001244825833    0.6038265771106707    0.2034473831393330 Ti
   0.5996886452151240    0.3989447247997713    0.5977036969566747 Ti
   0.2006298456907360    0.3980957319650690    0.4014634862537487 Ti
   0.7984275643443776    0.3985452755532927    0.0006325104464109 Ti
   0.7977311612306962   -0.0036828075719670    0.8026860931919344 Ti
   0.6026247120132581    0.8024681842113490    0.4013337867135065 Ti
   0.2036674236632048    0.0017556600841527    0.0038409781005813 Ti
   0.7997261329439017    0.6013919845567252    0.5972872648825597 Ti
   0.2002185540997292    0.6044225219874827    0.3989249499516423 Ti
   0.8010452181355546    0.1991710756456733    0.6025947980697774 Ti
   0.8018552496884910   -0.0012771663070276    0.4027159186512330 Ti
   0.7946988944080596    0.7978121621275975    0.0041883893195624 Ti
  -0.0028345861260947   -0.0041030830129962    0.0021061971195113 Ti
   0.5986206218220212    0.3965550112992389    0.0019686226327145 Ti
   0.3973529504784666    0.5997079587405149    0.8011374641068876 Ti
  -0.0044819336891269   -0.0035516599669301    0.8013644934164256 Ti
   0.3976898388029995    0.7981250598024500    0.8027745085634413 Ti
   0.4003068593845615    0.4006425737609653    0.7982992975817891 Ti
   0.0009009324058591    0.8024153797884661    0.5973661019605293 Ti
  -0.0009356236101794    0.1979755232436189    0.2024288362732648 Ti
   0.4007701657308089    0.1984625527031620    0.5962588491554941 Ti
   0.3991693726468116    0.3965847514035757    0.3997695411186863 Ti
   0.5944747955455968    0.1968648083712112    0.0018308691285343 Ti
   0.5913661382013622    0.1968248856708633    0.1954595770176111 Ti
   0.5974556592645228    0.1974778534330459    0.5992974356137578 Ti
   0.4006626515596460    0.0015799935961502    0.0008385852911264 Ti
   0.2025388395259431    0.7994745615965940    0.7999818786228096 Ti
   0.4022457079937402    0.0001257592601900    0.8038381259892184 Ti
   0.5992504020841247    0.3983616115445360    0.1960628455328565 Ti
   0.7992049705171438    0.3998420237110105    0.5978822588072571 Zr
   0.7969700723142567    0.4029154908887528    0.1997476072471700 Zr
  -0.0038354678787257    0.1979271109452364    0.0020496098940040 Zr
   0.0025852861866632    0.6021683893830108    0.5969937282072594 Zr
   0.8034082789993271    0.8018678184020738    0.6002114542034571 Zr
   0.0076626820762005    0.0041369244594714    0.4002715863097089 Zr
   0.7985552772951222    0.6026047145767406    0.8005412153780258 Zr
  -0.0000769086596143   -0.0017351757885150    0.2012956489075750 Zr
   0.4057084464061324    0.8086454668680229    0.1965534112329840 Zr
  -0.0010236849634041    0.8021504056079999    0.8003141325759749 Zr
   0.3976223885134970    0.7993405806585050    0.6026386751818213 Zr
   0.3981147083714102    0.5995715981613025    0.6020376682474242 Zr
   0.4030525184723961    0.6037602905217159    0.4013174497851208 Zr
   0.4052546754385840    0.6094325426596098    0.1965856373956288 Zr
   0.5912399456638674    0.0002960093750566    0.2019397631545839 Zr
   0.3991871000934701    0.3963213413572782    0.1999677401903263 Zr
   0.4005368293023790    0.3978261004910866    0.0002967883808228 Zr
   0.4037999691039177    0.1939887811128331    0.3931834426623821 Zr
   0.6020681960710510    0.3983773978686987    0.3979144281351493 Zr
   0.5992712179844761    0.3970971046480761    0.8003928809539321 Zr
   0.6028214069033714    0.6044645863528556    0.1965920340048321 Zr
   0.1997724160216207    0.3988512510807912    0.5991269348115800 Zr
   0.1996440037529462    0.3998906475679948    0.2015145577125309 Zr
   0.1983079772857044    0.1963144673341657    0.7972778960745202 Zr
   0.7894571775550041   -0.0081797177254905    0.0052142670337076 Zr
   0.8015229162308583   -0.0033457720515712    0.6033180122772166 Zr
   0.2010117577493378    0.1960345695499988    0.0031484815804196 Zr
   0.2036810325009492    0.0006165322049370    0.5969724391576908 Zr
   0.2075806210535734    0.0029771003430414    0.3938560592955913 Zr
   0.7998597254756631    0.1984849412147359    0.4013337237201693 Zr
   0.5967037059916795    0.7975552714414377    0.8031620187169781 Zr
