Sr36 Ca36 Yb14 Sm14 Gd15 Dy15 Y14 O288
1.0
  16.7122412291376143   -0.0039215141144494    0.0055178839820468
  -0.0039220959067054   16.6931169075846562    0.0097077701429371
   0.0073611214142487    0.0129395358562481   22.2366457746475454
Ca Dy Gd O Sm Sr Y Yb
36 15 15 288 14 36 14 14
direct
   0.1492971694933880    0.3305187434423423    0.3865330021823977 Ca
  -0.0197522984631389    0.1868088723574856    0.3721168892637292 Ca
  -0.0013784188019762    0.1465743166368242    0.6306535321325866 Ca
   0.5025266289511024    0.8551991275670801    0.2363362285052064 Ca
  -0.0120594227475928    0.5006593841127284    0.8838251617710173 Ca
   0.0112533495031857    0.8485716791702805    0.1298417905468111 Ca
   0.0126900355539117    0.8441362983969894    0.8740503722195313 Ca
   0.3332935620403689    0.1585662763603458    0.1408223939319644 Ca
   0.3330563574796714    0.1467752359514509    0.6046669478655039 Ca
   0.3246699726947243    0.4898982259244881    0.1482091168842050 Ca
   0.3471271293431809    0.5007641238349128    0.6107247425197336 Ca
   0.6864141656715609    0.1511170682298570    0.3664060947531018 Ca
   0.1736593543816626    0.8343824952903396    0.7549941352548475 Ca
   0.1535208720485982    0.8516942150141533    0.0060014091963951 Ca
   0.6709253003834854    0.8333379298361376    0.6106813163855794 Ca
   0.1577297558062682    0.0068995465642369    0.3670475406643556 Ca
   0.1783963121345717    0.4895149854652381    0.5008769837828790 Ca
   0.1622141521906615    0.3287217128113559    0.1285653579478188 Ca
   0.1996541210312684    0.1444932039927689    0.7435078501045163 Ca
   0.1528718611083107    0.1538328515279928    0.4839525790713899 Ca
   0.1455317654897439    0.6686388393842965    0.1412275733647763 Ca
   0.1590814851577637    0.1750801217960391    0.2568147065405768 Ca
   0.1509843541229943    0.6566476564063989    0.8666106378507274 Ca
   0.1852181515959236    0.1641684762849717    0.0065341550500518 Ca
   0.5043396212066007   -0.0200653195441119    0.3807202716183639 Ca
   0.5028926994808299   -0.0187547622516016    0.8786135072715914 Ca
   0.5227393289408528    0.3268669233370334    0.3547044952792479 Ca
   0.4793478454694551    0.3568311094196501    0.8715721874877811 Ca
   0.6591841462174050    0.6702069724701761    0.4872093194684128 Ca
   0.6424448010808382    0.3497644626736513    0.7538045114940217 Ca
   0.3391373500255596    0.1461087014811868    0.3828061432730474 Ca
   0.8199108886869863    0.0021767073448468    0.6345368322829258 Ca
   0.3494046145346880   -0.0192212082549057    0.7545498588609609 Ca
  -0.0135848755381927    0.6675932496837980    0.4848850921966937 Ca
   0.0096869984318878   -0.0067891276039952    0.7505719987196027 Ca
   0.8518618392550747    0.8430565378524044   -0.0069757016764103 Ca
   0.6699004460884312    0.8109215717283974    0.8640380646298454 Dy
   0.6830340716168837    0.8244010578596509    0.1328662387297332 Dy
   0.6401459204536464    0.5054784031483799    0.6236015991476791 Dy
   0.6744083914241482    0.4932807651973075    0.3548465561816199 Dy
   0.1698377398405096    0.8355990245718407    0.4827289908546897 Dy
   0.8304022775010974    0.8221054955014117    0.7495285239838412 Dy
   0.6642301900530523    0.1616058789219190    0.1311641834744427 Dy
  -0.0265125042805563    0.3296893627055434    0.2516528217489823 Dy
   0.3289534682915973    0.8289953576572066    0.3669664624119994 Dy
   0.8424069989392706    0.3283088235316477    0.1190590715893719 Dy
   0.3370626703839881    0.6846725035255551    0.5012403936326263 Dy
   0.1722390609637355    0.5095424955190596   -0.0000843959828795 Dy
   0.6748349426789455    0.6773469143392797    0.2533606695852202 Dy
   0.5177148315256087    0.8050736098730723    0.7460312363271762 Dy
   0.8314829332785759   -0.0159106955261628    0.1409120163661251 Dy
   0.8199790498156007    0.3326295574386901    0.3731317099822080 Gd
   0.8302371259004543    0.1463091690311276    0.0189445063167165 Gd
   0.1762972468821420    0.6664968996500311    0.3868936575385278 Gd
   0.5055499154124339    0.5019923870886438    0.2503214465634934 Gd
   0.6887205396678190    0.6845284594893253    0.0026050119578745 Gd
   0.6711574040641936   -0.0087308244150171    0.2455370095819553 Gd
   0.1636875603786033    0.0171602499085760    0.1343160938045912 Gd
   0.5137907317540528    0.1433109776700822    0.2642433229175676 Gd
   0.5011406965072924    0.1448200126524971    0.4881621582774399 Gd
   0.3323045985814331    0.5323496972751051    0.8654334843241401 Gd
   0.0000672656340811    0.5053769285506658    0.6001644263725854 Gd
   0.0143962356426570    0.0001602710600960    0.2486433041879878 Gd
   0.3411240740945486    0.0122272250140134   -0.0030960284400059 Gd
   0.5200453710068754    0.5055610878474704    0.4845328575546045 Gd
   0.4928773000622894    0.5247444008948100    0.7460928734675887 Gd
   0.0832081334718710    0.7513261382703996    0.4355669765942619 O
   0.0705256868104866    0.7573546270914229    0.2045273663413317 O
   0.4173719647985483    0.0583151765902524    0.4412356833711723 O
   0.1043854752090779    0.7602393676563518    0.9319503898421750 O
   0.5933154936972364    0.5873923283333217    0.3069602295709956 O
   0.5826095523302142    0.5874490667798334    0.5513694493730801 O
   0.5863224846334479    0.5853874912385347    0.8125920765069515 O
   0.5893073157732078    0.9408694373604715    0.5575996610207331 O
   0.5894589410675600    0.9167972755241853    0.3075878088352207 O
   0.5917456883820286    0.9170167889509938    0.0821924692173293 O
   0.0733520837819552    0.7747894753532212    0.6929456779539886 O
   0.4232560491111255    0.0839852406617976    0.1987011212189559 O
   0.9176656594350968    0.5898382569934474    0.8158072561176830 O
   0.5759842177978359    0.8947390805170045    0.8123657845859668 O
   0.9106363759374464    0.9316097187710609    0.0674459326375046 O
   0.8999512678019183    0.5689398535280306    0.5381603869575078 O
   0.9198134257688536    0.9252630039364118    0.3065182939755496 O
   0.8923074460126497    0.9333939095727970    0.5577583996206273 O
   0.9037999098136137    0.5708622009845182    0.3383299502175703 O
   0.9192657466928643    0.9024247257110073    0.8015959053221364 O
   0.0850437729815835    0.0932919596532981    0.1938867191849376 O
   0.0515873821737437    0.0882180377566789    0.4218840553708987 O
   0.9261741954678351    0.5895723569077908    0.0425196010978693 O
   0.0937918582237755    0.0795756109519841    0.6921376716765636 O
   0.9207874493508208    0.2352275335049941    0.8091494219596919 O
   0.0948636028186139    0.0762455095610844    0.9456061762313731 O
   0.9158334805708210    0.2491438268687236    0.5820381575861140 O
   0.0539561961271504    0.3961235465399519    0.1856806735893988 O
   0.9188126176588428    0.2339097322333489    0.0640922383881489 O
   0.0761311639531164    0.4025810166711951    0.4592961442068155 O
   0.0710106451172651    0.4116339671033133    0.6563955587932249 O
   0.0871105049157780    0.4321020072533119    0.9454647072645284 O
   0.8858669219455734    0.2515570989335699    0.3089370783342605 O
   0.9282385058715686    0.7655472618219249    0.8146661148892183 O
   0.5381556410302992    0.2632286935121383    0.8038549277394409 O
   0.5728510480225049    0.8985925857054246    0.6772501325796374 O
   0.5912985364786039    0.9245413460238863    0.4549724169145084 O
   0.5910295571055977    0.9236323840944293    0.1662073980147313 O
   0.5984377982884684    0.6145723721129877    0.9430905850237123 O
   0.5763093577715358    0.5982027159613498    0.6835239761480093 O
   0.5953189692788387    0.5834914041515096    0.4090206818221492 O
   0.5944571608954377    0.5891713926157198    0.2035512390099639 O
   0.5528479631781987    0.2754888177016424    0.9393542108354993 O
   0.5782223056715019    0.2420867006978850    0.7060554505210488 O
   0.5806339715519205    0.2208481585351481    0.4222768814832090 O
   0.5910954918973202    0.2424706756442398    0.2005527793214340 O
   0.6012307282448366    0.8847492322073676    0.9351057807020458 O
   0.2538431157083628    0.9189399195295690    0.9505683419694826 O
   0.2466590210179748    0.9168341809700860    0.4151473510191705 O
   0.2383410216950416    0.9305767093971156    0.2103994000603349 O
   0.2460787537846290    0.5872583994043248    0.9355995022096184 O
   0.2663052407717720    0.5931484022993864    0.6625077383845518 O
   0.2566488840953905    0.5892549648010105    0.4561415726337756 O
   0.2352015276175999    0.5818184442372738    0.2004218762925044 O
   0.2528444045936524    0.2598938665364779    0.9401349210436908 O
   0.2678931694166194    0.2344671015152622    0.6724949044988302 O
   0.2480448457368230    0.2403425112638149    0.4334909645620401 O
   0.2472567788306158    0.2563799264364100    0.1897171220173512 O
   0.7635830731889692    0.7310177306591108    0.8101515314747341 O
   0.2640903326983785    0.9100118010866232    0.6876871217128805 O
   0.9160081257250232    0.2480612256014446    0.1810350751684508 O
   0.8962159879265345    0.2616721566940971    0.4456717347617915 O
   0.9046928142264179    0.2432076062847983    0.6658862094116768 O
   0.5661558003340863    0.2136970381036435    0.5621917032370424 O
   0.6168098475567289    0.2396697452493093    0.2991744154945745 O
   0.5719029164953464    0.2330678200260812    0.0763568914832841 O
   0.2500188607682666    0.9198557577491102    0.8236119923001445 O
   0.2553693408144246    0.8892226405315696    0.5550294366004149 O
   0.2459296774835101    0.9175024995960303    0.3133362477263725 O
   0.2433827149320515    0.9417395309543823    0.0558803319511055 O
   0.2411498259619631    0.5922837512028003    0.7983282303194562 O
   0.2591163126784389    0.5930268075518064    0.5581648200381798 O
   0.2394319140503507    0.6012594243663145    0.3039654306797234 O
   0.2341570459937388    0.5698402588638658    0.0842134556413352 O
   0.4094048695243451    0.0820798976468664    0.6832729192170908 O
   0.2654307666601038    0.2505159715066620    0.8051050496781810 O
   0.2533998181654396    0.2409699313579010    0.5175560972475924 O
   0.2381757288428215    0.2330112976343705    0.3494269591638229 O
   0.2659368846696809    0.2508000063707954    0.0792338455369489 O
   0.9326197625340074    0.9375201279607597    0.9332561223764785 O
   0.9054329268766813    0.9244651128255789    0.6997825786303088 O
   0.9129842455232057    0.9271707142624550    0.4311535806074506 O
   0.9227314472034291    0.9088526513868885    0.2020551456020536 O
   0.9137741598742669    0.5934949361678039    0.9586746773472004 O
   0.9266745279600922    0.5672025740345580    0.6759369988071399 O
   0.8966118193865324    0.5744028547770623    0.4381733494605643 O
   0.9446240242323878    0.5856947241376793    0.1926304792107285 O
   0.9247030367819797    0.2116281976886887    0.9570044990857954 O
   0.6101880413621047    0.6003642164063963    0.0737674450652397 O
   0.4301092098470954    0.0871543424115045    0.9301440559694146 O
   0.2531873303195722    0.4172513345595850    0.4212030155687973 O
   0.4554284873212701    0.4278487205034848    0.4123560679861661 O
   0.0745303318689118    0.8997634320477916    0.5435744140002295 O
   0.0771283868792929    0.9190952929068198    0.3136544907872921 O
   0.0795566799196475    0.9516599011389467    0.0704758926421758 O
   0.0513062622436385    0.5797681049567556    0.8064628764591278 O
   0.0803411741910903    0.5817790999178881    0.5280799630389805 O
   0.0812795996574579    0.5698329122390057    0.3589423160753850 O
   0.1032470299170937    0.5904726817419057    0.0617310005874261 O
   0.1280317198293710    0.2454827903733749    0.7939413362119602 O
   0.0632948562167068    0.2197200588336651    0.5496528539648586 O
   0.0702740958191978    0.2659460587007513    0.3072488146070021 O
   0.0928327769086989    0.2238054894417652    0.0728483600427940 O
   0.9411047039177832    0.7574398417808376    0.9414019183333009 O
   0.8929919782099446    0.7422861743477598    0.6850636919424145 O
   0.9051829831884826    0.7567559885260230    0.4352274010099743 O
   0.9354777223173303    0.7720799744303286    0.2012222324905922 O
   0.8988411610043666    0.4173868463695312    0.9513269749994752 O
   0.9343800806176447    0.4269974319658631    0.6727307079587116 O
   0.8921385611216641    0.3998197226721231    0.4498250023891833 O
   0.9139933703935846    0.4143115652435090    0.1831860483701252 O
   0.1109480902081195    0.9304032361026627    0.8185068168445356 O
   0.9017469149496435    0.0816350489750995    0.9414716556651289 O
   0.4027589621085424    0.2382820446099841    0.0706770558421880 O
   0.4284820592324206    0.2300831743278213    0.5485846960290144 O
   0.7562169829087888    0.9268517924713947    0.3217119410597402 O
   0.7693601418419084    0.9072098109391064    0.0653881807427722 O
   0.7812837717068529    0.5957672220486012    0.8147579093163090 O
   0.7233056518563370    0.5661520850183548    0.5548918527661443 O
   0.7613177974186932    0.5862354943817679    0.3037008220891894 O
   0.7483372299561627    0.5923727723377495    0.0712311024176921 O
   0.7270982942393771    0.2768163387510932    0.8200455337174284 O
   0.7398483402432861    0.2319596404369173    0.5710996463690872 O
   0.7517537744029723    0.2473288968363757    0.3038428980764646 O
   0.7498781299622135    0.2417474087948341    0.0681588467845276 O
   0.4370777927689776    0.8820430375513175    0.8107960398989286 O
   0.4111839392837996    0.9278758734438312    0.5668188060258592 O
   0.4173540204493547    0.9081094663206462    0.3117225009784467 O
   0.4252922058022587    0.9406095374852802    0.0598329984972849 O
   0.4176050008188813    0.6107718014673900    0.8082739891882943 O
   0.4289219062889624    0.5862078658346688    0.5392608161215627 O
   0.4185698327032709    0.5964064036150932    0.2890145446848950 O
   0.4196293117248911    0.5733861564925244    0.0915809668387503 O
   0.4013148145730874    0.2572565133882853    0.8062397344055173 O
   0.4296426267316942    0.2273405767415924    0.3172617555444764 O
   0.4123070176634516    0.4121669777415272    0.2182202501017742 O
   0.9123281492768236    0.0683567284387869    0.6991416968502153 O
   0.9185417646941302    0.0751502657115069    0.1903083470596307 O
   0.2465236575482756    0.0777705976287590    0.2072419891845896 O
   0.7641683124339333    0.7643152855478488    0.9329742232200146 O
   0.7410719693955856    0.7534919186869091    0.6827531312001720 O
   0.7392681150527065    0.7616071569242379    0.4358405218606352 O
   0.7638845126486965    0.7422681923116194    0.1945308120970876 O
   0.7626206769009609    0.4164680061201622    0.9485110638261216 O
   0.7270679111051875    0.4434617152247193    0.6922264605424852 O
   0.7271466458213431    0.4074547931331904    0.4250468761925013 O
   0.7769395691229344    0.4245355584411296    0.1821387004717002 O
   0.7546502289585550    0.0940099797592319    0.9389801795280006 O
   0.7285163132920081    0.0732454033954650    0.6971194176283615 O
   0.7782967628240463    0.0944729730026273    0.4397524143526014 O
   0.7519703466146980    0.0781032255831701    0.1883706881225216 O
   0.4187691474418988    0.7204461326846570    0.9454388957370453 O
   0.4290037102908282    0.7484091618301284    0.6841576852938701 O
   0.4200820607781800    0.7581474098381871    0.4336531070526165 O
   0.4167387742958222    0.7620924969236172    0.1870343619033276 O
   0.4080901369677378    0.4571887493661470    0.9330255233483095 O
   0.4237828425479683    0.4215355251497659    0.6932530119556199 O
   0.2440638063307908    0.0628924033833155    0.4402606604567477 O
   0.9150479143318198    0.0967557497838022    0.4362498106233541 O
   0.2782750854072644    0.0467790152977639    0.6788898744851878 O
   0.2387322925103740    0.3932731076502191    0.2009198131608814 O
   0.5940391442494235    0.7484885670589331    0.9379591329492251 O
   0.6048117226743387    0.7345538128471798    0.6769389247399491 O
   0.5757279654428213    0.7681460845641661    0.4413856327206350 O
   0.5945788385833564    0.7592896489504188    0.1956368504445104 O
   0.5754483051393364    0.4115671058355322    0.9381202039704971 O
   0.5612163607890236    0.4304294228883818    0.6891909567027550 O
   0.5918585889600305    0.4157716417345391    0.4201107747700117 O
   0.5970262642538637    0.4198687507004113    0.1877428672644315 O
   0.5632829581925386    0.0782730025699932    0.9426748684854962 O
   0.5574576429350657    0.0765725015737805    0.6977232638071043 O
   0.5966949725392582    0.0819308757577251    0.4282270056510724 O
   0.5881467377834011    0.0803550058716994    0.1905852095043647 O
   0.2120855353740272    0.7360783343191476    0.9486188900144016 O
   0.2559960880857533    0.7738131918308878    0.6867538493187502 O
   0.2585243784474580    0.7537610096500750    0.4351899257487198 O
   0.2311462563153703    0.7617611645088893    0.1865389497972592 O
   0.2668982782945811    0.4513450982240186    0.9338194969866077 O
   0.2516663438851872    0.4128884838066383    0.6628421328418804 O
   0.7562950567074245    0.7531709182503249    0.5375989993408929 O
   0.2633863774362136    0.0908499826415380    0.9401889344460930 O
   0.7337899132271765    0.7556427368239008    0.3261456275781136 O
   0.7380022691170391    0.9020997495959487    0.8008134775890344 O
   0.7556341802881344    0.3847770668494583    0.8140036849154255 O
   0.7416854461577215    0.2254011283338367    0.9654274367883414 O
   0.7671408334597666    0.6005223344577165    0.2012774813836951 O
   0.7303271122549392    0.5786018415686177    0.4247919007366743 O
   0.7465506659946681    0.5537892501429305    0.6849226366042699 O
   0.7662619479529859    0.5962086569779396    0.9459858402151314 O
   0.7520760197717398    0.9026338372254603    0.1969113722561402 O
   0.7495280352654479    0.9415266716490857    0.4245929432319565 O
   0.7400062526090007    0.8966713089188895    0.6945684742993956 O
   0.7409327312499288    0.8984372909488855    0.9244819166148385 O
   0.2605814444626115    0.0727961028931639    0.0724877206734517 O
   0.7083963788923446    0.2630611224741016    0.6814438796215542 O
   0.2488108277495022    0.0954576493827648    0.3093638651650837 O
   0.2778304226007885    0.0684421048901107    0.8169527762579006 O
   0.2368112441216959    0.4329616545725957    0.0714397796302952 O
   0.2366020161196358    0.4200673921863258    0.3383882166730273 O
   0.2676545653879361    0.4076649629675493    0.5615786938778680 O
   0.2610960733313688    0.4420151802778132    0.7976189510894457 O
   0.2184397980546740    0.7613576600827791    0.0799381751381981 O
   0.2471547668811583    0.7412324379333808    0.3102124190536108 O
   0.2521202214583992    0.7774963931069701    0.5585217990099910 O
   0.2457694478868256    0.7271603098179575    0.8129614060119648 O
   0.5841331735786250    0.1006507288814042    0.0581775029302591 O
   0.2370544131983051    0.0706315517894703    0.5428152208327676 O
   0.7631833631636632    0.2305815781980470    0.4402351726466457 O
   0.7528038616652484    0.2515043511358936    0.1704608265320868 O
   0.4158824823070471    0.9148592893866646    0.9491256495236780 O
   0.0733608245588022    0.2624907509486759    0.2015262869501924 O
   0.0616030041846595    0.2556078713946281    0.4476842834922372 O
   0.1028879445998040    0.2159798414410777    0.6884702782547631 O
   0.1180718087110875    0.2435792654129486    0.9339876223825461 O
   0.0560651991298265    0.5782041691489651    0.2000044351113207 O
   0.0816159961335690    0.5738064669636583    0.4435577781128169 O
   0.0592110350295574    0.5968610549562109    0.6672568217080895 O
   0.0821236961176812    0.5710778038009260    0.9361273987250677 O
   0.1036554380449235    0.9192903228211524    0.1904996538947261 O
   0.0856846750476485    0.9276091921657591    0.4437689809281830 O
   0.0780453833598886    0.8874693460426561    0.6873324297335787 O
   0.0746487088884630    0.9418710525311141    0.9388149128131611 O
   0.7676748942240956    0.7720482935684445    0.0625644934289390 O
   0.4430588069127693    0.2385046648380625    0.4166892486482609 O
   0.3977847933691990    0.2294246974298063    0.6799688363662366 O
   0.4157881409489402    0.2625978980904833    0.9381696646341143 O
   0.4175231762026704    0.5839782799557254    0.1907631253271990 O
   0.4264736976267952    0.6156801236633537    0.4403974679155866 O
   0.4082319023593994    0.5916704558812765    0.6748959473584879 O
   0.4188026828890710    0.5913597423395529    0.9394392508840312 O
   0.4189914674499521    0.9532714596703143    0.1839484625726322 O
   0.4101265937339320    0.8924137500921189    0.4339402645495614 O
   0.4414663366257711    0.9042548953936248    0.6951588733790773 O
   0.5934877425254612    0.0517256185304453    0.3198017592634776 O
   0.5801838591616335    0.0777779350832967    0.5611970347085465 O
   0.4184139567567479    0.2175123006805519    0.2162840074785090 O
   0.5931887525346580    0.4282766978159411    0.0942946087632778 O
   0.0850240435663337    0.7624131977085177    0.0686870435383962 O
   0.0935704033522251    0.7529124620560987    0.3365060239454982 O
   0.0756602154748903    0.7621447412904219    0.5369844147121130 O
   0.0676403189197922    0.7484805107594131    0.8029313894361610 O
   0.4157092250038898    0.0913006992367102    0.0643443330261508 O
   0.4255091793808362    0.0656996863218765    0.3270560273365508 O
   0.4149748942935068    0.0611102952809777    0.5448574417594930 O
   0.4168140432818228    0.0754645790189385    0.8213673981256361 O
   0.4185407238752136    0.4369943803006060    0.0795807916509250 O
   0.4299972433253152    0.4191214270559342    0.3148925593652510 O
   0.4491196978757075    0.4221135516275772    0.5485309253131283 O
   0.3974640458679261    0.4348177615615004    0.7970322621452247 O
   0.4162819977193459    0.7475591732029054    0.0882871732191648 O
   0.4156250816653512    0.7567568005785386    0.5619364371138346 O
   0.4247541328033770    0.7472103219041505    0.8115819889683060 O
   0.7476083314489838    0.0680911099500322    0.0859976470782450 O
   0.7612988996387332    0.0764514408687058    0.2911253669498342 O
   0.7488064781484949    0.1009986192573431    0.5715770302534163 O
   0.7160022901728148    0.0826629404460055    0.8001225662492930 O
   0.7505555818934959    0.4239364436781249    0.0815530848745210 O
   0.7656000400764381    0.4160112161546804    0.3003981582999442 O
   0.7146225097002936    0.4289808113503687    0.5576488674929584 O
   0.5673975788446990    0.0772358279273901    0.8041535241458416 O
   0.0562426129077792    0.4235197570960419    0.8069723235741542 O
   0.0777143639750973    0.4088245628655661    0.5571411737362424 O
   0.4087260850815401    0.7751972741906937    0.2882126468987968 O
   0.1063119561016470    0.4101087226936739    0.0490540372777535 O
   0.6015077653896270    0.4148063846548567    0.2873984783443317 O
   0.0476757720043368    0.3990112209984965    0.3240338906302567 O
   0.5794611967679173    0.4191325103316065    0.5552697331846348 O
   0.5699519298086274    0.4519982824879752    0.8143096373320916 O
   0.5995025850756250    0.7375207498560123    0.0749832260457824 O
   0.5996840523254066    0.7810099150179665    0.2991757809306555 O
   0.5861001749673668    0.7563294526243000    0.5514010804969413 O
   0.5932679323777907    0.7217673330367224    0.8082028947466913 O
   0.9166245155671809    0.0691893950403783    0.0872256426947484 O
   0.9247672143353507    0.0920387045031844    0.2928059356508231 O
   0.9182450931010537    0.0972520339871760    0.7989451910125641 O
   0.9108255227418127    0.0702341174873760    0.5674013587497313 O
   0.9125321375272124    0.4164687607301972    0.3199917562180852 O
   0.1072067324718628    0.0648429466032537    0.8098580131413651 O
   0.0815613036965991    0.0823379738552923    0.5571103540611368 O
   0.0628317029922818    0.0968489904164815    0.3179493297216689 O
   0.9106775160786744    0.4104206225627047    0.0512554723275110 O
   0.7569593304907134    0.9231777302889212    0.5565947967957373 O
   0.8928568487607519    0.7531341941823567    0.5357287643628684 O
   0.0847419054276409    0.0896860595981592    0.0679020340450241 O
   0.9523071436506291    0.7666502458445850    0.0530597681465731 O
   0.9490773962576858    0.3924714455534408    0.8214414212996378 O
   0.8952928325862870    0.4324274789553881    0.5495366518938898 O
   0.9073684023713169    0.7577423119332246    0.3371730019424399 O
   0.5001312092641147    0.6713452726752527    0.6122571544515610 Sm
  -0.0146990354765408    0.6707300299059508    0.7415301039179097 Sm
   0.3355567315393962    0.1748512439135451    0.8790492139926838 Sm
   0.0001778228047803    0.8468205836501088    0.3805294139965630 Sm
   0.6441431309711400   -0.0175932260416863    0.7468281619478752 Sm
   0.5103596356067480    0.6717573202572942    0.1421555345964964 Sm
   0.4952815258451385    0.8441557434371576    0.5081236775710226 Sm
  -0.0112028768507214    0.0045163124994971    0.4941742338429337 Sm
   0.3337771804296898    0.6769367328761366    0.7390890726785813 Sm
   0.3256550364622399    0.6765479148383330    0.2370325440179389 Sm
   0.0274451300548270    0.6754376986000588   -0.0025400850719025 Sm
   0.3250142705810625    0.3349378264762959    0.7359948395363359 Sm
   0.6817776006537662    0.0175948893959432    0.5004561520956397 Sm
   0.8294837298584433    0.8299238396804439    0.2643892244808352 Sm
   0.6696754664062213   -0.0068242043475277    0.0009793071975032 Sr
   0.1768024173925228    0.3520145283690804    0.8690603922198377 Sr
   0.1697619364398685    0.3082583310400666    0.6045087416012569 Sr
   0.1650775121875610   -0.0198748602880540    0.6200666415973651 Sr
   0.3577106022979011    0.3357141482509637    0.4807642288715329 Sr
  -0.0021018995653545    0.6663866255511103    0.2796090115241432 Sr
   0.6804713999369101    0.5051906419038049    0.8800194270149573 Sr
   0.6416881582706015    0.1760581203713318    0.8765846716066120 Sr
   0.3253391161816986    0.8560332644998242    0.1293610788575338 Sr
   0.3421335774255787    0.5195547376109392    0.3696924741879535 Sr
  -0.0267337447021425    0.8317061711958552    0.6173193817694107 Sr
   0.3232173556430808    0.6619123765642424    0.0208922990381164 Sr
   0.0062999953245868    0.4965703977756215    0.1117141842338529 Sr
   0.0193327724692072    0.1584871738596719    0.8707796298433342 Sr
   0.6528325231486375    0.3133643094598870    0.4953361700282027 Sr
   0.6573577159393152    0.3348418594400616    0.0138590688050849 Sr
   0.3282642803517549    0.8149051048217609    0.8854993511809987 Sr
   0.1621813592627765    0.6864224226351683    0.6152146566034492 Sr
   0.3368418119726368    0.3512337157590891    0.0072613241005706 Sr
   0.4880238506280506    0.3263842539474946    0.1436607836919157 Sr
   0.0127463190421643    0.3165709408297150    0.0001703973433148 Sr
   0.8217745672534541    0.6551788656323898    0.6141868808304621 Sr
   0.8116570770817902    0.1798105387869168    0.7442955419420741 Sr
   0.8608622807690727    0.6804025316647684    0.1239661928114855 Sr
   0.5111717016249739    0.5142473356945074    0.0093059996124204 Sr
   0.8373906106844110    0.3063388588718255    0.8910739235652312 Sr
   0.1455592910623784    0.4858435208950134    0.2611842414494022 Sr
   0.8128656329673728    0.3497401839528450    0.6241924709119172 Sr
   0.3250233077110033    0.3202903890384342    0.2761924013880972 Sr
   0.0074925060343072    0.3144681459072898    0.7354379087939246 Sr
   0.8481746915719415    0.4846732574636259    0.7564096489409128 Sr
   0.5033790052279306    0.6888709039372000    0.3560136805223193 Sr
   0.5025730339761932    0.8210800978619318    0.0113978345677697 Sr
   0.4989552000431605    0.3211719206635826    0.6248259547386932 Sr
   0.8265070395721290    0.0017423187515662    0.8592193890632831 Sr
   0.1533745972966001    0.5049578607507132    0.7276244928706531 Sr
   0.8238896770989464    0.5037073460839149    0.0110945313209327 Y
   0.8016303763105421    0.4946993447362617    0.4871694928894749 Y
   0.8247781063402148    0.8516415844918084    0.4823527978379251 Y
   0.8413670370363877    0.1673602966732451    0.5139911937127097 Y
   0.6866199804335542    0.3335373179404147    0.2370962056803516 Y
   0.8329006301824694    0.1713581525430672    0.2360747163708371 Y
   0.0016439157624268    0.1640111322844259    0.1347082084694441 Y
   0.1578499731319707    0.8339308487153669    0.2617326168445555 Y
   0.5049027523289379    0.0212464993110706    0.1236632173589050 Y
   0.3498181223290386    0.8351636875013051    0.6284089906216195 Y
   0.6809731417439497    0.5170672139262481    0.1421592930406255 Y
   0.5066961269508145    0.6665263911048697    0.8761335386698311 Y
   0.1844616675245956    0.0069420230931905    0.8866115579863000 Y
   0.4778800723489685    0.1618036047934835    0.7518616872334681 Y
   0.3278276294489925   -0.0201584073785176    0.4925456380934054 Yb
  -0.0164319864393589    0.3285110733903150    0.5110559566965709 Yb
   0.3380900886371971    0.0035651355317019    0.2615863140422383 Yb
   0.4911615429378871    0.1741100183998421    0.0011886583303732 Yb
  -0.0147543696851160    0.4817772904506457    0.3971907709080610 Yb
   0.6494969716487251    0.1545328040651612    0.6344002450248101 Yb
   0.6637939523085615    0.8504169834492935    0.3795815529415246 Yb
   0.4962385933764029    0.0006295457590355    0.6241620470344803 Yb
   0.8464877196726741    0.0126100296666763    0.3679377865962846 Yb
   0.8194920114151899    0.6684430512852365    0.3823809481410661 Yb
   0.8496039484129472    0.6765907475058679    0.8816097611309422 Yb
   0.8505552602235428    0.5044015275504611    0.2515128713462685 Yb
   0.6775624328748907    0.6531911471642871    0.7471649975535057 Yb
  -0.0029208597695613    0.0158129218634083    0.0053858821530698 Yb
