Ce41 Gd11 Y10 Hf41 Zr41 O252
1.0
  16.0003030300519704   -0.0038492231145434    0.0103957514505962
  -0.0038459720661554   16.0471452504923633   -0.0010186697150996
   0.0138520539368437   -0.0013517121661134   21.3564911951172327
Ce Gd Hf O Y Zr
41 11 41 252 10 41
direct
   0.1709619347539792    0.1653275776706604    0.2495236479765414 Ce
   0.5054515124903725    0.1730709066957831    0.7455650499465468 Ce
   0.1655828158170885    0.8448753681277625    0.7486153966249965 Ce
   0.1533548402224209    0.0008548869853447    0.3666844981621178 Ce
   0.0021006273304382    0.1749598714496466    0.6234719763347264 Ce
   0.0009161451176871    0.4921667102184596    0.1198689770461845 Ce
   0.8378712780026397    0.3269754575004381    0.8791808834347465 Ce
   0.0008147884249473    0.8290570968827901    0.1255814327642397 Ce
  -0.0059198839146538    0.8320649477937265    0.3755503554919699 Ce
  -0.0038740053886605    0.8278947362566025    0.6273697776031942 Ce
   0.3414625077229405    0.1844993379964388    0.6182384744121310 Ce
   0.5079007430463821    0.5062587701574532   -0.0019561742145352 Ce
   0.3333342717371474    0.1707127593721475    0.8658830442127725 Ce
   0.4977144447179219    0.6618698203401823    0.6258838675946033 Ce
   0.4902643626643234    0.6663587334457192    0.3732163062106368 Ce
   0.3334647685684506    0.8330283287222927    0.1317289439378416 Ce
   0.5009959857589814    0.3384137598061528    0.8726479644164571 Ce
   0.4934166734158759    0.3374843984128351    0.3705379505812343 Ce
   0.4934922964933659    0.0053377099479690    0.8743245900217499 Ce
   0.6604647149410438    0.1671253217057583    0.8819758613064707 Ce
   0.6714166759844891    0.4830748624830418    0.3662101488357213 Ce
   0.6778552335374776    0.4973166342899928    0.8737475313626418 Ce
   0.1755850826560092    0.3306304704829993    0.1255531250425237 Ce
   0.3333088669486609    0.5103753232681116    0.1199079063957691 Ce
   0.6583779708531510   -0.0090417002411342    0.7493839361898723 Ce
   0.1581469132218911    0.0102080256758651    0.8713903574936764 Ce
   0.3406059797221896   -0.0058035942713166    0.2570284869146379 Ce
   0.3322293618169578    0.0075164238881690    0.7450765628278164 Ce
   0.0025078712955100    0.0041033347335510    0.4976617485287271 Ce
   0.3381526380755360    0.3451303465715618    0.7467855082699441 Ce
   0.3195759999369501    0.6608485650342998   -0.0075696863305759 Ce
   0.8234055192755764    0.8324835816844823    0.5074515273471217 Ce
   0.5010532961193697    0.5026802728890979    0.7457411859304274 Ce
   0.8283185900347106    0.1638854282234553    0.5005074551748844 Ce
   0.8493921454231826    0.8317155143079240    0.7668481549112104 Ce
  -0.0114609443059093   -0.0031361646746523    0.2428427194557365 Ce
   0.8422229694151746    0.1648854627380507    0.7516491801119002 Ce
   0.3277402204376426    0.6567505132948773    0.2469188526102129 Ce
   0.5066127684976928    0.8398323758850292    0.0111352300788038 Ce
   0.8324167208705731    0.4955997417816897    0.2414959812362339 Ce
   0.0122663877340248    0.6645056308122670    0.7464522479110530 Ce
   0.6671929109809709    0.1602776718921398    0.3827037015413218 Gd
   0.3222985019481833    0.0121206353117330    0.5094235623210400 Gd
   0.3338816650828613    0.0006159577133903    0.0002436211696729 Gd
   0.8255310043336348    0.3253158395236356    0.6285860171658506 Gd
   0.4988099644742380    0.8374444074688268    0.5075634838298699 Gd
   0.6638574552246314    0.8399262581955874    0.3776508193760286 Gd
   0.6713960294585054    0.8328437253601735    0.8797292751803893 Gd
   0.1624253796422843    0.8288792817364873    0.5026085474121281 Gd
   0.3265218636109428    0.6758800739510842    0.5053080134034104 Gd
   0.6793013559356069    0.0082890665531500    0.0105639954385173 Gd
   0.0001506141926389    0.3432569174790772    0.7434803744802806 Gd
   0.1652679635105069    0.6740008134011155    0.1169883630788644 Hf
   0.1776299859188513    0.6874337820721886    0.6299493050208762 Hf
   0.1684846321630010    0.3675541508314033    0.6331579779481552 Hf
   0.4849552276341776    0.0010841681662168    0.3772731478474901 Hf
   0.1727229945849150    0.3296821272925881    0.3738914263458097 Hf
   0.8369319936915289    0.8248239074480870    0.2542880798343134 Hf
   0.5091365827282328    0.3263389964206128    0.1163097538661216 Hf
   0.5165564007750448    0.5241995583191559    0.4978012297458382 Hf
   0.5115954488886292    0.6559197651777650    0.1347573727691116 Hf
   0.8524247666382369    0.4944167889077855   -0.0100886118841699 Hf
   0.8524613036198111   -0.0054900345744275    0.1102851200372511 Hf
   0.8497669598202402    0.0089897351003515    0.3795078744486525 Hf
   0.8332903889452206   -0.0136203067324887    0.8804658091515781 Hf
   0.8398799256279590    0.3245008133415905    0.1238536897378650 Hf
   0.8438575314631852    0.1719081455474761    0.2450921171851391 Hf
   0.8479257622778789    0.6569638728511187    0.1295902889304425 Hf
   0.1534258112718253    0.1709883377214261    0.5005217161862731 Hf
   0.1887201732903176    0.4742662591331469   -0.0048654506618688 Hf
   0.1732165439868767    0.4983637073008954    0.2468901786283787 Hf
   0.1406081428280137    0.4924217139769176    0.4793904257197290 Hf
   0.1680711478371578    0.5078009890156950    0.7578367438496402 Hf
   0.8238132437222011    0.8195570609256073    0.0129688401549584 Hf
   0.4859098804005972    0.1931463290995526    0.2405190430478994 Hf
   0.1763992068458066    0.6765430736599832    0.8649575789473603 Hf
   0.6307368280835033   -0.0648550737217510    0.2223970031982994 Hf
  -0.0227505111953770    0.5076850625588051    0.3764155376244258 Hf
  -0.0056095303197733    0.1696490207566302    0.3649529069211929 Hf
   0.0058774727944297    0.8087527310324205    0.8791306179203411 Hf
   0.6843486073885737    0.6737431805481731    0.7633303403577121 Hf
   0.3522603242567220    0.1612122862980287    0.3625443857069505 Hf
   0.3233504548634121    0.5173448046585405    0.3912926360703790 Hf
   0.3314604146875588    0.5084306951191392    0.6231172705802088 Hf
   0.3478546194437029    0.5097880479550928    0.8709458777292262 Hf
   0.0215296938217599    0.1941037644516177    0.8712669469284878 Hf
  -0.0042963907230851    0.6636747722674085    0.2535915290435251 Hf
   0.6556351825824994    0.6650606337080405   -0.0056990952950787 Hf
   0.6648137225630130    0.8038268938849285    0.6329782805512911 Hf
   0.6710776978782234    0.8129879415199329    0.1224256408591602 Hf
   0.3219154198608443    0.3330409758543498    0.2548763093437658 Hf
   0.6513700932912628    0.4883243944671986    0.1310601916894163 Hf
   0.6649751298374368    0.3274211087225868   -0.0060196729087749 Hf
   0.2361610937836774    0.9216607792355769    0.9428289198704084 O
   0.2527512799759818    0.5998075658577212    0.5873652196282478 O
   0.2450278126880310    0.5607904306192527    0.9256625134658997 O
   0.5955065422887535    0.2770077255823702    0.6802010289874498 O
   0.2503511450584692    0.9161101370618645    0.1941429798154581 O
   0.9138005995165436    0.2505920609342713    0.3061955001158601 O
   0.2574692968826134    0.9149117918293134    0.6707630192926232 O
   0.9100262721824487    0.2656032999138309    0.5535283182827393 O
   0.8838486280327493    0.5746893752216381    0.0624449710443574 O
   0.5909278149899569    0.2625548595648631    0.4403677609855767 O
   0.9297107459986529    0.2461772251375813    0.8173316772231936 O
   0.5922630582994910    0.2409252493366693    0.1838966834521282 O
   0.9183701113843914    0.5834705166282559    0.3160588293800172 O
   0.9106049537035069    0.9236441282246471    0.6973398115489365 O
   0.9143539246906016    0.9096156770977107    0.0457692758326250 O
   0.4185955636070851    0.0884030853820560    0.6760324965026268 O
   0.3812367708357414    0.0581314712850358    0.4206311867940739 O
   0.4318661042050944    0.1096058787921127    0.1821545538445913 O
   0.0703889261662172    0.7001940568015425    0.9286662286294067 O
   0.0914596339484359    0.7553822573937869    0.6869580708212696 O
   0.0726447595745917    0.7316505987951375    0.4378183636773492 O
   0.0700042120240774    0.7146475256524947    0.1804017082525580 O
   0.0996435145778345    0.4447526448723677    0.9295284791258651 O
   0.9159893350293055    0.7136773194349110    0.5610576793117510 O
   0.0884878034154432    0.4379020053842214    0.6868666125074849 O
   0.0901136219861414    0.4163275690572028    0.2018531245474883 O
   0.0786358838009595    0.0848538365565455    0.9639727272287398 O
   0.0800232735965061    0.0927224687939120    0.6980759009644569 O
   0.0920157629732185    0.1266104881365502    0.4271098546602560 O
   0.0772553475332993    0.0793737986777060    0.1650508025846838 O
   0.9074561556669821    0.8850343823652965    0.8632270615262172 O
   0.9093776193357741    0.2401689832686772    0.0680285893834687 O
   0.8760502241404263    0.9185213716827385    0.3091064770386135 O
   0.0691116410585952    0.4062018508356642    0.4292484251901229 O
   0.9196854364751823    0.9168986563755523    0.5645261710737199 O
   0.5944395432081268    0.5903931334257395    0.8030074971099112 O
   0.5877991866331779    0.5779714655406978    0.1844218841910218 O
   0.2404402127561058    0.9011046323160666    0.3263496172452992 O
   0.9379651833866994    0.2314960502738138    0.9405378789450013 O
   0.2496285253152965    0.9173677037016982    0.0685781688229705 O
   0.9306734616272049    0.5862238817710969    0.1862901992805940 O
   0.2471301046756416    0.5995934541844870    0.7966924134521908 O
   0.9185687775578461    0.6019078312838372    0.4393061846360855 O
   0.9176498590245538    0.5855851958977536    0.6774802489539840 O
   0.9382762336992532    0.5794611069237002    0.9386883046115236 O
   0.2308518589465479    0.5667993295889374    0.3231416910155989 O
   0.8947296041195908    0.9125452914071606    0.1768234440278944 O
   0.2296558896387245    0.5789925584348325    0.0523514316841498 O
   0.4135691972818498    0.0919799613908159    0.9390469412870319 O
   0.2498204434854544    0.2720388038034829    0.8155144360176902 O
   0.9014666899058372    0.9228750827988660    0.4347177955702852 O
   0.2589099595095934    0.2540493994574163    0.3275448891971346 O
   0.9175543631866357    0.2501915169969571    0.6883891539703838 O
   0.2030300427364061    0.9531404485198813    0.5481757472049471 O
   0.9554727206893732    0.2680876352352570    0.4258532293684198 O
   0.2415124761797367    0.9264650333356651    0.8115663358511523 O
   0.5823956872857347    0.9150970826855097    0.8275649284088190 O
   0.5775468889506717    0.6252768261479011    0.4558978714124250 O
   0.5744449035583065    0.9353200567290642    0.5674191181414190 O
   0.2596213764915029    0.2448491919211237    0.0491070161573423 O
   0.6052721268761054    0.5732054179310110    0.5651312495055067 O
   0.5935630189374426    0.5932249579604300    0.9325443570899609 O
   0.5891926442458291    0.9088925061623077    0.1236341461208311 O
   0.5784313878287768    0.2518284010501372    0.9452146665724501 O
   0.5737198071896856    0.5700365896060520    0.3101779987374121 O
   0.5457162491950045    0.9098239857486848    0.4206940395343053 O
   0.6102186762523506    0.8803907935294109    0.6955032247136579 O
   0.5881789115147589    0.2535344853809345    0.8117758511650576 O
   0.9210342044440585    0.2444673719857301    0.1868894053857386 O
   0.5621038866993847    0.2478286373141129    0.5642203723612940 O
   0.5777323800577192    0.2279767023033624    0.3064355909426886 O
   0.5821058843720899    0.2410293815178284    0.0620683908809943 O
   0.6314968641492653    0.5720206574099357    0.0602450095572725 O
   0.3858698834052564    0.4106174464156209    0.4266098987589229 O
   0.5799148553517859    0.7541729772286727    0.3166360073429705 O
   0.3993517908420475    0.4342040601206565    0.9393391453536174 O
   0.4196701097139035    0.2515900729705235    0.0691030738930622 O
   0.0580135889323751    0.9182834432617993    0.8060081910592057 O
   0.0654513540267065    0.9121714382718310    0.3092891875619495 O
   0.0932168929454419    0.9369827284599358    0.0612477089001095 O
   0.0875459694462284    0.5830548155615412    0.8274505970397853 O
   0.0630308625758885    0.5687182546906685    0.5362620697803757 O
   0.0636477426265598    0.6053084785865550    0.0719018219575321 O
   0.0908874809907109    0.2603908248352563    0.8096695617621701 O
   0.0798093795509675    0.2681674514424306    0.3266199508845949 O
   0.0796806722628851    0.2241936007290159    0.0629142410379740 O
   0.9171886147948036    0.7639413232049134    0.9510375961936637 O
   0.9164790852810253    0.7479223341349147    0.6905280183825625 O
   0.8958717535628340    0.7427618960473455    0.1943326603214807 O
   0.9319717819634019    0.4161159906138689    0.9385832178195014 O
   0.9119227842269847    0.4166022728043815    0.6779672486658769 O
   0.4078426422636401    0.2493856713409304    0.3034590320743019 O
   0.8956854682876162    0.4320353929340696    0.4257638600572357 O
   0.4017806180202058    0.2989388329778811    0.5555949303440011 O
   0.4373212324551258    0.6076958115742606    0.0669606619733942 O
   0.7572415511120908    0.9052164769634887    0.0768633470793353 O
   0.7670947701202633    0.5892564878316454    0.8142502119648876 O
   0.7790540693274153    0.5768760986701822    0.5650923638751231 O
   0.7530122796327907    0.5835785555959606    0.3136374171013442 O
   0.7509850071239127    0.2425658464668342    0.8110375199031379 O
   0.7254964210211494    0.2536163926310465    0.5495214436780954 O
   0.7365214878003987    0.1902015959419648    0.2929553071343548 O
   0.7412871630219602    0.2784361055363545    0.0683099860412194 O
   0.4103422302389759    0.9198895856782382    0.8093237470948661 O
   0.3994416227091562    0.9172559676970388    0.5605264055991692 O
   0.4038265006688974    0.9185691734937810    0.3404706943825496 O
   0.4260058259301779    0.9253510645976716    0.0718010257097018 O
   0.4175444032474303    0.5908338723064269    0.8120981359668963 O
   0.4263763290374530    0.5486325642369422    0.5656294501197238 O
   0.3977824902082192    0.5718070663580747    0.3240650731689721 O
   0.4181834600674334    0.2590363566791993    0.8081268868303705 O
   0.9173492842460327    0.3993922038764221    0.1859823381305618 O
   0.9118063889608612    0.0381255181244829    0.9459132713299236 O
   0.9143582812482698    0.0809603874904533    0.6827032310512835 O
   0.2734229219340530    0.4206805783252416    0.1929465837747022 O
   0.2437256699620101    0.1057239716183331    0.9371875782281666 O
   0.2449761584813932    0.0937692185489169    0.6679388620822438 O
   0.2578275603449333    0.0811708102908285    0.1834648582726068 O
   0.7448909752067829    0.7437651266745107    0.9577458049079336 O
   0.7541939527940613    0.7554638347833085    0.6963958563460062 O
   0.7517059862353145    0.7312383327204343    0.4377258370117699 O
   0.7587768294703040    0.4118229456013348    0.9651790637398208 O
   0.7360038390167185    0.4095264362742332    0.6897850024977601 O
   0.7371361086757336    0.3949737660250631    0.4436632976782209 O
   0.7526965473905752    0.0708104127050156    0.9285901210521965 O
   0.7552378271522466    0.0627549392638804    0.4258312220424423 O
   0.4218811835832824    0.7554271230311282    0.6976555093040188 O
   0.4101683704509282    0.7654802140176159    0.4365789225849311 O
   0.4319674157637397    0.7359006176537617    0.1745323325391928 O
   0.2307411668475042    0.4260032247743187    0.4288647617184662 O
   0.2453081280035052    0.4527388542707508    0.6879835172139324 O
   0.2431038879109877    0.3730749163433256    0.9471540463708497 O
   0.2371274527232060    0.7422101141531914    0.1841246489061885 O
   0.9280170757760986    0.0930653126160465    0.4266171755463054 O
   0.8755967641976868    0.0822269176483864    0.1815030766319544 O
   0.5730713435215734    0.7485307462715632    0.9380038888715818 O
   0.6055417547148482    0.7048407397250221    0.6844559615287231 O
   0.5965697834877979    0.7442283568253972    0.1855887661740921 O
   0.2369859048292401    0.5827333130033894    0.4490761531174536 O
   0.5925998513485461    0.4149445564803745    0.9403515962727504 O
   0.4126763426184617    0.4241560878514430    0.6657400435180852 O
   0.5750668624712368    0.4536031187612475    0.6604357367858544 O
   0.5525259991578367    0.4247308222537766    0.1746388687436401 O
   0.5775427679225044    0.0837433335419028    0.9623044768954545 O
   0.5891660783410354    0.0785595635130361    0.6621899533139927 O
   0.5459043289689618    0.1000584492226214    0.4173793438323573 O
   0.2335084294346653    0.7486847555917342    0.9344811719597078 O
   0.2626889608857895    0.7383812131375683    0.6892576690721358 O
   0.2402490469981329    0.7527420330299515    0.4346622302306545 O
   0.5598336220438482    0.4490180100076524    0.4270155077303997 O
   0.2100784827448801    0.5789077251307564    0.1787729663980402 O
   0.7522720963766215    0.9279080436843321    0.8165190368596325 O
   0.2182116602684216    0.2675418674447804    0.4526461474168698 O
   0.7545126730909246    0.5983666913396261    0.1753473482291168 O
   0.7474483056351403    0.5687980063801420    0.4428997580771533 O
   0.7388314930381972    0.5878873467284070    0.6887599100622436 O
   0.7623372627888152    0.5808287376395012    0.9597715763946627 O
   0.7332994260978623    0.8471010700951629    0.2012689231323726 O
   0.7116605397314374    0.9037639006138207    0.4685790600262619 O
   0.7730534336493201    0.9049905396115376    0.9508092325223446 O
   0.2271481581373232    0.0862376156568943    0.0662588088940799 O
   0.2597024353139533    0.0883253815783955    0.3247414819871727 O
   0.2659996268388620    0.1361359008659765    0.5307488118745294 O
   0.2376083412907015    0.0966736309899426    0.8037720872456922 O
   0.2636503572408999    0.4144091690466381    0.0597756987591245 O
   0.2176301361416965    0.4003052491359553    0.3032065044574312 O
   0.2683390090286933    0.4133960444061929    0.5628736311501307 O
   0.2526751539202116    0.4418172785427224    0.8226011566480497 O
   0.2432794826476223    0.7500254683403959    0.0616886427042167 O
   0.2459640943138750    0.7345494091822420    0.3154448365392029 O
   0.2554859585416674    0.7728837451042526    0.5712012987330969 O
   0.2573065564538552    0.7538924586344851    0.8128305164683257 O
   0.6012766129528411    0.0769228138877496    0.0995417798466135 O
   0.6145293998313186    0.1039393522090314    0.5283198224643519 O
   0.7517334126941042    0.2445940239444787    0.9474585155093339 O
   0.7471774889662773    0.2206506256770812    0.6776941158800955 O
   0.2510513125020254    0.2800198592472489    0.6701855236693066 O
   0.7597734417886252    0.2442929022022894    0.1843959154249397 O
   0.0794970278453490    0.2482231515913054    0.1908055944692704 O
   0.0767469887778823    0.2542330527829144    0.5366582246319821 O
   0.0903763598931209    0.2769511729860947    0.6698947065949045 O
   0.1081646288887463    0.2558158534385332    0.9324320552396645 O
   0.0703637148800936    0.5631268050449948    0.2696105820645845 O
   0.0838910085115892    0.5646123432013170    0.4088134366897466 O
   0.1293564289759813    0.5966842786716361    0.6910207534638050 O
   0.0867570678690264    0.9091407764624752    0.1844155130705382 O
   0.0876538722846270    0.9159277866808436    0.4394931566686475 O
   0.0806486113415663    0.9318143430444414    0.6759901773226530 O
   0.5942784594387782    0.0822544398149504    0.8106964598153420 O
   0.0630465982451683    0.8893793861638470    0.9435220658061277 O
   0.4049399370619535    0.2323661749445775    0.4352249613203725 O
   0.4283919386628193    0.2624320783304834    0.6797315417606412 O
   0.4059937236181060    0.2570487213050260    0.9448445270130902 O
   0.4273252077991165    0.5654293306070904    0.1927366048616884 O
   0.4104541637778826    0.5761481023996119    0.4472432012327003 O
   0.3804641442193075    0.5903624234750319    0.6881868936695612 O
   0.4215093210123333    0.6016194014352358    0.9291574294668247 O
   0.4382012644291820    0.9143977431617855    0.1987235244549517 O
   0.4343492262134310    0.9184235392193398    0.6790636971091436 O
   0.4206374269790592    0.9070811425272207    0.9420683836028289 O
   0.4369626827034039    0.2928085139137674    0.1923929720208739 O
   0.6099970506180719    0.4017860959061440    0.0658141596653447 O
   0.7823355030082905    0.2380487151244002    0.4128391567012102 O
   0.5515015193372815    0.4097613775918855    0.5430335980982852 O
   0.4152054983964168    0.0911527540099116    0.0634333376494788 O
   0.4397593788131487    0.0975210303658995    0.3087157487298071 O
   0.4381969521873198    0.0903335711340803    0.5498358383581720 O
   0.4179435476553063    0.0888771725167833    0.8077827644454975 O
   0.4322696664230633    0.4120317690336983    0.0699816903349120 O
   0.4134675934360555    0.4130187011525731    0.2859862088102517 O
   0.4169824756696583    0.4303357131983646    0.8122517162821081 O
   0.4094942038826317    0.7540070583286163    0.3023942564897284 O
   0.4172515777994096    0.7476130852059173    0.5703860707917217 O
   0.4241078594452931    0.7481997081165113    0.8307044131479565 O
   0.7687402006905322    0.0869888608734858    0.0704381211852053 O
   0.7538185440422648    0.4218325123106840    0.1539657884210260 O
   0.7673223370684972    0.3723092247269445    0.3047479295685406 O
   0.7348067912990862    0.4198422722486503    0.5626615993472586 O
   0.7593078829988376    0.4073014637866536    0.8139139652887140 O
   0.7571635453603827    0.7348707141170624    0.0803286905866559 O
   0.7554997378639799    0.7535410916170440    0.3076818777593013 O
   0.7492871579319523    0.7352088233931310    0.5735754872624897 O
   0.7547508082803402    0.7494192203574284    0.8239155820492253 O
   0.2732067544275502    0.2489308069035531    0.1884469033947328 O
   0.5939656267850421    0.3949955588167013    0.2950702623553312 O
   0.0957811849185313    0.7546018953954560    0.8186889102372700 O
   0.0919100534808634    0.7347655294780440    0.5645565073379238 O
   0.7532265370017704    0.0768945543136660    0.5869635287684489 O
   0.0842418877579380    0.7621649807781542    0.0500537028446868 O
   0.0816063801205069    0.7250507379093686    0.3123053761368650 O
   0.5944884247733456    0.4155818259122455    0.7981113664290770 O
   0.5857557453944152    0.7319316365348734    0.0654335988133512 O
   0.7448088951743634    0.9074928294569878    0.6004965718254581 O
   0.5929084569572517    0.7560471745554673    0.5605020717340778 O
   0.5941255755376870    0.7462965547591314    0.8100805575468055 O
   0.9463628047594286    0.0687258368157941    0.0690285509069756 O
   0.8960978308701579    0.0919416767341053    0.3112174542123382 O
   0.9181217080677179    0.0835505761658724    0.5602024233717972 O
   0.8885877854427031    0.0451324267443016    0.8059596501202905 O
   0.9568512267669826    0.4135645526118522    0.3126422234135858 O
   0.8958710186573082    0.4072442936110853    0.0594491670151472 O
   0.9288716803145726    0.4460902704778120    0.8115577257206431 O
   0.9155055004773472    0.7383154310393100    0.0672089722659205 O
   0.9136165778442669    0.7406041377899171    0.3150207679264553 O
   0.9310529725725766    0.7249862024282587    0.8247515482537853 O
   0.0659072393140103    0.0950483412877175    0.3057861733972157 O
   0.0986857946825651    0.0865225667701187    0.5637723171656882 O
   0.0496010869518668    0.0888587455091679    0.8268148493616475 O
   0.0953821873967474    0.4177476874214508    0.0531134163446286 O
   0.0975157411044059    0.4139144473454975    0.5553161410226156 O
   0.0940622104382409    0.4237732249478258    0.8092306317642873 O
   0.9199037610836441    0.4376004256585017    0.5456303031283984 O
  -0.0017225993105907    0.4974075825374348    0.6219772455194436 Y
   0.1736723432298348    0.1859270614128897    0.7378618023224148 Y
   0.6610457980148038    0.6611513194098066    0.2573186882455122 Y
   0.8326290451627308    0.6695448221175816    0.8901329323897099 Y
   0.1633476484303580    0.8265408385561204    0.2531872704551690 Y
   0.8462469993440708    0.1532418632482453   -0.0081130694571583 Y
   0.3247319643633638    0.8491113090345414    0.8740621482708142 Y
  -0.0003670508683967    0.3230887496315112    0.0052159901131340 Y
   0.5013155089942000    0.8377778190737756    0.7606501802369822 Y
   0.8289495529144888    0.4919788613575427    0.7440953058198396 Y
   0.3296792928309444    0.8163696166998066    0.3650470152273982 Zr
   0.3240621659593917    0.1581721022581031    0.1164337970620152 Zr
   0.0078972087680852    0.4945251297689953    0.8747465604150884 Zr
   0.3457805793772835    0.8278241044648349    0.6345567496852940 Zr
  -0.0001735969400762    0.1700462272469212    0.1266132708078696 Zr
   0.6872404514066293    0.6548126150273278    0.5074686930554679 Zr
   0.6736765920313743    0.3263064052156346    0.7589178596851021 Zr
  -0.0075055008488806    0.3412276694403426    0.5028186851828383 Zr
  -0.0003212002441181    0.3307947598022606    0.2435622303122175 Zr
   0.6794664306401054   -0.0088001446645099    0.5330248651972733 Zr
   0.3457949503786215    0.6821000882735730    0.7614165081431443 Zr
   0.3220135663934514    0.3389046719539248    0.4896381583820183 Zr
   0.3500552864745920    0.3390927339041916    0.0075732934171626 Zr
   0.0021066680675877    0.6660808547763638    0.5004104734087791 Zr
   0.0002677128029347    0.0097058717733021    0.7484634603640241 Zr
  -0.0009004494958145    0.6742445284906254    0.0038783157618338 Zr
   0.6474096068135278    0.3388369358813031    0.5052758586584474 Zr
   0.6706175610410658    0.2937554411765752    0.2591600958121679 Zr
   0.8121768160463724    0.4825192281118758    0.4969994966798515 Zr
   0.6562726355913068    0.1773157544098409    0.6165140882295995 Zr
   0.5038995448609634    0.8154892082670477    0.2449351693366276 Zr
   0.5038767187349207    0.4940027081204235    0.2522342996602738 Zr
   0.5089914530095736    0.1695828947472817    0.4930593753497282 Zr
   0.4859927553825171    0.1703187563228625   -0.0053704508690987 Zr
   0.1754052770936680    0.8460978869931083    0.0078078645367607 Zr
   0.1717184384763101    0.1674177162164375   -0.0009329246353155 Zr
   0.8322922152055454    0.6720363454308849    0.6383826644753684 Zr
   0.8224734235667580    0.6627250171730320    0.3682982050605048 Zr
   0.8490183039101452    0.3290996943824780    0.3742586806212997 Zr
   0.8548299304297152   -0.0004501396288037    0.6226917987602769 Zr
   0.5146314293603013    0.6637283775705888    0.8647415601071671 Zr
   0.5038253130253874    0.3429856962007705    0.6258739028992389 Zr
   0.4862759452123321    0.0054134780165194    0.6211769136461263 Zr
   0.4931204856442178    0.0072545563010766    0.1284666118804748 Zr
   0.1670648160272619    0.6689963311286200    0.3765827177920762 Zr
   0.1699756932562566    0.3469294286429897    0.8658478777411821 Zr
   0.1638125040045970    0.0093600396688801    0.6315630570016991 Zr
   0.1755263132930251   -0.0096323178338418    0.1354142240522115 Zr
   0.6829097424257212    0.5019273092936654    0.6279446054598774 Zr
   0.6724747387543696    0.1815526848090656    0.1147268199847168 Zr
   0.0079022189289532   -0.0116606624513781   -0.0030187624814178 Zr
