Hf25 Ta25 Ti25 Nb25 B250 Mo25
1.0
   7.6993275725251102  -13.3350184822647595   -0.0000186238822884
   7.6978422182754294   13.3341609212201870   -0.0005280382558386
  -0.0005971390300836   -0.0003211616277320   16.7726817591863018
B Hf Mo Nb Ta Ti
250 25 25 25 25 25
direct
   0.5316943544329774    0.4648125218669911    0.4995766578874121 B
   0.0644643062792174    0.1304978955425205    0.8994360571151804 B
   0.0660191160213183    0.1323261409706408    0.6938251664433511 B
   0.0655316720947831    0.1325728476687214    0.5037375525268457 B
   0.0658211700320687    0.1309002445451999    0.2980858241979399 B
   0.0680788597592731    0.1324319800077780    0.1040747633236988 B
   0.9336267678783718    0.8685214664382865    0.8993278642185738 B
   0.9358923284351456    0.8681460090184897    0.6951336922054969 B
   0.9348398656275345    0.8681556745945234    0.5026791144248339 B
   0.9350938279688179    0.8692203476551660    0.2988396928812824 B
   0.9334499014026494    0.8673912965890705    0.1028171331078516 B
   0.9343081977149561    0.6694055316733137    0.8999429442311698 B
   0.9354262431487126    0.6686802954371979    0.6988789657487271 B
   0.9348455996894467    0.6664705786043726    0.5039395420936825 B
   0.9353395617263802    0.6658579853453016    0.2996507711415497 B
   0.9316168090651477    0.6663456641331378    0.0996604774018578 B
   0.9346834395967799    0.4663325681462653    0.9003566816622549 B
   0.9349085561480588    0.4680267052405277    0.6994092577115245 B
   0.9321292922971944    0.4657903164248789    0.4991828861916660 B
   0.9341220776503366    0.4666348730450183    0.3010190827249481 B
   0.0653073387349941    0.3336948552958238    0.1014840824973607 B
   0.0641396374668491    0.3327211915691624    0.2993310657478278 B
   0.0644670443165445    0.3313651985981586    0.5018908680743730 B
   0.0661825114149070    0.3320784637649665    0.6962059172464394 B
   0.2657414106990030    0.1311607719980849    0.6971483610079555 B
   0.2675121098753011    0.1328158292570265    0.5019545287787710 B
   0.2661578191302312    0.1310373291736221    0.2997572225269571 B
   0.2659059416139797    0.1321294182613139    0.1003016965053097 B
   0.0662170114920731    0.9344838143019515    0.8981575009384880 B
   0.0681700167786462    0.9340030609965715    0.6939067687170133 B
   0.0670160187179484    0.9335946385686394    0.5059383100116720 B
   0.0670081574723610    0.9341946283627554    0.2956170252984457 B
   0.0680545623427753    0.9346896559248864    0.1053533635258125 B
   0.9328178297534991    0.4649616780375638    0.0997976189411480 B
   0.0682910314296729    0.7359697024399385    0.8983537012202480 B
   0.0679362057081889    0.7338475952228702    0.5070459094897749 B
   0.0681173272627200    0.7330906449238719    0.2970029158429592 B
   0.0695075821478240    0.7353963826284289    0.1008710437976207 B
   0.0667468086165930    0.5326431964332058    0.8994041083391878 B
   0.0666865971511850    0.5343997248621395    0.6984110798263131 B
   0.0673389547291196    0.5352424173397164    0.5030743922661961 B
   0.0669921889923256    0.5348418602787913    0.3008025364574302 B
   0.0688032210640561    0.5342970596051014    0.0996700258657339 B
   0.0668407261176328    0.3324037484248001    0.9003215602347322 B
   0.0677359244696643    0.7352151489495914    0.6974517375543621 B
   0.2660198916958233    0.1318467187578033    0.9013351234044973 B
   0.9330539052010858    0.2647703581634943    0.8998306288559500 B
   0.9323496209360809    0.2650719487525940    0.5007519877578258 B
   0.7327197918496412    0.2666722331268606    0.4972330014101065 B
   0.7339052028110395    0.2650980398119391    0.2975594841381168 B
   0.7327088693261488    0.2637180486142047    0.1015245294342684 B
   0.7320524286592974    0.0638337092745570    0.8964869922733040 B
   0.7327378429250039    0.0650562252705326    0.7017881323094286 B
   0.7311638617710653    0.0662833920779011    0.5002744993498837 B
   0.7323780564818866    0.0679169624182486    0.2984122378953601 B
   0.7321103627217614    0.0658058316562599    0.1023825928852634 B
   0.5333997742012799    0.8687439830141341    0.8958211817336211 B
   0.5342878540694984    0.8672404219319436    0.7033430296314381 B
   0.5339000562472026    0.8666048933848581    0.5013387486135029 B
   0.5313568652236913    0.8649581240803315    0.2972223522786954 B
   0.5319952335560426    0.8670090991481599    0.1004299254216024 B
   0.5348411483016439    0.6707771348400243    0.8959249872082614 B
   0.5354524040353104    0.6701819041434373    0.7019752073968828 B
   0.5335303620438907    0.6693134540246681    0.4991635274791874 B
   0.5311793837488507    0.6690766064901806    0.2984657414981040 B
   0.5324364700641755    0.6690176084904603    0.1040579144853750 B
   0.5323493977730883    0.4666873743961030    0.9006313230750572 B
   0.7312184530079918    0.2658839479425067    0.7013701821538266 B
   0.7320795834653563    0.2633509239447264    0.9003836278897080 B
   0.7350060824036524    0.4673615530071153    0.0979993046015954 B
   0.7357922959329124    0.4655818328265883    0.3017674310784209 B
   0.9306986813314924    0.2654303331835924    0.2984105015095957 B
   0.9302132451514206    0.2656194790020175    0.1014664376652741 B
   0.9329836926949099    0.0646574083021537    0.8989542232023886 B
   0.9352583048648367    0.0674149390940488    0.6948383300277311 B
   0.9341952893079156    0.0678916655249710    0.5030799476372224 B
   0.9337958181584394    0.0665073719654388    0.2998453943271100 B
   0.9312001392798008    0.0648896246448352    0.1037108179663658 B
   0.7349483527888250    0.8691821454209128    0.8968845762198211 B
   0.7322969247273206    0.8665498697336864    0.6998772282290463 B
   0.9349930619395093    0.2657188914243276    0.6988495596368268 B
   0.7313227129495186    0.8666697024945539    0.5019745686048802 B
   0.7328938860601089    0.8684482357536042    0.1026828972262769 B
   0.7358554548958570    0.6705020110287819    0.9032601251698597 B
   0.7347105998775333    0.6685279108792576    0.6987438787596241 B
   0.7338168549397772    0.6675467683672962    0.5005540031141084 B
   0.7355872324798829    0.6687485679012057    0.3007773332432108 B
   0.7350597058115330    0.6674692433883084    0.0975132634343027 B
   0.7349715466197166    0.4674902209621071    0.9027728422344926 B
   0.7335132183609783    0.4672399247859969    0.6985914810473058 B
   0.7330763216915304    0.4640358023167345    0.4993139527927032 B
   0.7325670441035976    0.8675685931676680    0.2987994075656823 B
   0.5326680274466173    0.4660440287597247    0.6996894550811449 B
   0.2656861602619994    0.3312498509517118    0.1006102557899198 B
   0.2681556070742036    0.3327302087475105    0.4994852829993730 B
   0.6656802265100149    0.9320865770275952    0.7015655945496968 B
   0.6646654681042561    0.9317436333088347    0.5023233455956786 B
   0.6647064487132263    0.9320007289923212    0.2986136247661325 B
   0.6661399589511844    0.9340799576241713    0.1028738986903774 B
   0.6695599820233732    0.7371992767754976    0.8979200392730864 B
   0.6671097838231786    0.7355058418658951    0.7000307333464955 B
   0.6656998870457037    0.7356082904387391    0.5015084795860705 B
   0.6659538058572539    0.7362008722419218    0.2987116411594617 B
   0.6668459625741925    0.7350521443517605    0.1009915622336605 B
   0.6685471075975349    0.5357613031195028    0.9024514238498643 B
   0.6668277139089235    0.5335161432291804    0.6990564498247308 B
   0.6662794311617554    0.5317878409086646    0.5014786117693921 B
   0.6682463674641611    0.5330819848014048    0.3007583551759326 B
   0.6696917952842936    0.5351896994636270    0.0975165069021740 B
   0.6655042769873724    0.3302807315744717    0.8997672527543146 B
   0.6646743795066490    0.3313915136042937    0.7003619605508826 B
   0.6669932460700330    0.3321575086125093    0.4977675643471590 B
   0.6676954172589719    0.3309237321090810    0.3003186143612049 B
   0.6668426332297781    0.3302464294064184    0.1004070783956534 B
   0.6670498948238869    0.9339350876410928    0.8937196329379125 B
   0.8631483900730980    0.1315642062598733    0.1027071382692960 B
   0.8657028829221394    0.1340611393003746    0.2984104252463785 B
   0.8671619036447366    0.1339172365323496    0.5020616912837539 B
   0.8672543150699573    0.9340642492245099    0.5008229164980887 B
   0.8681079286869529    0.9342764275473142    0.3004836813217075 B
   0.8658830915492912    0.9339518249270755    0.1033286823868047 B
   0.8680303131461742    0.7361807753039280    0.9023539723073185 B
   0.8687295531690857    0.7347789967803043    0.6977887680082869 B
   0.8681916523033325    0.7342161687981963    0.5022125155445614 B
   0.8690281277401817    0.7352548113490951    0.3004043177509838 B
   0.8654265483177260    0.7323731991795435    0.0987327104530628 B
   0.8679664134528018    0.5346277308449692    0.9014728727146231 B
   0.6644450288802488    0.1297795819229620    0.8967952775651926 B
   0.8685550388981641    0.5356161897378952    0.6991117570913817 B
   0.8691264061498023    0.5328603371412813    0.3013360204762209 B
   0.8654914057956995    0.5335718504000353    0.0985366816449977 B
   0.8675643419627459    0.3320256530630363    0.9012262290338511 B
   0.8679391398161329    0.3341143585002314    0.6997315210065204 B
   0.8645118217732793    0.3321369384339379    0.4974387980067655 B
   0.8652932662829366    0.3317331064527529    0.2997286716998112 B
   0.8644227282539507    0.3299890504885037    0.1005688572011024 B
   0.8652519821627283    0.1304242242758519    0.8992529406099709 B
   0.8689416355955383    0.1333872859643045    0.6983629322487935 B
   0.8669394663291516    0.5320476372313588    0.5006326653420035 B
   0.2670611401280253    0.3338280332504653    0.3003500291374732 B
   0.6640706094481095    0.1319314614764356    0.7035483897490842 B
   0.6664380744736481    0.1335555932171840    0.2961643844936139 B
   0.4664041621838259    0.1303384417386539    0.3020229323442422 B
   0.4656843530047787    0.1298513421060942    0.0987008677909099 B
   0.2681405230978474    0.9332379960197951    0.8985370802971147 B
   0.2667610332269488    0.9345787610718482    0.6984242114482749 B
   0.2691459304898230    0.9346792428084193    0.5045224226331101 B
   0.2691223206428168    0.9343891270203732    0.2983400722014101 B
   0.2684386744575720    0.9331071169726236    0.1005945348153931 B
   0.2682629242830627    0.7364412193948310    0.9036997305963986 B
   0.2657046612343333    0.7344327335443765    0.6969942603342663 B
   0.2671932841291447    0.7340835486721321    0.5041789500329570 B
   0.2676325036811619    0.7338839621202420    0.3003967020904210 B
   0.2686019876451840    0.7357661003759125    0.0952713544462952 B
   0.2660154496118836    0.5331651248547109    0.8994725433214745 B
   0.2653424562168946    0.5329024516189453    0.6984684032592841 B
   0.2679429469117909    0.5359255627319252    0.4988525407588857 B
   0.2686368089707833    0.5373647133927513    0.3014007303259706 B
   0.2669413154682396    0.5356718498131227    0.1022832529786243 B
   0.2642469881841306    0.3315558839455934    0.9006616683184233 B
   0.2655140707227386    0.3320554129217926    0.6982061634356018 B
   0.4661503629247065    0.1317542151604712    0.4956876260144782 B
   0.4648598704087322    0.1314204161311598    0.7050081119311371 B
   0.4656024918223045    0.1298135484313679    0.8978384603768681 B
   0.4645662504766414    0.3300488115656565    0.0985138300417596 B
   0.6658508549212117    0.1322065076492256    0.1015477344044527 B
   0.4667564676618013    0.9335610779545199    0.8968031712770032 B
   0.4660591835487408    0.9342525553501232    0.7049296172794649 B
   0.4662533742987113    0.9340263960268382    0.4981076055822056 B
   0.4655177222987653    0.9326370096985415    0.3023418597456219 B
   0.4661228335356660    0.9330627055331967    0.0971958413234959 B
   0.4667975894558646    0.7371829496378703    0.8970301039285030 B
   0.4691960646567443    0.7361036098467973    0.7022979744935381 B
   0.4680893046670571    0.7346997880715925    0.4984252641088110 B
   0.6650278845878543    0.1326242104075308    0.4990240107710076 B
   0.4655798535588785    0.7337599224839371    0.2972294984518084 B
   0.4660631480308027    0.5353567807920397    0.8987628385037743 B
   0.4669334428868004    0.5342483292542973    0.7018477475113690 B
   0.4658258143220419    0.5332704700202496    0.4972235997394217 B
   0.4649136323197540    0.5352599089632014    0.2998728704625727 B
   0.4657052366701563    0.5345318943073257    0.1028639370680985 B
   0.4636894728631539    0.3293719513200545    0.9018344965220748 B
   0.4653315170959969    0.3318466193609559    0.6997039641113280 B
   0.4661166564404324    0.3315411371864996    0.4968090235469351 B
   0.4657923093940219    0.3302675054358263    0.3028495678205210 B
   0.4661882963933185    0.7349145750497557    0.1036981574605525 B
   0.8687759813635472    0.9339566406124447    0.6963550897867807 B
   0.8676239345584454    0.9339452921516941    0.8990758419267821 B
   0.5327814709103256    0.4664021745544223    0.0993430457388244 B
   0.3350082007181661    0.0661947457214093    0.5003222401795063 B
   0.3346241070052457    0.0651639186255794    0.3014078781618658 B
   0.3338109999175867    0.0645632357731739    0.0997041395220782 B
   0.1342784102126981    0.8674762897765655    0.8987696468760085 B
   0.1342720423187163    0.8681061445733779    0.6957751948241424 B
   0.1348853240705229    0.8676329075330746    0.5073955567807270 B
   0.1346350038312277    0.8677517482914207    0.2953410089310251 B
   0.1347824578149105    0.6690395646368091    0.9001636322983515 B
   0.1330099473595314    0.6678262739731977    0.6968422942057619 B
   0.1339808430395996    0.6673307041683469    0.5055271659580524 B
   0.1334059907694106    0.6661814772802971    0.3005944764829123 B
   0.1367411906574764    0.6693652711805120    0.0986346226805434 B
   0.1331055605609992    0.4658700740349605    0.8998375890669428 B
   0.3321845884061029    0.0651114414188631    0.7002181440321231 B
   0.1325521612339371    0.4665729623345051    0.6972334736317645 B
   0.1340799058602177    0.4696884438586663    0.3000766393774109 B
   0.1342801301885874    0.4680965789873114    0.1003345600529139 B
   0.1320607010953641    0.2652875695538633    0.9001967198083163 B
   0.1310655392053437    0.2649732912950162    0.6959143577018845 B
   0.1314412534406115    0.2642916078048370    0.5026888490224455 B
   0.1313100797527086    0.2647795191763863    0.2996435067827992 B
   0.1341048630798695    0.2659194702364277    0.1018382242618101 B
   0.1315609702674789    0.0649967385690561    0.8990321111091821 B
   0.1330886727852925    0.0652566345563587    0.6939069080417876 B
   0.1328477111950735    0.0660019395656493    0.5037817494813243 B
   0.1324947674728084    0.0651275184478922    0.2966788226125763 B
   0.1342627373891007    0.0669574685154826    0.1052762870452956 B
   0.5322621747378207    0.4659583436709324    0.3003665187915872 B
   0.1337125779741875    0.4685433297947820    0.5017694402674422 B
   0.3334161683671349    0.0649413121888058    0.8996456175819477 B
   0.1360478854551226    0.8677416139059260    0.1027707601211429 B
   0.3331853268969002    0.2646169183355127    0.3021970545634203 B
   0.5307656107013461    0.2618999630680957    0.8997130618636271 B
   0.5313809111558995    0.2643251352056765    0.7023189081024365 B
   0.5327123702183182    0.2645506959431101    0.4976106457357398 B
   0.5329060363861342    0.2627192467016432    0.3014431781595595 B
   0.5320453076202745    0.2622583026821627    0.0988053184011364 B
   0.3310630898562335    0.2634942637799133    0.0981096817247433 B
   0.5311840024754489    0.0659960969460302    0.7060723369402631 B
   0.5318389189819549    0.0659466162157335    0.4964574680355559 B
   0.5324072140290691    0.0656153368171885    0.3013227051609360 B
   0.5323057092424031    0.0650644174234740    0.1002313221456504 B
   0.3347822122718094    0.8679167396172860    0.9006792886202861 B
   0.3333556241597589    0.8692539475425709    0.7006501861609349 B
   0.3347783006220653    0.8690098134586435    0.5020394956375994 B
   0.3349030178602299    0.8676362865202566    0.3001326635148015 B
   0.5323695905212885    0.0646327699556295    0.8938616878090870 B
   0.3345190249592880    0.6700152581879663    0.9009692304902869 B
   0.3341524595221605    0.8674286606914433    0.0955011695436706 B
   0.3326102043378514    0.2648979070042342    0.6986207875346937 B
   0.3309770258987078    0.2632778103482271    0.9029060842836356 B
   0.3340822414079604    0.4700549111329769    0.2994220088000631 B
   0.3348987436719975    0.4678002988975527    0.4973283326697609 B
   0.3321801534853184    0.4657310880275955    0.6997271411828678 B
   0.3326207928446230    0.4677252417408352    0.1029549814846705 B
   0.3308415354700676    0.4663379798110196    0.8997948412321266 B
   0.3336772018900609    0.6689129741692257    0.1010918304204166 B
   0.3342066120090280    0.6681170406397692    0.3008624096249982 B
   0.3339071632546944    0.6678013624947647    0.4987418348900179 B
   0.3335796523163747    0.6677457304773208    0.6995160226894334 B
   0.3346976420606822    0.2661184509009808    0.4983146416762369 B
   0.3985108636026502    0.4001392064391945    0.8003349856823184 Hf
   0.6016306507205058    0.6013614631824071    0.1995521259775984 Hf
   0.6028388389683637    0.3997635771069652    0.1999535364635535 Hf
   0.5986323149260563    0.3974223638270638   -0.0007841115159852 Hf
   0.4009362998782173    0.8031932655403288    0.6019791700921314 Hf
   0.4012889460765556    0.5983036881093675    0.5996767116621514 Hf
   0.4012946331960514    0.6021338376884535    0.0010339134970331 Hf
   0.3982060397715764    0.1954465597918239    0.2005005549678860 Hf
   0.2012708546087387   -0.0001553008570025   -0.0000548048554734 Hf
   0.2026420057619792    0.6030605535536977    0.7993749474904122 Hf
   0.1970433510201021    0.4008211238089339    0.4004368549710838 Hf
   0.1930640632795857    0.1944498329011994    0.7982913949255154 Hf
   0.1971318526502707    0.1982247533726400    0.4002690654917179 Hf
   0.2012254469614938    0.0000192667025313    0.4012274498447392 Hf
   0.0019054088534542    0.8005598256760618    0.4020108756915572 Hf
   0.0013006723651935    0.6023913522165483   -0.0001296838755130 Hf
  -0.0019648089103642    0.1959204560556431    0.0016013853254739 Hf
   0.6017665551131591    0.8062687395947125   -0.0007203839038449 Hf
   0.2023330123930367    0.7993716440871239    0.4028538249538551 Hf
   0.7990103703444617    0.0034677844216326    0.3994217416439936 Hf
   0.5987872228482548    0.6031381681025770    0.3995594958076751 Hf
   0.7997479573131628    0.3982523313366404    0.8013192695532639 Hf
   0.8004050919215494    0.6042746840292614    0.8002485775323774 Hf
   0.8019913108274003    0.5984659655833603    0.4008170373948455 Hf
   0.7973230213155873    0.2004545037050401    0.5999521193991924 Hf
   0.4003952857258352   -0.0037404177715477    0.1973348160166384 Mo
   0.2000580767674261    0.2001629662134559    0.0013521790069737 Mo
   0.3976647647224030    0.3950449892204795    0.5985939435571033 Mo
   0.2011721523450818    0.2006658006965834    0.5992709060994900 Mo
   0.8016492965805232    0.6000915231315211    0.5981366546745265 Mo
   0.4015551787137708    0.8035703342365700    0.7991060430330521 Mo
   0.4036300075099853    0.8001389581127852    0.4055741424063878 Mo
   0.1963340176773698    0.3975120463518456    0.7920283468494594 Mo
   0.2015108272172115    0.6033560802916168    0.2017539040677359 Mo
   0.8048650795319527    0.6017765864392600    0.2038565655081580 Mo
   0.4045519427100877   -0.0004847967237046   -0.0019496238792831 Mo
   0.4006928358596703    0.0031669519515716    0.6031829022780728 Mo
   0.5986965798666539    0.0004409076240328   -0.0078421987831061 Mo
   0.1983300451103461   -0.0022229361727212    0.7979883722605731 Mo
   0.1989612755793161    0.1997616809284195    0.2009850092459683 Mo
  -0.0010690595282194    0.6000617009828413    0.6003406166627090 Mo
   0.0022419119529380    0.5983651429151472    0.4117427540165077 Mo
   0.8010477031700953    0.2015392759930732    0.3982726812413473 Mo
   0.7979682674563432    0.0003523965672187    0.2016279716835388 Mo
   0.7975764431033686   -0.0005863352951974    0.0100903250090948 Mo
  -0.0003943539892639   -0.0010985490723236    0.7884840921421890 Mo
  -0.0005315883374330    0.1987044892824292    0.8032297324303366 Mo
   0.8031599253354642    0.8057584841838060    0.7964526998120546 Mo
  -0.0055012102972281    0.1985887028718595    0.4017972338984871 Mo
   0.5953993474203605    0.8003924589387253    0.3957702650540551 Mo
   0.0000031628381242    0.8016539459364143    0.0030659805446671 Nb
   0.3977274249250692    0.1987366393973923    0.5985414793720880 Nb
   0.2027328515798787    0.8041978571264369    0.7980270095126100 Nb
   0.2017733912715442    0.3974723933344521    0.5986859286003277 Nb
   0.8007283084615450    0.8013990732924137    0.2012595123194952 Nb
  -0.0046808772990297    0.3960457292741332    0.4004619305949831 Nb
   0.7998956580288979    0.7986155959877717    0.5997479890763734 Nb
   0.2000744275298114    0.4005028111088983    0.2011212121591248 Nb
   0.1995983307000808    0.3975583204177124   -0.0002954480141556 Nb
   0.0002001437327168    0.6001177080813693    0.1989803441556188 Nb
  -0.0001703015312830    0.1980355061063691    0.2016806735534558 Nb
   0.3967500934837444    0.3965455281885776    0.0012881690559785 Nb
   0.0000163296736377    0.0006913680778523    0.0061844225981165 Nb
   0.5939888877038639    0.1963382144846792    0.6031287043291572 Nb
   0.5956464507977338    0.1922178273006144   -0.0014293270789839 Nb
   0.3961186086435346    0.3974586471543639    0.2000988652898802 Nb
   0.8018682167472518    0.1973322552657297    0.7984702259615710 Nb
   0.5978958552003869   -0.0008618742961822    0.1986115431776795 Nb
   0.8014255228293877    0.4016293999094479    0.2000922065593263 Nb
   0.5975060937598154    0.3977110704298398    0.8028881431710038 Nb
   0.6003255450685676    0.6007636179549301   -0.0000176441643755 Nb
   0.5988062553717390    0.4000420844481078    0.6010653880189228 Nb
   0.6007521492425830    0.5982372380781478    0.6006595887387037 Nb
   0.6023873949593103    0.6038766439727247    0.8013588065585584 Nb
   0.5963139583000100    0.0003181442808744    0.6047857233898933 Nb
   0.0020035970241842    0.4054177872735065    0.5979730371393515 Ta
   0.0043678427180489    0.4046444320971451    0.2002974281977852 Ta
  -0.0009875569342789    0.3988436202174248    0.0006147327430715 Ta
   0.0031066481480569    0.6052527842829115    0.7975196253434226 Ta
   0.5984188298551713    0.3949630027195908    0.3970048093307302 Ta
  -0.0020670790003958    0.7969552455050982    0.1988782168761414 Ta
   0.7965130887583899    0.8025740321228294    0.4009151915937239 Ta
   0.0037964420835150    0.8106391432474492    0.7980907129870176 Ta
   0.8016851578659699    0.8048818081940000    0.0002514461931899 Ta
   0.7916964006938942    0.1896711927092909   -0.0022443187506087 Ta
   0.6048856980620302    0.1986948776053936    0.3962219157594275 Ta
  -0.0012569982227653    0.0025329996403460    0.4043721973018279 Ta
   0.0036515576425581    0.3935697603777836    0.7991513669085879 Ta
   0.4013994298586979    0.4015284493522531    0.3974372323137801 Ta
   0.8086578542319344    0.0007152880834538    0.7969702695327423 Ta
   0.7982446518960142    0.3954246882460916    0.0006382445273834 Ta
   0.7970229552030507   -0.0024816894312750    0.6005356328949186 Ta
   0.3965555574588891    0.7991945349956278    0.1988393023132198 Ta
   0.2021626177111656    0.6017726576598798    0.0010932789477104 Ta
   0.3967487961611270    0.1926492652269519    0.8040635045061444 Ta
   0.5953077997492813   -0.0069901649771500    0.4000807151073297 Ta
   0.2002675655098577    0.6040587128642175    0.4036414134581017 Ta
   0.2047951018810974    0.8033280679050960    0.1989206077850816 Ta
   0.8017515182353765    0.4074739969419237    0.6016419033669719 Ta
   0.4008455095180808    0.6062144380334437    0.7992753364273043 Ta
   0.8019996293041511    0.3971088927348945    0.3977252670200374 Ti
   0.4020353453240127    0.1991442977664480    0.3999160967654806 Ti
   0.6012726284189368    0.8032588922187665    0.1997116821110304 Ti
   0.3972496047800523    0.1960235385731835    0.0007802173248687 Ti
   0.6020963848614613    0.8011612023907595    0.6011383100795206 Ti
   0.6015223326724501    0.8016468307551700    0.7992966175294798 Ti
   0.0021988463859902    0.0019342630204878    0.5990096980303523 Ti
   0.0000261108040677    0.0017041714542628    0.2003116843992081 Ti
   0.0020692498125409    0.2003009864327678    0.5985623770443368 Ti
   0.3970184305320512   -0.0029841200653604    0.8002851547418529 Ti
   0.5990397039725983   -0.0022065188895100    0.7987526523098383 Ti
   0.4020910315525973   -0.0008439957669572    0.4002571421760321 Ti
   0.7999769255711708    0.1978495390368535    0.2007200568568460 Ti
   0.2011874362966646    0.8019035393293386    0.6015487455650741 Ti
   0.8003245748872246    0.6018049596190217   -0.0000901464850340 Ti
   0.2035272755773351    0.8028472915574599   -0.0019939117103750 Ti
  -0.0011843266498628    0.7967583009899972    0.6003180829494735 Ti
   0.1980604168725525    0.5998856106130906    0.6005754283144781 Ti
   0.2011860283540500    0.0002642454270267    0.1999878489472603 Ti
   0.4022255109596534    0.8074398355195473   -0.0032925700190314 Ti
   0.2027632128126110    0.0019844959613641    0.5998099461525803 Ti
   0.5992463456360312    0.1986349434420606    0.8002195895392794 Ti
   0.5997529907147452    0.1960200132052185    0.1990485919505501 Ti
   0.3973566624857996    0.6010863718976643    0.2008694586398943 Ti
   0.4017879717944483    0.6070810282566945    0.3989524672587302 Ti
