Mn31 V31 Fe32 Co32 Cl252
1.0
  10.7947091863825975  -18.6895343455541578    0.0002458217166744
  12.5881525968202297   21.8011802391471257   -0.0006432101060919
  -0.0002559391170300   -0.0003877900105052   18.2467271808067686
Cl Co Fe Mn V
252 32 32 31 31
direct
   0.3306895605700142    0.8538619873785126    0.2587306992377035 Cl
   0.1140053435647235    0.6226724665183355    0.5907726161871776 Cl
   0.1127813527438161    0.4741256341031360    0.5913550938325655 Cl
   0.1098852721296894    0.3311953671151353    0.5957836594871113 Cl
   0.1111023156021278    0.1908197181913424    0.5931706371747089 Cl
   0.1125384228091424    0.0520844514111900    0.5912832249341589 Cl
   0.8865399579059579    0.9496399682799909    0.4080660420432982 Cl
   0.8871117070888348    0.8071473989619502    0.4086727911933231 Cl
   0.8870470576461856    0.6660634434597273    0.4066216491845018 Cl
   0.8887808247767170    0.5251644456741539    0.4076674985711062 Cl
   0.8865592418139796    0.3837594164333573    0.4084822823110512 Cl
   0.8894427185591858    0.2394553920917056    0.4116766378856861 Cl
   0.8866117012563132    0.0897577387961495    0.4078688488208457 Cl
   0.7213973780593023    0.9492075570150911    0.4074702613875335 Cl
   0.7226690592072165    0.8082031991163873    0.4065633548931579 Cl
   0.7230885394847696    0.6674186689377033    0.4075785789542813 Cl
   0.7236927341829608    0.5252839177023372    0.4076638055279855 Cl
   0.7228138747199829    0.3828644881404598    0.4082627161641064 Cl
   0.7208868750592669    0.2417228045526601    0.4075455043800011 Cl
   0.7238964414293092    0.0926480035653709    0.4094141326898814 Cl
   0.1125774168583056    0.7621691843574964    0.5923476303636150 Cl
   0.1097298712566851    0.9036204102503379    0.5889387416919614 Cl
   0.2794517346568713    0.0516968677315472    0.5929016507338488 Cl
   0.2773815437013532    0.1908517724613733    0.5937557387319002 Cl
   0.7783855364698682    0.0466504058607902    0.5930168405829065 Cl
   0.6111955090364238    0.9042621222165320    0.5920478485357955 Cl
   0.6110909190218228    0.7636692706880229    0.5915293547802611 Cl
   0.6056685256735914    0.6177709737673110    0.5905518534535379 Cl
   0.6119824226135693    0.4780868807592109    0.5914982402025144 Cl
   0.6134738317239929    0.3335741671890286    0.5906595390980093 Cl
   0.6088219980311431    0.1901655417254781    0.5911830862522260 Cl
   0.6125384439436624    0.0451594814993495    0.5915402599744101 Cl
   0.4452025681423020    0.9049383811094217    0.5928798362906061 Cl
   0.5539016235896875    0.9472239279729698    0.4093547113051396 Cl
   0.4444555670084921    0.7630589490046542    0.5915505884299289 Cl
   0.4438556310256472    0.4738714389519736    0.5910826293474285 Cl
   0.4398014407222360    0.3305825038474505    0.5905354248937249 Cl
   0.4421647832692980    0.1897703701993166    0.5941316255241310 Cl
   0.4394589314154986    0.0456443760146642    0.5936686408000491 Cl
   0.2801118392199680    0.9027595730656693    0.5919876545194445 Cl
   0.2798746410816699    0.7629347762414651    0.5923049967377548 Cl
   0.2786001849124097    0.6191515959141102    0.5917439211439611 Cl
   0.2737866146853838    0.4737317599165069    0.5914378978344871 Cl
   0.2746980283072069    0.3319254040974041    0.5924725798868298 Cl
   0.4442224266086983    0.6227308720423320    0.5900602628091474 Cl
   0.7804509108502738    0.1885386133154159    0.5922924519971566 Cl
   0.5563666179241925    0.8077190312399444    0.4088639563954227 Cl
   0.5612893489928011    0.5263976934875946    0.4091736443326990 Cl
   0.8292308651115329    0.8542420243322114    0.2598160070412135 Cl
   0.8321933985288742    0.7134576611268416    0.2597125537522047 Cl
   0.8320808444053802    0.5719916020660520    0.2598539738811980 Cl
   0.8332923144193470    0.4302282012615933    0.2604346686014273 Cl
   0.8326035297535277    0.2892006027574214    0.2588068727750799 Cl
   0.8307759258226320    0.1389814226578283    0.2583996397652619 Cl
   0.8321755457535336   -0.0033468469915353    0.2601242354462739 Cl
   0.6664098181299177    0.8544864922485205    0.2631382297314524 Cl
   0.6679532464284231    0.7145246452821317    0.2617993818656096 Cl
   0.6675038503594302    0.5726468194395138    0.2601895701526075 Cl
   0.6672931732374653    0.4301268399542360    0.2598349181775233 Cl
   0.6678470250720248    0.2885170375646491    0.2596132274008968 Cl
   0.6639171730983608    0.1436205382100275    0.2569531497776814 Cl
   0.6681894734964349   -0.0044691402997787    0.2592504822203320 Cl
   0.5009809895602063    0.8544347129486739    0.2594207172256227 Cl
   0.5020407155539994    0.7164873916121717    0.2605174891818198 Cl
   0.5044836935599291    0.5763276853851944    0.2583690063052174 Cl
   0.5039946083566793    0.4290249435204387    0.2592640629036914 Cl
   0.5020072030241869    0.2882642209105546    0.2582250397556888 Cl
   0.0515487049140718    0.0900273893541732    0.4084880566603280 Cl
   0.0585029349649935    0.2420433002815558    0.4109096261087510 Cl
   0.0614311038942561    0.3844456443005774    0.4094698311078806 Cl
   0.0534641191486821    0.5214646808904692    0.4090134444073406 Cl
   0.5578935003647614    0.3834373066435632    0.4078127477092550 Cl
   0.5571252425883665    0.2408359481408242    0.4072893671489092 Cl
   0.5577025048851558    0.0974697931163346    0.4093076676011826 Cl
   0.3854517403089683    0.9484082375828651    0.4079023142797204 Cl
   0.3872488980704215    0.8064690012047138    0.4072326328466373 Cl
   0.3889989172363687    0.6680438390682398    0.4084299536620327 Cl
   0.3866574746825553    0.5248292710503948    0.4102698739998287 Cl
   0.3898162794824142    0.3798328546778400    0.4075523946176284 Cl
   0.3949247230586331    0.2419350105149672    0.4080423496844695 Cl
   0.5587459670791260    0.6672218626142153    0.4099932306246117 Cl
   0.3897901214814615    0.0973186318633739    0.4100831231365969 Cl
   0.2222302097281839    0.8078719654854836    0.4079694874228373 Cl
   0.2258724242379932    0.6676189009086594    0.4090845539885173 Cl
   0.2229216956351466    0.5249560086721463    0.4085797636982483 Cl
   0.2248218693915216    0.3835270264601856    0.4066769754968537 Cl
   0.2252771143803534    0.2420255207602262    0.4102743049216606 Cl
   0.2165825045450712    0.0921790519201984    0.4091801321982434 Cl
   0.0550133935394864    0.9502910698135093    0.4067950375961961 Cl
   0.0516775532549693    0.8080248711198719    0.4083874754845498 Cl
   0.0507168445775151    0.6661517582288802    0.4086825836797978 Cl
   0.2180232256825443    0.9463219662521908    0.4064695412104243 Cl
   0.7789357276110865    0.3352590567865457    0.5921472242512429 Cl
   0.7779306112056155    0.4763220541843884    0.5940570690561573 Cl
   0.7764419106838268    0.6169754009125468    0.5901237072071395 Cl
   0.3902377849109698    0.2361959567638241    0.9253170368553610 Cl
   0.3890247319279344    0.0944689593590161    0.9240190116131612 Cl
   0.2251962471439358    0.9518815631270144    0.9240308010791783 Cl
   0.2250329361384061    0.8098742266848264    0.9262222167050495 Cl
   0.2221059600092213    0.6662092523739186    0.9265417042705484 Cl
   0.2178935834924575    0.5218407834358558    0.9247754331714408 Cl
   0.2204917728086764    0.3814221054877666    0.9243358010941374 Cl
   0.2194243571978000    0.2396489424113308    0.9224369167302107 Cl
   0.2260306053797091    0.0966352885834208    0.9227141627820449 Cl
   0.0526900083144515    0.9530832226000802    0.9253292233617687 Cl
   0.0587446826940253    0.8132605343286161    0.9243273620087382 Cl
   0.0623387712252930    0.6697021576494301    0.9234717504032998 Cl
   0.0575381319003361    0.5220946309896261    0.9247595308601824 Cl
   0.0545702689464892    0.3790523003019259    0.9231754470104880 Cl
   0.0530454984364198    0.2369597252295972    0.9239720806969604 Cl
   0.0498472754480428    0.0946248735950934    0.9251861017823334 Cl
   0.8323782847847040    0.8579800646158726    0.7386832700481062 Cl
   0.8339331777318717    0.7180837125910761    0.7416761798374035 Cl
   0.8312436181535733    0.5679824644565802    0.7397698240210491 Cl
   0.3891663781230429    0.3830898865758507    0.9242478872318689 Cl
   0.3894168410313034    0.5225181494518634    0.9254420738320698 Cl
   0.3858494034919468    0.6673861718984105    0.9233039272298409 Cl
   0.3888999663113697    0.8112659183299535    0.9266526463658883 Cl
   0.8888495564343287    0.6640254888332082    0.9242043811151723 Cl
   0.8858201686527662    0.5210893908913741    0.9252686938727422 Cl
   0.8895168415076113    0.3797728286778356    0.9263068884173541 Cl
   0.8885160565948796    0.2370535295811925    0.9249075729900328 Cl
   0.8888506135194978    0.0967690214377627    0.9258305250008295 Cl
   0.7254342445295591    0.9575347400596620    0.9249526441290752 Cl
   0.7268979585587511    0.8134985582776125    0.9250080355394921 Cl
   0.7199694677990602    0.6644107165817187    0.9243437796562516 Cl
   0.7238135383622420    0.5255880676083661    0.9251983847930754 Cl
   0.8335531529679844    0.4293577069389284    0.7392452819080467 Cl
   0.7262160791307314    0.3812688752675923    0.9227135861876620 Cl
   0.7225207135403348    0.0952326737899455    0.9257874104322763 Cl
   0.5561615167882080    0.9539831613350963    0.9268473329816665 Cl
   0.5541096782027062    0.8126782746125424    0.9242492675373750 Cl
   0.5514214247103374    0.6630211296720223    0.9250844145535433 Cl
   0.5549432645902579    0.5239974116219257    0.9263370381774284 Cl
   0.5522371918849697    0.3782654596074322    0.9239658091551116 Cl
   0.5531619599540039    0.2366938416994297    0.9240833078441654 Cl
   0.5579059344675142    0.0940410073600117    0.9257038524765663 Cl
   0.3915090541798141    0.9524726393042994    0.9247903596986538 Cl
   0.7254638692661483    0.2353566036290272    0.9243166172517024 Cl
   0.8372551363062127    0.2855045787235037    0.7430566495720962 Cl
   0.8347789402394832    0.1427077673261735    0.7425701558669888 Cl
   0.8312768052069096   -0.0007924775176321    0.7424316253549837 Cl
   0.1673066769595948    0.4285738289589146    0.7385210976565532 Cl
   0.1659920423678859    0.2853399038596154    0.7399985913054271 Cl
   0.1654173899470399    0.1437063736794993    0.7397751661982644 Cl
   0.1691988518342013    0.0036738239633263    0.7419647305233186 Cl
  -0.0020634771478802    0.8554869840159445    0.7399203969780984 Cl
   0.0038991361616036    0.7155175944523605    0.7396181671897668 Cl
  -0.0012014098953654    0.5736965383970555    0.7405926993877675 Cl
   0.0011104662222680    0.4270483826954103    0.7428815005419764 Cl
   0.0013038769672293    0.2850036126064235    0.7396213097829685 Cl
   0.1713215131375592    0.5732404638478320    0.7406607742580800 Cl
  -0.0002476074815670    0.1429088305997098    0.7421950540047656 Cl
   0.9406196830383675    0.9049457482194752    0.5916007956759164 Cl
   0.9446181152769204    0.7658794617556601    0.5912600553962131 Cl
   0.9479650507199530    0.6179146371536149    0.5910229901202553 Cl
   0.9426119076748222    0.4755118451615109    0.5917772657965317 Cl
   0.9459469375327529    0.3307463526999273    0.5943808406294773 Cl
   0.9455468383968296    0.1904790839887839    0.5946670476651049 Cl
   0.9448409581495441    0.0487807237272242    0.5932627051815610 Cl
   0.7771693488505699    0.9055026204331449    0.5921513017761878 Cl
   0.7786091530688555    0.7658233395820383    0.5916027057957460 Cl
  -0.0025179343366298    0.0021404712179498    0.7412557588307612 Cl
   0.5023081849625458    0.1462168904742440    0.2569991803535882 Cl
   0.1679120611349720    0.7146215685619175    0.7397382853573017 Cl
   0.3379021284468581    0.0019507019588632    0.7409186345130477 Cl
   0.6652320675694101    0.8569041248414420    0.7392616680304114 Cl
   0.6652131549914486    0.7178970575717667    0.7397321770341173 Cl
   0.6644241669134100    0.5684954442726905    0.7405968163516460 Cl
   0.6692290558744359    0.4295714208182160    0.7401251950672642 Cl
   0.6666857755632352    0.2883982995981264    0.7424347138208154 Cl
   0.6679547679344905    0.1403010489003851    0.7449842077014833 Cl
   0.6655679192446986   -0.0022618826066880    0.7416633690123957 Cl
   0.4992149112139534    0.8553452831624491    0.7388721191742424 Cl
   0.4981790314934958    0.7152859402340975    0.7368732440207247 Cl
   0.1664921973710839    0.8544065222188584    0.7405805479573104 Cl
   0.5024798912690204    0.5741023831629515    0.7416300093239799 Cl
   0.4963380557068879    0.2834218500372784    0.7414190826412810 Cl
   0.4970149924127355    0.1428780482435203    0.7421086858749087 Cl
   0.4973441266757426   -0.0049257469023358    0.7420845611136451 Cl
   0.3329964504482327    0.8560826363298669    0.7392828094941165 Cl
   0.3351426443323092    0.7160442554045638    0.7386203139117021 Cl
   0.3328553192935533    0.5744832898657304    0.7392665006579003 Cl
   0.3302468512383350    0.4263143788411566    0.7428075459850059 Cl
   0.3313924417938868    0.2851522736958900    0.7397064951876868 Cl
   0.3327406419613110    0.1432200789111653    0.7392822294738333 Cl
   0.4966113301979999    0.4295952531708866    0.7418514741780518 Cl
   0.4981463877450942   -0.0041039969026717    0.2557953622487170 Cl
   0.8888536770322490    0.9543535995368052    0.9277303487349101 Cl
   0.3348763556849377    0.7141971041572684    0.2622743211930272 Cl
   0.6089632666792064    0.9086653567982322    0.0748758270304370 Cl
   0.6112288100036315    0.7638550428473664    0.0787689049562483 Cl
   0.6079615461340970    0.6152724953728076    0.0752351647979792 Cl
   0.6087312250126389    0.4761014031092193    0.0756473616993964 Cl
   0.6087901415757674    0.3307597416534533    0.0765517235038386 Cl
   0.6110200584028781    0.1857639852386886    0.0748336349362968 Cl
   0.6111394887077238    0.0481008296305107    0.0718200540285343 Cl
   0.4449022391471470    0.9064898092531332    0.0731447487788187 Cl
   0.4419606108158859    0.7651178144538242    0.0759408641472572 Cl
   0.4421092651528701    0.4754902316456744    0.0743980315625443 Cl
   0.4466285546359352    0.3328421253078117    0.0752960904790237 Cl
   0.4446261008136616    0.1900249050214364    0.0723616042319387 Cl
   0.4458549606729169    0.0462420927555952    0.0737243170295910 Cl
   0.7780144013168431    0.0495288012438419    0.0730082327320471 Cl
   0.2804529395534240    0.9050880589308603    0.0742848521062131 Cl
   0.2748545898963635    0.6203097585408537    0.0754335139359663 Cl
   0.2742614061649356    0.4731296192264512    0.0762229356071486 Cl
   0.2746470262114785    0.3334185522321571    0.0767146839528907 Cl
   0.2797922109957790    0.1880142119709233    0.0748221217197284 Cl
   0.2819976154748278    0.0485921561445275    0.0750332787805421 Cl
   0.1118055651768974    0.9029433763922133    0.0771472217882973 Cl
   0.1173725355036700    0.7631642917808058    0.0749510100531479 Cl
   0.1157916067029356    0.6213847569578304    0.0735525318541961 Cl
   0.1109082356323906    0.4761125665280658    0.0731871895134223 Cl
   0.1082719961694394    0.3328902099070765    0.0736602604622257 Cl
   0.1066812250586493    0.1921814597659517    0.0740411642456760 Cl
   0.1074913408703211    0.0465711423726395    0.0762738856202557 Cl
   0.8902138402721832    0.8132003594573197    0.9260975221893066 Cl
   0.2790167637424418    0.7643116096330010    0.0742483793572151 Cl
   0.7779352691036702    0.1903431351658723    0.0724000893805107 Cl
   0.4445032842165190    0.6167736920200527    0.0765171388728385 Cl
   0.7820915917556197    0.4756977381836813    0.0738626506502237 Cl
   0.3337789292227887    0.5720138585793225    0.2597501594681950 Cl
   0.3322081185406963    0.4301471689127128    0.2597644857387461 Cl
   0.3376949450583813    0.2911428831462434    0.2597485014620909 Cl
   0.7826211844254309    0.3336307447407174    0.0735566354615242 Cl
   0.3301427620913692   -0.0054969813499562    0.2560588346143878 Cl
   0.1652326847359321    0.8564038351077747    0.2595900217761249 Cl
   0.1680873421962717    0.7152899594811368    0.2574823789088921 Cl
   0.1703601937630704    0.5710211979408811    0.2593613528575557 Cl
   0.1681649584710072    0.4305956004750858    0.2622038149290444 Cl
   0.1697775034522919    0.2896607639360628    0.2597149761723886 Cl
   0.1646269472810609    0.1385833611555743    0.2574165363028754 Cl
   0.1601792285237064   -0.0046678913121899    0.2594512269745943 Cl
  -0.0025003078079644    0.8535004701620627    0.2586973700000273 Cl
  -0.0041761529423770    0.7120579096563175    0.2602646404789349 Cl
  -0.0055877849615041    0.5706704248222553    0.2591633591255223 Cl
   0.3374502914278428    0.1444806485106206    0.2557484200345330 Cl
   0.0040501560939261    0.2878797445832246    0.2588350067026294 Cl
   0.0029609266703509    0.4340250864960820    0.2590980349464735 Cl
   0.7833755550658138    0.9091933836923825    0.0750828245643189 Cl
   0.9445364461026610    0.0501577846580156    0.0718166179467151 Cl
   0.9430058386437026    0.1901563236912774    0.0727494695519717 Cl
   0.9442634556928455    0.3322631708460758    0.0734787377810473 Cl
   0.9439816105253596    0.4722218523269053    0.0744151589493858 Cl
   0.7809683573091216    0.7668598734999280    0.0769754841719211 Cl
   0.9470143689262609    0.7654836424753069    0.0768590232434508 Cl
   0.9451339193433660    0.9069448028719241    0.0732588216374204 Cl
   0.7760231269263075    0.6153432531694616    0.0753224728569482 Cl
  -0.0026541452448030   -0.0030343660979991    0.2601418480748549 Cl
  -0.0025534458282626    0.1374664316123849    0.2576039692934381 Cl
   0.9424977581823283    0.6176787319493883    0.0757114781204577 Cl
   0.7781757544983199    0.3356981805258387    0.3336038248883974 Co
   0.7761069462127537    0.6182538263850388    0.3337277147172612 Co
   0.9420734024446401    0.0451676350143889    0.3335187952659507 Co
   0.9432494450529337    0.4759556425832951    0.3341081616620452 Co
   0.0558087324987103    0.0956426373582116    0.6670216778930947 Co
   0.0588620608619410    0.6687239158271172    0.6657281378439461 Co
   0.2211482258850431    0.0970926126703103    0.6669277590094171 Co
   0.2222544745911124    0.2367465229365080    0.6664855771991482 Co
   0.7774406582425957    0.0461850189391697    0.3336820066538198 Co
   0.9417388437380778    0.7599704254654096    0.3338906840796119 Co
   0.6114972499976327    0.9041339457077767    0.3342974173892492 Co
   0.8355269982677249    0.2846780766360071   -0.0010958668050762 Co
   0.6149921077320333    0.4790205276421878    0.3339922781781434 Co
   0.1096009995356335    0.4763670486312350    0.3345080127034201 Co
   0.1106269783662102    0.3341711099679491    0.3343536334751475 Co
   0.8337159885841199    0.5714919142251332    0.0003552488370734 Co
   0.8329689703678171    0.1428047069939315   -0.0007100875630457 Co
   0.8331727540365877    0.0027451970173530    0.0001706356596798 Co
   0.6682185205607174    0.0007791611507046   -0.0003029246584301 Co
   0.4998225161573981    0.8585138965593755    0.0000000959306421 Co
   0.3350444085772017    0.8582329740003288   -0.0003404106092336 Co
   0.1664924722957760    0.5705772831483205   -0.0002814191727375 Co
   0.2232248464902382    0.5249593171548973    0.6656817628470340 Co
   0.6127316222187045    0.6184235400059224    0.3344308244541939 Co
   0.2235242530404888    0.8092868829328452    0.6661842180629008 Co
  -0.0000172946968157    0.0015311879256231    0.0000160824041582 Co
   0.3868089112382971    0.2384583701487410    0.6668994803029941 Co
   0.7207738471912621    0.5241610727559891    0.6656455916337913 Co
   0.3895348674129819    0.8112450553385490    0.6656102647963321 Co
   0.3885786888899781    0.9500841297504781    0.6668786850449753 Co
   0.7205975691743133    0.8112074539171158    0.6654196397304804 Co
   0.5559975725538440    0.8108748918220393    0.6651911837377495 Co
   0.7210786131625875    0.0913325410617561    0.6678861345071712 Fe
   0.6142875599295400    0.3359174307293211    0.3336365356362205 Fe
   0.6120368781575111    0.1929925480648340    0.3330688594404404 Fe
   0.4466533456045068    0.9039311724216265    0.3335572439151593 Fe
   0.4479803812669020    0.6203194352417758    0.3359337936728329 Fe
   0.1642649544707419    0.4272818709767114   -0.0003999637478832 Fe
   0.4482837088308108    0.1924533509777469    0.3330227858932901 Fe
   0.8872838443858735    0.9544675867102614    0.6668026691683978 Fe
   0.1650416588132459    0.2876987068749322   -0.0009122126803754 Fe
   0.3344365916840997   -0.0019181599036985   -0.0009408468993313 Fe
   0.1068250781778632    0.7596522655611880    0.3331926403367847 Fe
   0.3297101386720505    0.4270021935750078   -0.0000291364200161 Fe
   0.7206897707908695    0.9512494182407210    0.6666634007643844 Fe
   0.3336432695553928    0.7162156576967995   -0.0002207880777001 Fe
   0.8873660094886392    0.0922296481126853    0.6678379289358626 Fe
   0.8899475082438616    0.3808363273086126    0.6672109173584514 Fe
   0.6665425633284369    0.5702246951377540    0.0007894460647461 Fe
   0.5003747388089184    0.1409322849726323   -0.0009872280897390 Fe
   0.1691674589761759    0.8584526418962497   -0.0000838623953257 Fe
   0.5551220301000003    0.9499535230415637    0.6666421546507539 Fe
   0.4988703663817725    0.4286577171306765    0.0000059150185723 Fe
   0.2233276567522726    0.6689194210078492    0.6657467652159921 Fe
   0.0023650639053196    0.8586412835544827    0.0001502258639116 Fe
   0.7765316358049029    0.4762785649964170    0.3340274294329254 Fe
  -0.0015820617772176    0.2855807155304587   -0.0012197971383208 Fe
   0.0576666732793759    0.8098004888538851    0.6648367532555108 Fe
   0.5558200438687870    0.6688390457815014    0.6646759746884952 Fe
   0.0016926349043948    0.4264720060128545   -0.0008497137290828 Fe
   0.3874032123392067    0.3792005097603878    0.6663044174635075 Fe
   0.5539730671687744    0.2378459618356388    0.6668442739857618 Fe
   0.5541808143381253    0.5234986743349272    0.6663529598140416 Fe
   0.9415038195567607    0.9018248269775668    0.3334758581003641 Fe
   0.1094078009335167    0.1899699972766836    0.3342483819454011 Mn
   0.3296194650541562    0.5703789318971646    0.0005615020606310 Mn
   0.8337063803664735    0.7135323420565282    0.0009860102889321 Mn
   0.7769147772247369    0.1909968025149539    0.3334262923236456 Mn
   0.3898963844248696    0.5245688642971253    0.6660057722942830 Mn
   0.5544211136984900    0.0922066980566771    0.6677883911994719 Mn
   0.6669291359860355    0.8610266731809439    0.0008180903892535 Mn
   0.6662822913138036    0.7149724485776100    0.0008016767902380 Mn
   0.6676114106457959    0.4293839869212789   -0.0005168251860336 Mn
   0.6682744931887146    0.2836548139541887   -0.0002017329060631 Mn
   0.2226635584055794    0.9515593765498795    0.6661162388672407 Mn
   0.8895349419362896    0.6672017930023647    0.6659777047242263 Mn
   0.4982596045157988    0.7161510010583645    0.0005402713064947 Mn
   0.0567870367722513    0.9555305562079396    0.6662556098207806 Mn
   0.7191546088373282    0.6659885328483485    0.6655723893390881 Mn
   0.3316925670468306    0.2864119646974708   -0.0003865412723022 Mn
   0.0585389893933825    0.5264944076256491    0.6667000992591813 Mn
   0.7213341392152227    0.2364335898583589    0.6679697523167207 Mn
   0.1659369348265385   -0.0011688097169616    0.0000117627661159 Mn
   0.1647005855929496    0.1426954246517150   -0.0009869940234277 Mn
   0.0017626491409795    0.7156254313210342    0.0001699793200188 Mn
   0.9437528468710836    0.1893420255272689    0.3344726808177301 Mn
   0.6119087358700345    0.0459308302837457    0.3332859129250268 Mn
   0.9460686001205325    0.3366159494873306    0.3342120391456652 Mn
   0.1081060015332844    0.6166640535310166    0.3338998390090158 Mn
   0.2775000886333744    0.0470579049630845    0.3324379225970349 Mn
   0.0015310083736148    0.5713307235066369   -0.0008184706325058 Mn
   0.5527333436899173    0.3807379118329559    0.6660038932689613 Mn
   0.4460153089303039    0.0483587297811225    0.3328176900289183 Mn
   0.2793259220555463    0.1907523962367150    0.3333056946178296 Mn
   0.4495644488496316    0.4799708214623118    0.3343616665819679 Mn
   0.8884175707727944    0.8116562844553663    0.6661335030589777 V
  -0.0023098130432793    0.1443107473145742   -0.0009180315323526 V
   0.4993752226841658   -0.0011656729484088   -0.0007824658586862 V
   0.1711697568999195    0.7158912212135784   -0.0009619638688901 V
   0.3334754982560669    0.1400007554162320   -0.0013185520531257 V
   0.5014490541810172    0.2862222423332585   -0.0002388499738917 V
   0.3876550522357997    0.0956059294139683    0.6671002791969581 V
   0.8904477821167612    0.5254323090936377    0.6655992518370261 V
   0.3885147384986564    0.6693291459289640    0.6642695371967714 V
   0.0563322924676151    0.3824057895231956    0.6670744512660370 V
   0.0560632181191800    0.2343033157515349    0.6678963464954351 V
   0.9396781039700324    0.6171780065771320    0.3336753912950586 V
   0.7783966244777373    0.9054378179330084    0.3345663334195159 V
   0.7793969170198081    0.7595816453150843    0.3342011004417254 V
   0.6110222671252664    0.7592385062119054    0.3354188620702294 V
   0.7209179691332565    0.3805586599382106    0.6663218810444004 V
   0.4478678294674315    0.7636530209171181    0.3351680212753592 V
   0.4507681184836383    0.3357689687545299    0.3339048393219065 V
   0.2775848383321630    0.9026865920225244    0.3330332385188078 V
   0.2754021456312556    0.7607969497669571    0.3332949568179226 V
   0.2775292357742362    0.6168627792307178    0.3343902521609714 V
   0.2777054881369017    0.4778542716296310    0.3344272624164527 V
   0.2778897339938179    0.3343461564136316    0.3336576919979444 V
   0.1053482270043636    0.8997566591120478    0.3329824303183708 V
   0.1070198342316469    0.0459785397795414    0.3333145318679591 V
   0.8357778476016972    0.8606985746094513    0.0003428467128239 V
   0.8359709853838589    0.4279080857760735   -0.0005197730124138 V
   0.8865933154630575    0.2348227380705645    0.6681182912038144 V
   0.6697015789474209    0.1422495947881829   -0.0007575673238154 V
   0.4981877182057395    0.5690694555104634    0.0009205554544043 V
   0.2243631020041714    0.3806941103338467    0.6667753173692621 V
