Yb18 Ce36 Y18 Hf36 Zr36 O252
1.0
  15.9500987669198331   -0.0116229769622299    0.0090836395696516
  -0.0116440850769937   15.9054587139556425    0.0062678557387033
   0.0120827669047115    0.0083438018464095   21.2219645390801865
Ce Hf O Y Yb Zr
36 36 252 18 18 36
direct
   0.1722215788168777    0.8277324099793145   -0.0072181435479668 Ce
   0.5070886801642392    0.6699654060336682    0.1266046765373983 Ce
   0.5128258475295329    0.3272428163943402    0.8715355991952134 Ce
   0.5036272291790873    0.3327996013426476    0.3857698599779351 Ce
   0.6560642256523355    0.3350822266326987    0.2519830485208469 Ce
   0.5066254332924769    0.0011950031034890    0.1118437980635729 Ce
   0.1645279441822765    0.3224779200662232    0.8782994560615993 Ce
   0.1657395931132836    0.3342286728719632    0.1201644441815479 Ce
   0.1487181111146048    0.0118258113624118    0.3762878713633134 Ce
   0.3401898202307451    0.4985301117169526    0.6348286328876790 Ce
   0.0045475172108503    0.1603193690871583    0.1254677417784607 Ce
   0.6768580064770028    0.8405941753016556    0.1228243568585092 Ce
   0.0012375621979411    0.5011846436374312    0.1232910213000007 Ce
   0.6779852917472801    0.4915418240877272    0.8773650795080273 Ce
   0.6536228700698751    0.1741469130917918    0.1196918701030510 Ce
   0.3363656196411877    0.8334154735605497    0.8636265869329405 Ce
   0.3402098991929977    0.8353048486663256    0.3681828410250603 Ce
   0.0004915780167907    0.8309097353157694    0.8771316224521847 Ce
   0.3363899100246484    0.8388203266396055    0.1145246825501872 Ce
   0.0050833264132166    0.1658407451010340    0.6197760715283666 Ce
   0.3221204975267784    0.6739812584199424    0.5024283299322720 Ce
   0.5117490419796826    0.6673573149906145    0.3799576129968228 Ce
   0.8287778799492082   -0.0021128023539025    0.8709657926014416 Ce
  -0.0041056201493022    0.3253546180279173   -0.0035999163677727 Ce
   0.8306255997121408    0.1638713959942272    0.0004755621926102 Ce
   0.5016947468188488    0.8427223268087554    0.7475945562383969 Ce
   0.4998044487467851    0.8473125445560505    0.2428849782842990 Ce
   0.5226215130118937    0.5182520806671039    0.7413834905032023 Ce
   0.5097540011784872    0.4901601733323207    0.5126867088629605 Ce
  -0.0186056971289847    0.6550604808913493    0.7539001666584463 Ce
   0.1656043854849858    0.8475609131694621    0.7513599845209431 Ce
   0.3296081210929588    0.4973606051777117    0.3681508815930398 Ce
   0.3381461669527501    0.3233945568290265    0.7455874476753844 Ce
   0.8167267073756502    0.6666168103496448    0.6309628046297634 Ce
   0.3324167397150530    0.3276743176835478    0.2567823518099946 Ce
   0.8393263850910743    0.3231449943251189    0.1315936231668278 Ce
   0.8339785008617743    0.8284154621095372    0.7550398146705275 Hf
   0.8525470333299291    0.4745745297072398    0.7511203300948187 Hf
   0.8270352509274507    0.1791846076794308    0.5102957032191443 Hf
   0.8395136227011928   -0.0001250709139680    0.1275903185728418 Hf
   0.4976170867140972    0.6685468077123985    0.6141675213358283 Hf
   0.6390951009947862    0.1634117347405771    0.3635278594036311 Hf
   0.1694808783253457    0.8541451533048806    0.2477869468875591 Hf
   0.1646643825813902    0.4893001465637947   -0.0089288182487730 Hf
   0.6794625007558068    0.8356322317582170    0.3752376307382668 Hf
   0.8249528768378944    0.0125797430165668    0.3752681331745022 Hf
   0.1837972190667773    0.0062084970790349    0.1272511954818453 Hf
   0.1791015726598076    0.1709564506031032    0.5162762042846210 Hf
   0.5101218894192352    0.0004370470862650    0.8656485772781015 Hf
   0.6558168360771475    0.4933661568180568    0.1290613794705602 Hf
   0.5143854805727172    0.5066104950259664    0.2561031778940719 Hf
   0.1663567382740050    0.0118369623877697    0.8724184737586120 Hf
   0.6542106265146844   -0.0080506079946258   -0.0175692346898555 Hf
   0.3364402725431255    0.3318841060918516   -0.0135669753375580 Hf
  -0.0030171123873556    0.3223412105654201    0.7413096113797639 Hf
   0.6612945351886467    0.3203005400219438   -0.0050626269977685 Hf
  -0.0058962921533586    0.3392546648508463    0.2554963896855509 Hf
   0.3523138239590006   -0.0038399693598902   -0.0234528070760922 Hf
   0.6761975196457701    0.0070861562981910    0.7415485557153824 Hf
   0.6648931625165403    0.6920434638628263    0.7476176577881980 Hf
   0.3240183549243723    0.0217924946839643    0.2583127660109237 Hf
  -0.0086178892103740    0.1864573583047815    0.3716633715060143 Hf
  -0.0130750481298348    0.1730715902952821    0.8687362954717617 Hf
   0.3577622312180684    0.6628545874387158    0.2549274937562278 Hf
   0.6738877630846333    0.3416944571850058    0.7480824947708092 Hf
   0.3223540272525141    0.1604575007582551    0.6365657529647364 Hf
   0.3217865767990695    0.3338944268521679    0.5057769551700050 Hf
   0.3332546275374014    0.1594832056500027    0.8748700153602971 Hf
  -0.0002889927704754    0.8350851515969850    0.3665692816003044 Hf
   0.3289792103156267    0.0264694882249007    0.5112158958544094 Hf
   0.3535324234366468    0.1588171238692689    0.1129332525034357 Hf
   0.3173558989191515    0.0139338523722881    0.7546686514597953 Hf
   0.5724825533707675    0.5802888284227838    0.0507717489168342 O
   0.5901156510594036    0.8948538170754651    0.5310422773907084 O
   0.6000175939914071    0.9010677605742659    0.3191297667131192 O
   0.5792431610388974    0.2538843425067261    0.0540166326778260 O
   0.5943778770263652    0.9130983655304163    0.0460462702983682 O
   0.5739866078778862    0.2530587645244373    0.3141356103151301 O
   0.5582259009675444    0.5581257136597846    0.6172731890283613 O
   0.5668949022126707    0.2519402489875598    0.5683020213724107 O
   0.5774854730246870    0.9524960333074001    0.7884360858971096 O
   0.5943347506166453    0.5931654901315820    0.3120401907193460 O
   0.6451277724155158    0.2720737524558844    0.8251046288806583 O
   0.5831895434506904    0.2535970908563996    0.6984945540549102 O
   0.9070432544971194    0.2537344295809482    0.3037138517797478 O
   0.7822542710172569    0.7342599765874073    0.0650300820399984 O
   0.0911696895035043    0.4537020256716389    0.4301874651077628 O
   0.0837452484935182    0.4049289073127433    0.1919332289096468 O
   0.0957472341873160    0.0550490148235414    0.9447923656840644 O
   0.0835349455229288    0.0825538411714430    0.6922157661568188 O
   0.0415224288466797    0.0880313691223851    0.4191359456771394 O
   0.7508699372627468    0.0782920242234776    0.5600083934120502 O
   0.9137462234466364    0.9113046679174241    0.8093421124496426 O
   0.8923011698916510    0.9185046457405277    0.5483222547062123 O
   0.9516401513647743    0.8954777459059807    0.0643914766744028 O
   0.9172830009119969    0.2391146463290248    0.0652493229421283 O
   0.7323126301971106    0.0895832386847752    0.8119769287797870 O
   0.9245493039768429    0.5905629478776216    0.5641766499760206 O
   0.9069381390432583    0.5767445750068391    0.3122212524851161 O
   0.9214992573213546    0.6001429608462792    0.0601632694391750 O
   0.7464172359901853    0.2712415911858154    0.0592274096934233 O
   0.9157819286679344    0.2481811101343662    0.8090469569520103 O
   0.7542562059834236    0.4332302061508362    0.3111243206326054 O
   0.9198648651912354    0.2497092967917293    0.5497505966478471 O
   0.7402547259431412    0.4187452998536769    0.5551450454305504 O
   0.7582702227887997    0.4184947817288245    0.8109355338254862 O
   0.8913176669319662    0.5679643273480519    0.8162895239038075 O
   0.2484881788575830    0.9312260955035201    0.8136671057429707 O
   0.2626319382010199    0.5951180513146930    0.1201877063744797 O
   0.2350597041840994    0.9159527833421349    0.3215449724505403 O
   0.0810694936676566    0.4164387337508265    0.7003546064106688 O
   0.9215663527180363    0.2415773010444186    0.6861715716168013 O
   0.2504823009258569    0.6011329298367204    0.6887529570324578 O
   0.8930582702822601    0.2127098748115667    0.4254088346168337 O
   0.9535832721803064    0.2584548135199188    0.1853274240197994 O
   0.2672753924264637    0.5761529094278174    0.9687857055742267 O
   0.5855316718929668    0.9126261001305406    0.9161303264022413 O
   0.5895680609320900    0.7742682072707682    0.4237035804194357 O
   0.2588311564580196    0.9082379206074527    0.1942248921985040 O
   0.5896033113601271    0.9174087315172537    0.1793017734257174 O
   0.5841970572622920    0.5932613194870876    0.4533013234196959 O
   0.2683343361232028    0.9194431317075161    0.6910112141451993 O
   0.2530202639713015    0.9252620078751076    0.9355184033865160 O
   0.5923499087509115    0.5820239470223073    0.1836450101247445 O
   0.5856828530679804    0.2580043474074517    0.1861482446256231 O
   0.5823573485492747    0.2475411001214047    0.9350647580280085 O
   0.5936005420667532    0.2427735764264151    0.4360172395340567 O
   0.2394700693354569    0.5909582229458508    0.4256265320429871 O
   0.9138194324213065    0.2449820690621726    0.9366661661655041 O
   0.9253008099056355    0.5818250951682775    0.1873132536305810 O
   0.2367028240913441    0.2645025134216873    0.9679128185004537 O
   0.2360098186010161    0.9265331757249057    0.0652146819483626 O
   0.2598755753579330    0.5669260984318913    0.8237603880746156 O
   0.2563361161465879    0.5875228818713588    0.2853332590748445 O
   0.7446555684697628    0.7759211592375322    0.3071861001248828 O
   0.2754659728873962    0.2632194360252658    0.8307732861142639 O
   0.7428022870141543    0.7680152803747509    0.5553991109948311 O
   0.2711998940740024    0.2517490222185194    0.5705862064550745 O
   0.7489415216301560    0.7350332493192504    0.8144132098513032 O
   0.2430865622482306    0.9262846495779936    0.5393614906058610 O
   0.2308162726465190    0.2501111354349203    0.4513785485502142 O
   0.9145320108297732    0.9226888956032212    0.9377497200397760 O
   0.2489115998340911    0.2441325497856196    0.6985235334085973 O
   0.8758725558050520    0.9118263178431928    0.6846540135737391 O
   0.9060738397813353    0.9242968483277355    0.3420393359950528 O
   0.9258138317058244    0.9089455833128731    0.1915208816475736 O
   0.9355321263367794    0.5758833326201817    0.9380173129276703 O
   0.8889881167740048    0.5727035540631722    0.6925119736786213 O
   0.9601838954871941    0.6015031581251487    0.4325095461326277 O
   0.2375450611146602    0.2516573764878308    0.3095056666936047 O
   0.0836255317769966    0.4116958513656490    0.9384390814810238 O
   0.5964647547633030    0.7481327330885157    0.0689831757565416 O
   0.0888615051565210    0.7381722193004573    0.9347291821184713 O
   0.0819415179449863    0.2546570258296240    0.8067078737067840 O
   0.0921745189227003    0.2506716983310267    0.5538264003088503 O
   0.0694277974141589    0.2529024179068429    0.3042126137036815 O
   0.0865743456376090    0.2451332223775131    0.0610508210632477 O
   0.9285081423660342    0.7423908521650094    0.9547277889245945 O
   0.9157956225330002    0.7500131760416672    0.6901025591526024 O
   0.9299180075718301    0.7734423825199604    0.4382574740160499 O
   0.1052081796263317    0.5855500889048102    0.0551678096744071 O
   0.9222916373509195    0.7612669170283234    0.3029690274152640 O
   0.9185429358274292    0.4029635852041269    0.6934585449170058 O
   0.9191981084721207    0.4184760661360298    0.4352169201446959 O
   0.9135729973600295    0.4165011082493719    0.1930518502590562 O
   0.9292496196513296    0.0857005266621756    0.9360271686728209 O
   0.9119276490165444    0.0774934158521586    0.6873550262463545 O
   0.8505276901797814    0.0604897106690883    0.4555346218238282 O
   0.5971226120876675    0.7375831031878096    0.9347254434328184 O
   0.9182736860582613    0.4207757555921945    0.9348542225846390 O
   0.0954484316020783    0.5833283818289994    0.3178372365357958 O
   0.1099734224974572    0.6013595944612524    0.5331374664783782 O
   0.0691422205421769    0.5768533480762005    0.8093919232506205 O
   0.6119542993821373    0.5974372518453306    0.8058731539697541 O
   0.7317283671744743    0.5911832394707610    0.5606697068178029 O
   0.7497238086443222    0.5602534801913083    0.0782147110493839 O
   0.7443073861698914    0.2425048402583986    0.5732461313288972 O
   0.7391202075622438    0.2398103324110198    0.3235548787607722 O
   0.4142060113541404    0.9379137319891975    0.7956425683979119 O
   0.4160883625432809    0.9386909551997302    0.5488329288139425 O
   0.4026139072957831    0.9260032307426705    0.2973266697047302 O
   0.4084587387977300    0.9130571157049638    0.0415702776161935 O
   0.4212984286667578    0.5642249292496833    0.8202753967871776 O
   0.4083624913442077    0.5858450611380268    0.5579765008721387 O
   0.4258560008285031    0.5891566473811464    0.3169215022095758 O
   0.4531795672470241    0.2710854976728292    0.7904672587338016 O
   0.4082855338404602    0.2685289966261262    0.3246047889506665 O
   0.3886358216503718    0.2593723391519927    0.0536657490189315 O
   0.0885622142429279    0.9266767375022302    0.8260723037733494 O
   0.0700116685827485    0.9038611946390801    0.2999365764381260 O
   0.5671205585012841    0.7288542088311285    0.6840442270738899 O
   0.1116738289383581    0.7552692414339494    0.1959382630527021 O
   0.5813440262686493    0.7493230286236188    0.1988957233027440 O
   0.5964169039150131    0.4167402134811816    0.6889183052977996 O
   0.7523299191383995    0.4142754152973593    0.9605629895038883 O
   0.7544990669633911    0.4316786566823131    0.6894331204773926 O
   0.7387328380539981    0.4173017328602416    0.1737714477683524 O
   0.7457472247770165    0.0767947542248529    0.9459695743318728 O
   0.7531980724359374    0.0963950682318579    0.6900798929592115 O
   0.8902985568256835    0.0833296205484379    0.1984421962827476 O
   0.4172504270130935    0.7489313813877128    0.9276174876767140 O
   0.7630313437039467    0.7449323601793245    0.1837616443715471 O
   0.4137360755459761    0.7285642931646167    0.4395269007037668 O
   0.4169963042980360    0.4187856147521314    0.9381994997948896 O
   0.4293109227929979    0.4205932221054591    0.6961700141990017 O
   0.4327203039233106    0.4562745946498876    0.4279583518562645 O
   0.4207111007318833    0.0756258957230182    0.9172459361597848 O
   0.4097915275114124    0.0670025913942776    0.6858142742763055 O
   0.4021911444475926    0.0721412474730116    0.4422142079461963 O
   0.3888741316385003    0.0742042500052909    0.1805404132575220 O
   0.3961382733354720    0.7403209043826835    0.1854539341415372 O
   0.7568602242215160    0.7547178832522304    0.4342212211385020 O
   0.7450789579093028    0.7680026637841336    0.6934508515278441 O
   0.7575526720655346    0.7522951421095608    0.9393126341853295 O
   0.6013496695980864    0.4113944412757876    0.4507376418891145 O
   0.5632080559778615    0.4282864951913022    0.1891945923084337 O
   0.5865697647313337    0.0704070124059212    0.9263187457113035 O
   0.5776984700550104    0.0724296509161060    0.6926687005985627 O
   0.5951552243935158    0.0749033652254438    0.4271363628464178 O
   0.5757886878050663    0.0861538001482982    0.1755702772307968 O
   0.2568838696511755    0.7466007008580090    0.9293920618918550 O
   0.2335198174405997    0.7634913123975523    0.4262614466814667 O
   0.2529246640798118    0.4257456909245406    0.9277112010814064 O
   0.2537728740573422    0.4288282207005754    0.7067740689271154 O
   0.2578839122986486    0.4148708539526149    0.4449839640491118 O
   0.2545055048316709    0.4288628558361887    0.1876808811855239 O
   0.2632983028032464    0.0892084930071011    0.9391510528739986 O
   0.2475119239410393    0.0880487544741306    0.6950897574158688 O
   0.7440302689727625    0.0748221934498026    0.3183505822981215 O
   0.2259784312794808    0.0738217786047651    0.4532300398844491 O
   0.2176879418130564    0.0696370698242016    0.2055904602900671 O
   0.5865180707997721    0.4202736985870539    0.9413355261972722 O
   0.7660313151184703    0.0931287519118349    0.1000821559609580 O
   0.7458083426271483    0.9107158880724586    0.7963552706370920 O
   0.4212522789289094    0.7583780758636183    0.5689031821489344 O
   0.7588254521130365    0.2791222155935254    0.4591997834459516 O
   0.7610359353913693    0.2628553904352318    0.7212122458151096 O
   0.7411198293370530    0.2435044551388060    0.9345032947357945 O
   0.7647382622381235    0.5824221208913577    0.2070603423964081 O
   0.7597499209682523    0.5890421073676289    0.4306307198117689 O
   0.7054466943614822    0.5996935037576987    0.6882849475807492 O
   0.7567361261676786    0.5787553937709056    0.9402331003960579 O
   0.7670924062364505    0.9231843049672843    0.2004338777229543 O
   0.7467260565925570    0.9232781814607139    0.4219452161774790 O
   0.7074135113380807    0.9483385371751235    0.6599219866658317 O
   0.7424119493557155    0.9119179256103396    0.9351648997046891 O
   0.2425523365337940    0.1183387282575615    0.0857148995431864 O
   0.2407552328824797    0.0844609100395304    0.3214894296028154 O
   0.2493438636381549    0.0936812720855073    0.5724754479170998 O
   0.2365770856748940    0.0919605329325558    0.8170289353416947 O
   0.2631878439494679    0.4175814265754985    0.0547148594530433 O
   0.2384341000438424    0.4217506981032838    0.3138330947308691 O
   0.2528550993536839    0.4385953911877803    0.5667213634228864 O
   0.2463983395828926    0.7394130667175721    0.0607324890837656 O
   0.7640339652055416    0.2336746861718178    0.1961720449245854 O
   0.2529823421305979    0.7500199558088009    0.2873965573631880 O
   0.4247537866392885    0.9195491804532974    0.9201988421693451 O
   0.4451776623260495    0.8923328808631463    0.4237150254395528 O
   0.1310294235622553    0.2216079414180340    0.1795580190161053 O
   0.0442865021441928    0.2806800350582197    0.4254167239946797 O
   0.0831245282715777    0.2487040823496437    0.6873326396381193 O
   0.0750793024418502    0.2313809783729162    0.9302559747703436 O
   0.1034137584727008    0.5810020953660884    0.1871145165362958 O
   0.0759287432079904    0.5916822803471810    0.6842248773951859 O
   0.0977591386425812    0.5700833673296202    0.9352086896171032 O
   0.0985197869694349    0.9228567848810374    0.1722014437201845 O
   0.4170296133765028    0.7435193459980226    0.7938706675914193 O
   0.0722587795534821    0.9022190962598866    0.6821831654837416 O
   0.0712417780377480    0.9003796791340249    0.9617752280061724 O
   0.3884936242348444    0.2511379675243156    0.1804619029040596 O
   0.4089054928750239    0.2714728468401453    0.4591879990943869 O
   0.4166456770474585    0.2424806453092789    0.6677579674807270 O
   0.4011522229212746    0.2497408035811947    0.9243591371930641 O
   0.4118510440814967    0.5692085404512978    0.1915643997002192 O
   0.4222377328157807    0.6119968080328319    0.6904838446503786 O
   0.4321771360754404    0.5831980800697742    0.9569141354600289 O
   0.4301245354538273    0.9053206871971039    0.1669345808820749 O
   0.5022493847066685    0.8944215032811567    0.6544386890200484 O
   0.2445604914291084    0.7474488487484305    0.5682200278797606 O
   0.0650082554133703    0.9012021403077999    0.4373442607213804 O
   0.5977589930010027    0.0768176953545026    0.0477392220298875 O
   0.0831690806706079    0.0773124796336806    0.5522478027051184 O
   0.0764428419068917    0.0926319618553137    0.8216322491549473 O
   0.0900066392002663    0.4205162346561394    0.0585210042809861 O
   0.0735644028840346    0.4221685973408132    0.3099761300777438 O
   0.0870225989893392    0.4218529252612441    0.5564958704353018 O
   0.1273387165086689    0.4323057057779899    0.8227529898796772 O
   0.0670467266124944    0.7475517618528702    0.0681691348286208 O
   0.0840938421045067    0.7447993908512106    0.3457655545495306 O
   0.0689365757809144    0.7624920155525712    0.5636021388564258 O
   0.0779256499405683    0.7549307856097720    0.7950289435445995 O
   0.4068883813477886    0.0801591780894036    0.0480888180080612 O
   0.4009943514786729    0.0908226667476397    0.3083328761445864 O
   0.3881410023466882    0.1156246391887534    0.7956837890521853 O
   0.4321360156526539    0.4498078799233481    0.0746620037219404 O
   0.4099625963362468    0.4357521967833298    0.2805155485491700 O
   0.4157789741790658    0.3895823087268215    0.5665473316147919 O
   0.4199130301002205    0.7345333217501637    0.0550131801824947 O
   0.4280523022016610    0.7497950298830945    0.3090504582775959 O
   0.2535804272944295    0.7430130823914965    0.7896897570620022 O
   0.0741877369061699    0.0858119879973029    0.2956152655068015 O
   0.0876951236542961    0.0530132006010257    0.0748363609749274 O
   0.4040506119565235    0.1043547336655739    0.5684181735501516 O
   0.9034070468358334    0.7494054355398998    0.5582305138202781 O
   0.9095436601812933    0.7507080085677026    0.8159370036768071 O
   0.5749393599118500    0.0730557851989316    0.5642892434702421 O
   0.5536263016585327    0.1170905335505900    0.8193802333684199 O
   0.6106137728540559    0.4177716346321582    0.0614130796332625 O
   0.5735112280981779    0.4258470388197593    0.3158044989991645 O
   0.5857417664341483    0.4099534982225663    0.5738182612907226 O
   0.5735086469681047    0.0885494784101872    0.3066063566498706 O
   0.7694866783465811    0.9245851084867750    0.0680469674719560 O
   0.5769298447400266    0.7167251273262799    0.5472987019600415 O
   0.5781751232667665    0.4263656752083745    0.8111233304446994 O
   0.9204022272962706    0.0613135421302222    0.0658401338507979 O
   0.9074753914078838    0.0917422876218303    0.3271893524633491 O
   0.9084132746923393    0.0911373909372046    0.5671849856415133 O
   0.9082985762364376    0.0881309707416460    0.8124962152652698 O
   0.9023583685458897    0.4223507015508297    0.0621810703613266 O
   0.9195755134936006    0.4136558542362272    0.3125329952981977 O
   0.9192884417606083    0.4126035851708182    0.5614119163937815 O
   0.9479532705370805    0.4133070619320540    0.8092244783332817 O
   0.5913481381415089    0.7733001570898592    0.8075858643377755 O
   0.9273437473722841    0.7475781729922735    0.1721363871392560 O
   0.1630085360059262    0.8318806260636826    0.5018682066591588 Y
   0.6564514145596646    0.1585461074494111    0.6230125531683037 Y
   0.1587163759639979    0.3337500305847216    0.3799762554604322 Y
   0.1537411489969624    0.6654303788594509    0.6198039185100618 Y
   0.8435693836633369    0.6681698300964568    0.8858070154176129 Y
   0.8530787198496526    0.6701750251653532    0.3819714609510513 Y
   0.8309095116442775    0.3274888874586052    0.3783512102495778 Y
   0.1609964727239489    0.1523361623948246    0.0002842046599015 Y
  -0.0302600827435731    0.8439752380740682    0.6256552047588408 Y
   0.0046848174721836    0.6618501342696710    0.2509405773956505 Y
   0.5083079765584116    0.8250526879564498   -0.0099599807860016 Y
   0.4877346516198559    0.0142937556138611    0.3699132845658413 Y
   0.6733534259294675    0.6702471406356990    0.2466426472943098 Y
   0.6825418458816768    0.6683960949517532    0.0072308605766908 Y
  -0.0253484397507557    0.0023232175667920    0.2623399472677586 Y
  -0.0204307217935957    0.0193047865923301    0.4977005870552418 Y
   0.8379077889161438    0.8372600232511781    0.0000608912089427 Y
  -0.0035853569972977    0.0021561550415565    0.7532402955500500 Y
   0.1627787036495858    0.6658080420247369    0.8627626364053835 Yb
   0.1666216976653009    0.3386595809672485    0.6304631766584344 Yb
   0.6515399382852118    0.0052128645810807    0.2471384615657844 Yb
   0.1680358558457797    0.0016102270068380    0.6281096821010090 Yb
   0.6438754977280496    0.8307974671572570    0.6184641619179996 Yb
   0.6629717135081225    0.5012859409579727    0.3814555520447465 Yb
   0.6637078268799381    0.0050842928450954    0.4998995441874432 Yb
   0.3313681625540207    0.8557253106288772    0.6080719142960987 Yb
   0.3275432485781807    0.1721467979533479    0.3830606063531701 Yb
  -0.0093253965028914    0.4902021865350028    0.6285703399678619 Yb
   0.4996861499488589    0.3287746349433487    0.1201790229912904 Yb
   0.4977270461109943    0.1647754979313739   -0.0092331661516465 Yb
   0.5068292057498971    0.6730446684317488    0.8663263916821886 Yb
   0.5036169710784287    0.1588382830951880    0.4954594746287422 Yb
   0.8336144046091734    0.3347101210980175    0.6236330858878935 Yb
   0.8352720453360852    0.3316688374109819    0.8788473890354674 Yb
   0.8395587663265760    0.4993540828071205    0.5064834481346966 Yb
   0.4903611346488790    0.1695779708771998    0.2460137197611280 Yb
   0.6823387702556118    0.6688583936432332    0.4921645651810289 Zr
   0.4949584621593956    0.8303079088725337    0.5016703056169673 Zr
   0.8237547882392282    0.1681873942062417    0.2676693201388784 Zr
   0.6607136847650705    0.3203935729423734    0.5129960805250827 Zr
   0.8448015587107913    0.1673087150393431    0.7431915077555986 Zr
   0.8469619504572865    0.4983192405062541   -0.0082129854388354 Zr
   0.3406008106860432    0.6837973069614439   -0.0121563370550876 Zr
  -0.0102842627723104    0.4913632330987725    0.3743376517748429 Zr
  -0.0089493773379272    0.6675411300880237    0.5133791241383422 Zr
   0.8398252710788217    0.4911787792022209    0.2518762639029102 Zr
   0.0180208008291494    0.6550302044042212   -0.0110251137629005 Zr
  -0.0019303103719982    0.3433445015329435    0.5099461262694709 Zr
   0.8412700315948785    0.8206061263733574    0.2332225688452507 Zr
   0.8319195993546150    0.8219845713646193    0.5009020072705820 Zr
   0.3333129436280536    0.6428389069004582    0.7647713643180565 Zr
   0.5095707520107134    0.4871751711822945    0.0049031523696371 Zr
   0.4943143429741752    0.1571501490507332    0.7405891077567126 Zr
   0.0113679947726414    0.8361290277138060    0.1338929024086948 Zr
   0.4894847089474292    0.0135661289862207    0.6148757340339190 Zr
   0.8223593845889972    0.0166873371066568    0.6293722304156287 Zr
   0.1870930225464203    0.6695131860389444    0.3525095977744938 Zr
   0.1556799666501199    0.6682901578621609    0.1194381260245584 Zr
   0.8306344620938521    0.6453416918373738    0.1287851440637644 Zr
   0.1632318913971667    0.1671585759926950    0.2627803893088360 Zr
   0.1500407460431208    0.1635792588579588    0.7460711125358090 Zr
   0.0093831321138449    0.4916769435798835    0.8736549984682708 Zr
   0.6767101944977679    0.8155435606127303    0.8811036747934264 Zr
   0.6786529066425384    0.4896745621262589    0.6227388658973045 Zr
   0.1664761310053235    0.4884713893754274    0.5012722141408592 Zr
   0.6629770233766555    0.1626217402660512    0.8785321204485038 Zr
   0.1513807060045972    0.5033950347376761    0.7440006479026645 Zr
   0.3414141915666091    0.5179283197822707    0.8985941120368885 Zr
   0.3293783496692675    0.4940037220920599    0.1277835134951956 Zr
   0.5137946836674020    0.3327759472428762    0.6354897620597462 Zr
   0.1551724056872156    0.4909941779054239    0.2556360798033518 Zr
  -0.0048155337985185   -0.0005706317526948   -0.0056852798921511 Zr
