Ta31 Ti31 Nb31 Cr32 B250
1.0
   7.5818819479092996  -13.1295181800069773    0.0023948239508877
   7.5792480344363300   13.1279975372191480   -0.0037298691391727
  -0.0014583845357039   -0.0038620488431353   16.4474725670534525
B Cr Nb Ta Ti
250 32 31 31 31
direct
   0.5301977959620925    0.4664730437548842    0.5026037751287810 B
   0.0687249571653870    0.1314406990366045    0.8965293399779262 B
   0.0637886557514738    0.1329765364643982    0.6946299928071128 B
   0.0691505620082321    0.1338051131994025    0.4961232063882040 B
   0.0689797136331576    0.1306745208121709    0.3092666676481420 B
   0.0704923463433807    0.1336650927367297    0.1025523155640430 B
   0.9359097168668526    0.8644364532311394    0.9002569176017783 B
   0.9305660062756423    0.8702616847436960    0.6985007254131169 B
   0.9333028954760231    0.8678605199098943    0.4958865153962870 B
   0.9336979556104300    0.8635195094355027    0.2991505448512305 B
   0.9361424219254696    0.8628226834397207    0.1024313093914879 B
   0.9380536868193210    0.6711731466576399    0.9119244781911117 B
   0.9309946581713773    0.6675933784473131    0.7013607641804959 B
   0.9346704140281323    0.6682947790797314    0.4979018220194704 B
   0.9336388919080160    0.6659558200952261    0.2990635201984874 B
   0.9374056156983805    0.6686200871314512    0.1019196303140038 B
   0.9371209997790932    0.4717971877511571    0.9086398474319177 B
   0.9350788692876766    0.4693344298815566    0.6936651094458111 B
   0.9355780641342459    0.4669984900782129    0.5043159992227388 B
   0.9351474640370462    0.4651838333742246    0.2944469853701724 B
   0.0643465495867033    0.3349196104148687    0.1049406250820515 B
   0.0663945470237816    0.3347985711199339    0.3003394286396605 B
   0.0659786664397487    0.3344573143184502    0.5003587703371727 B
   0.0674934824834098    0.3362374755496563    0.6953988212378180 B
   0.2632096604830957    0.1286261579783355    0.6924023377888948 B
   0.2649266753207334    0.1302182976422255    0.5032655049208380 B
   0.2647169664052645    0.1311288398090290    0.3060724691745818 B
   0.2667538553489706    0.1327913608198423    0.1007493501580221 B
   0.0703314179712160    0.9329047887870852    0.9060995218968737 B
   0.0623901213335614    0.9352224483252216    0.7059297108302264 B
   0.0665250291835781    0.9341918906968543    0.4963428529092988 B
   0.0640742913094177    0.9294056771254399    0.3046180572949624 B
   0.0687799770325491    0.9293186684149071    0.0990559429214091 B
   0.9357629615732426    0.4685296760957896    0.0959022595362348 B
   0.0664074831440264    0.7331818743323255    0.9128538507621662 B
   0.0702829003291018    0.7363502998685303    0.5010210357126773 B
   0.0656788460311514    0.7304542852327485    0.2991920825589995 B
   0.0667191009132509    0.7315914738841494    0.1002379384973509 B
   0.0668087962321256    0.5345236545341071    0.9103165078799064 B
   0.0665744745128263    0.5341724054517880    0.6931297934533337 B
   0.0662979271020390    0.5340660712651855    0.5049108132511128 B
   0.0668259175102621    0.5314956415562583    0.2913402891404879 B
   0.0651772574682704    0.5312036726343493    0.0987139311488222 B
   0.0678344658810426    0.3359826811316581    0.8998035408482004 B
   0.0679135847062583    0.7368685023744288    0.6968533067079734 B
   0.2726744736156468    0.1397803267440015    0.8913373590320569 B
   0.9364371818214350    0.2717556834538963    0.9023307361746612 B
   0.9344692820033568    0.2692405359912580    0.5007964310155091 B
   0.7335762201783252    0.2666401436399178    0.5014992816749527 B
   0.7368753703798524    0.2652556302242520    0.2980646743996331 B
   0.7348635247287604    0.2679145815870115    0.0981800012998360 B
   0.7300881934151129    0.0668542014954580    0.8953939829914643 B
   0.7289761479961157    0.0623858750724253    0.6994044644415526 B
   0.7343911532755071    0.0644288176533879    0.5008047042188370 B
   0.7349211039045331    0.0660994744373777    0.2966241565491696 B
   0.7346459314048545    0.0690821521921953    0.1072834491517032 B
   0.5353671500895395    0.8691953858866331    0.8956127236880725 B
   0.5335244340156016    0.8655661407021880    0.7056234077849806 B
   0.5326895155423087    0.8636668885229649    0.4943732080699262 B
   0.5319459154713915    0.8611758375137779    0.3060570507422479 B
   0.5340576742719542    0.8646204991218250    0.1007068165407142 B
   0.5355856882297411    0.6701937836339062    0.8919954723744317 B
   0.5334859748309683    0.6623540907146261    0.6986807908068667 B
   0.5327963295889099    0.6641107709477354    0.4966691119524477 B
   0.5335791933698740    0.6676863055517180    0.3121784991407788 B
   0.5345749955780656    0.6699699525774900    0.1005956732821815 B
   0.5345164385056227    0.4718602924834951    0.8863806792927170 B
   0.7343342357642736    0.2688624362864548    0.6963758479523396 B
   0.7339623861869038    0.2702227218543406    0.9028722729424313 B
   0.7323728735944219    0.4665575987548514    0.0990816193879578 B
   0.7347796751742025    0.4684872133027399    0.2998512708494400 B
   0.9326547226613592    0.2668635307957890    0.2974391337205626 B
   0.9327792195859952    0.2685969975515085    0.1107451880354246 B
   0.9373065329641882    0.0655008068489227    0.8958447450032713 B
   0.9282307779022479    0.0656812768880392    0.6878885087842943 B
   0.9338596182528183    0.0654953548656153    0.4977546008696236 B
   0.9353675005268883    0.0627212626476708    0.3026529256858780 B
   0.9331430034802506    0.0657637847693781    0.1035921464790287 B
   0.7310754282435324    0.8667260154474161    0.8966875246097850 B
   0.7274813006079835    0.8638463885781764    0.6992381703544740 B
   0.9365061372909781    0.2712559846025329    0.6932478525187935 B
   0.7329759903790261    0.8667489942359893    0.4998729776104816 B
   0.7332824721945406    0.8653854807185700    0.1005521467013627 B
   0.7322565664763002    0.6667402589629597    0.8890075231304044 B
   0.7282176853495561    0.6648419291399210    0.6994669301413053 B
   0.7275258423393619    0.6652250959864960    0.4971719364961455 B
   0.7317349232010313    0.6653815002165040    0.3014209316451906 B
   0.7348743757619122    0.6680701438184934    0.1035992943004166 B
   0.7395308886528829    0.4757803175281015    0.8955288035173359 B
   0.7334800660979813    0.4700269032666825    0.7019754728694808 B
   0.7335047917040871    0.4675046635569885    0.5008609850944238 B
   0.7294610671307697    0.8621109713663941    0.2925659924657963 B
   0.5311347853471718    0.4665267548034745    0.7025677151703708 B
   0.2684832105062532    0.3344210209690115    0.1019737394386847 B
   0.2660123208272792    0.3296177574010895    0.4976016149532824 B
   0.6632207536331411    0.9314973257532744    0.7034607644609503 B
   0.6676948916543064    0.9318637276106376    0.5007715998928882 B
   0.6631803152715622    0.9255179072506745    0.2946040915122095 B
   0.6674545925469187    0.9322040808773046    0.1008556695322588 B
   0.6650556576390612    0.7341217578469101    0.8928698021937980 B
   0.6622707231954801    0.7289859855042351    0.6984781120911433 B
   0.6628137397218545    0.7313560594847853    0.4971736962544290 B
   0.6626670702237319    0.7316481812957003    0.3028657590885139 B
   0.6668344212631390    0.7346326354246118    0.1007260982515129 B
   0.6685612120178399    0.5371591833939168    0.8877466535271747 B
   0.6631014486631073    0.5350568072220039    0.7029686836593693 B
   0.6619865342791093    0.5353762145045017    0.4991084711222312 B
   0.6671245495638303    0.5346241818064864    0.3032909587198663 B
   0.6656833753698136    0.5333072768319502    0.1019295197837397 B
   0.6688594844654264    0.3384691017431782    0.8991317787358304 B
   0.6659814346667816    0.3343456136640452    0.6986002167265880 B
   0.6650451568969687    0.3307891639222899    0.5045528406341013 B
   0.6682695040853729    0.3334429785217521    0.3001485962455618 B
   0.6660290720264402    0.3320577606034049    0.0922858774070819 B
   0.6651888469387128    0.9344919218065415    0.8930053721822639 B
   0.8662065966114776    0.1351730586366697    0.1085248517045249 B
   0.8664096981407757    0.1326649168096246    0.2978119793683538 B
   0.8666623103635341    0.1318313553561513    0.5000799902359870 B
   0.8672569587503319    0.9343935390715820    0.4984112896201894 B
   0.8667943951479475    0.9306266369966814    0.2968865920627610 B
   0.8670340077280536    0.9301108993220386    0.1022363326415953 B
   0.8646312352504132    0.7283997060197775    0.8948250166968341 B
   0.8633987737634453    0.7330053637393857    0.7006967895589056 B
   0.8642443607634139    0.7329450817315949    0.4968453038993879 B
   0.8671194378304784    0.7310378736829874    0.2991213479404917 B
   0.8714461895501878    0.7339677790492452    0.1042664797308957 B
   0.8723100827043931    0.5390206573980680    0.9068257098407914 B
   0.6666576719200982    0.1370917486551679    0.9015068500839516 B
   0.8662542620474422    0.5362403715287729    0.6995930200223549 B
   0.8679650463091729    0.5332087450292227    0.2975835865683089 B
   0.8688906049720490    0.5349225928206959    0.0984317947938303 B
   0.8710666020148554    0.3388182710737586    0.9053171756243599 B
   0.8709688228415127    0.3382167746301518    0.6935021956411977 B
   0.8698183904652637    0.3356747453319175    0.5017400922409293 B
   0.8691873482093838    0.3319231728056343    0.2947325404274416 B
   0.8724435354154092    0.3370592027880337    0.0986605551789572 B
   0.8682377880397903    0.1341173282286700    0.8982932206144554 B
   0.8641790363884861    0.1320551348647315    0.6933466921767576 B
   0.8683677702852765    0.5345369869160443    0.5004319643870287 B
   0.2649983742840010    0.3297829768624118    0.3088276779728000 B
   0.6641226074358593    0.1298883042867729    0.6985088642194086 B
   0.6685491564272957    0.1332874162818367    0.2996453246418118 B
   0.4622925891448514    0.1264120180480574    0.3030273078906522 B
   0.4677609577717274    0.1359172661695624    0.0965310261675422 B
   0.2640155672566925    0.9376633941918893    0.9040653373612514 B
   0.2622244256672091    0.9323900095666848    0.6943535374468526 B
   0.2645368540430443    0.9281058487427410    0.5047199360772608 B
   0.2666197648035655    0.9275329034476159    0.3090455331913405 B
   0.2672875500944321    0.9348123365753730    0.0984639988582870 B
   0.2657473053095408    0.7325881628788971    0.9065890451113288 B
   0.2633391100755365    0.7334003407324897    0.6960956193257150 B
   0.2679140008351112    0.7368424499028422    0.4966159042091677 B
   0.2656355220165604    0.7338184029641864    0.3074705461294146 B
   0.2666225138093124    0.7305650060527260    0.1016343139007476 B
   0.2661216064106703    0.5335302081175091    0.8994407059202456 B
   0.2665035623981692    0.5329475004811728    0.6979478315466705 B
   0.2666661167449650    0.5330632164065194    0.5008021817874818 B
   0.2656817803453457    0.5351495342824397    0.3020211250414874 B
   0.2652959200598727    0.5345060422122554    0.1047922706300580 B
   0.2702710205443343    0.3375232568588336    0.8972890392191288 B
   0.2713292838414341    0.3327799460178182    0.6995155781718073 B
   0.4624524120283883    0.1302043125568201    0.5016130263500701 B
   0.4625599870370843    0.1340494203983692    0.6955494414888596 B
   0.4686723884076908    0.1389352094466733    0.8966377993842847 B
   0.4672756091501892    0.3355114297259977    0.0976457245441692 B
   0.6690318468281532    0.1362005790524629    0.1024804355444788 B
   0.4709136832667521    0.9368133495965155    0.8971254786947770 B
   0.4679126148302316    0.9329307349685060    0.7013170129935934 B
   0.4662216681167855    0.9319126841501602    0.4933990204413677 B
   0.4625194324077627    0.9273054192269380    0.3083794085789950 B
   0.4658322213217937    0.9333329246619289    0.0998984705910228 B
   0.4691593191704658    0.7366302782059131    0.8973611925553793 B
   0.4680175596955765    0.7320037819169551    0.7022802207649529 B
   0.4660036302138256    0.7323978285212681    0.4951494334607519 B
   0.6655193319382092    0.1319321889333221    0.5009621187987140 B
   0.4665205561610005    0.7332620447686147    0.3122501692233263 B
   0.4684977085309956    0.5348249132811269    0.8916989562462043 B
   0.4682043513696230    0.5317641671496410    0.6978546156056168 B
   0.4671082871812018    0.5330568379064992    0.5008424084364107 B
   0.4682570779960016    0.5345184717089265    0.3104422453398123 B
   0.4658894019703470    0.5341936558451584    0.1002917439918756 B
   0.4671015833694464    0.3400383865828876    0.8901304061228078 B
   0.4643775553902785    0.3316324086737365    0.7031832128432061 B
   0.4612864409880460    0.3281045913114276    0.5038112472886765 B
   0.4638888302620687    0.3306026853350251    0.3062205617276321 B
   0.4674876317895023    0.7337823409680312    0.1030124771576238 B
   0.8593829398393087    0.9342227600307873    0.6873772538127640 B
   0.8704180215800678    0.9335858248025910    0.8971497433564769 B
   0.5314418609550746    0.4672136367014538    0.0985418582115164 B
   0.3306119738580180    0.0635352588155065    0.5042954827859962 B
   0.3327193372069378    0.0606386318799909    0.3038110284530299 B
   0.3315185003196093    0.0664696921260915    0.0975637454117754 B
   0.1324334306023756    0.8662707212060131    0.9109765171073516 B
   0.1326784900633471    0.8710763402038971    0.6948174516854935 B
   0.1348585180916652    0.8672680090579178    0.5045669338468818 B
   0.1307429457995655    0.8607772971836419    0.3040985978213315 B
   0.1324041029869936    0.8640309709218227    0.0998508606320154 B
   0.1315190991682606    0.6658538711051389    0.9091541868584495 B
   0.1327553097711071    0.6693990790414391    0.6950896935778573 B
   0.1339307581626435    0.6635735446010305    0.2948210181609769 B
   0.1328291551804205    0.6636646187766737    0.0995640625483770 B
   0.1322097427785477    0.4675674767277326    0.9037338887224571 B
   0.3305517472873449    0.0672083651766257    0.6924448688649262 B
   0.1324019570223821    0.4680708390178586    0.6962630793175980 B
   0.1324649392891170    0.4678585564290212    0.2952202282220565 B
   0.1304869630502309    0.4659451593001124    0.1031609577928977 B
   0.1344061957076026    0.2683220511371554    0.8965272526045496 B
   0.1351204135099768    0.2677674439215335    0.6967696893385877 B
   0.1344270279484741    0.2658493002224058    0.4968964160714150 B
   0.1347517261569192    0.2642039048540131    0.3067676169256746 B
   0.1347541690480029    0.2676536231527294    0.1030015752381836 B
   0.1390871718754526    0.0653696827028129    0.8997563313262362 B
   0.1287362494727542    0.0652258880672260    0.7024921467419081 B
   0.1338613342169112    0.0676531156148505    0.4968286556345282 B
   0.1316234439216427    0.0640538442552428    0.3087671571841015 B
   0.1368179238580296    0.0640320337834025    0.1001923709932790 B
   0.5346302225337720    0.4689223916833868    0.3073557816391796 B
   0.1302057876425375    0.4656622956428251    0.5026089013177099 B
   0.3334762980073350    0.0712739313924434    0.8948741670556168 B
   0.1361454168720971    0.6720654157596165    0.5031132553406399 B
   0.3292703538230517    0.2623943928722066    0.3082404226670582 B
   0.5337413233863580    0.2709955765081574    0.8948419857642045 B
   0.5283648998858320    0.2644135189248447    0.7000802231916113 B
   0.3341787186338575    0.2680510486143883    0.1022820815273615 B
   0.5303748437950720    0.2629849196184804    0.3036798523217042 B
   0.5357317632064200    0.2684695110269675    0.0929057529114265 B
   0.5366460518841769    0.0710307702589979    0.8992966105397677 B
   0.5332353308216475    0.0654332855697285    0.6986715344629125 B
   0.5307616090220538    0.0647242748108530    0.4994697078849441 B
   0.5265951299132452    0.0605403015689375    0.3020792404117331 B
   0.5340790985440527    0.0694404698132803    0.0981559827459060 B
   0.3337331687373711    0.8670984479740814    0.9031970587086720 B
   0.3277417527202845    0.8643113497530570    0.6972637630297780 B
   0.3346293678488577    0.8676131603490552    0.4921210509237291 B
   0.3325381532775745    0.8637012963132928    0.3131805350745960 B
   0.5278514026357601    0.2614472348312561    0.5049762070914596 B
   0.3331191329532185    0.6677672442819077    0.9022093621171013 B
   0.3345265768209761    0.8670784842738408    0.1002729472313886 B
   0.3295960103764252    0.2612749839842103    0.5014102833738213 B
   0.3380545984333377    0.2747100552058251    0.8914267511152636 B
   0.3342636545601927    0.4685167822990615    0.1017114740726929 B
   0.3320926599358391    0.4658147651057156    0.3085360511022842 B
   0.3336717017629963    0.4651976592351417    0.4994124848196607 B
   0.3354085454935726    0.2614952415437173    0.6973583485637687 B
   0.3363820961577798    0.4668926879216438    0.8986362359821618 B
   0.3329660522583458    0.6657742687628868    0.1045337357458410 B
   0.3336230176906638    0.6694123136880522    0.3066141521466339 B
   0.3334471471950407    0.6673745634927034    0.4985468294122908 B
   0.3317883897838798    0.6660748227331738    0.6970322374622012 B
   0.3351954653099765    0.4646854955031262    0.7000051034838699 B
   0.4012223698826650   -0.0092056592005243    0.3988193322121288 Cr
   0.3880984899306644    0.1894399504764335    0.5924876125756626 Cr
   0.4066703845757535    0.2137822430378855    0.8048771984760911 Cr
   0.3952898514166112    0.3998194455622505    0.0181171119005715 Cr
   0.3956485648959275    0.7995765777298077    0.4019030864737149 Cr
   0.6005891088237081   -0.0070685658505451    0.7923832663501231 Cr
   0.6023896418539746    0.2115608456863816   -0.0143028450195480 Cr
   0.4029184714133148    0.0070415217491872    0.1776904337941119 Cr
   0.5926513177385039    0.6004265139234740    0.5903551160589345 Cr
   0.4035874995920646    0.3953400032470515    0.7871126014792442 Cr
   0.1900042198512907    0.8022569101925795    0.6053979117323965 Cr
   0.0098293223452662    0.7959728015910927    0.0109486491170304 Cr
   0.1850625288355103    0.5915475122366105    0.1908045840979679 Cr
   0.1987260520977216    0.1981018757482397    0.4065940766179177 Cr
   0.2109144607619658   -0.0008213593876669    0.5997246875023717 Cr
   0.1902566249796559   -0.0152788379400257    0.0057246795981757 Cr
  -0.0047323891672249    0.7931650532565322    0.2141951445207397 Cr
   0.0011696387495282    0.6026051536027790    0.0061439396665594 Cr
   0.0000019869032087    0.4019722091275069    0.5942013296737793 Cr
   0.0062324421855766    0.4053476977509398    0.2002139542257820 Cr
  -0.0032762405664316    0.4092202676327044   -0.0015032820249159 Cr
   0.0148486528217821   -0.0035102786590336    0.8181435589190956 Cr
   0.0099735305585901    0.0065902495047780    0.4066185630092788 Cr
   0.6001179261739088    0.5981037704616485    0.7949029896440969 Cr
   0.2100354585840072    0.8059292616690948    0.4063078533502744 Cr
   0.6089414283685809    0.8078837901571075    0.1850100179879482 Cr
   0.6017669258360661    0.6073560071725163    0.3983163748320820 Cr
   0.8018854674349537    0.1939309762266895    0.2080933084364943 Cr
   0.6014152399869620    0.8117609074868992    0.8034945038667433 Cr
   0.7862409544072679    0.6007425408149535    0.7895756436883201 Cr
   0.8089449202070020    0.0028392994377021    0.5871220062368888 Cr
   0.5913027270581752    0.7904188360750666    0.4077458209822630 Cr
   0.5984245065869643    0.7986167287388706    0.5992703038554359 Nb
   0.7981449435946946    0.1980987595996428    0.5987464604534176 Nb
   0.3993843309667262    0.2037969819043363   -0.0044410363433419 Nb
   0.3983821469132738    0.0023268790148427    0.7987658601553487 Nb
   0.8003289255668636    0.2016159151840237    0.7973188900537843 Nb
   0.4013676558813639    0.0049137187779414   -0.0050157261891244 Nb
   0.1975370604851093    0.8007609008437699    0.8074961760108930 Nb
   0.8026209061729467    0.4003666887175458    0.4006383849172412 Nb
   0.1966941112279946    0.5989349402486309    0.4028315737780678 Nb
   0.3991583689812499    0.3997547023560379    0.2095141534778886 Nb
   0.2028158933214909    0.3993155276175772    0.5982616864293911 Nb
   0.8027743496423322    0.4043684808588639    0.8001280593876232 Nb
   0.2037576226346994    0.2014738851870294   -0.0038547809634865 Nb
   0.7958984838489030    0.6012198733501486    0.5980509962888457 Nb
  -0.0008868350461058    0.6021317032788852    0.7993875493984495 Nb
   0.7991476371502285    0.8004313818554316    0.3974060177235856 Nb
   0.0002661779087755    0.1990873656091774    0.7942600147875781 Nb
   0.0007843565593588    0.2031934273985252    0.0033418558290623 Nb
   0.8002524798528012    0.8041616686956851    0.7949461929745653 Nb
   0.2020763663723914    0.7997485212555067    0.2002390524454627 Nb
   0.8015245371896597    0.2023028505048925    0.0012774699311263 Nb
   0.0021102429395712   -0.0013800565509972    0.0021370005486293 Nb
   0.5999756266960774    0.2002360785163229    0.7956832079960658 Nb
   0.8008046753901370    0.0006293255817692   -0.0001008802663225 Nb
   0.5985005615907790    0.1977193696505896    0.2023671496448799 Nb
   0.5982236507866066    0.3979652943196040    0.4056225596593017 Nb
   0.4002677826676012    0.8002457329359797    0.5980376224424501 Nb
   0.5991471075916801    0.6003512528472759   -0.0050930929307151 Nb
   0.6031745638604299   -0.0014713167908092    0.3983188093673240 Nb
   0.5965803525017060    0.4005711181693927    0.6021159404229672 Nb
   0.5941442604786838   -0.0041067161489568    0.2033947264848406 Nb
   0.2024506458630087    0.4016219967763814    0.2052517326559984 Ta
   0.2024775132587671    0.4013183291292717   -0.0011983694924887 Ta
   0.5981750464701515    0.3992442804970361    0.2044057192646518 Ta
   0.8027189301147094    0.6031917176274020    0.0044629219845446 Ta
   0.2023156675481608   -0.0044637632986071    0.4028429785755939 Ta
   0.1999787433994482   -0.0065190904165211    0.2078189799545302 Ta
   0.4007682233693018    0.5979360405038979    0.7963214760116674 Ta
   0.5980075790813604    0.4053924221458777   -0.0103821617602235 Ta
   0.0037547703761894    0.6024288510150098    0.4000685933368008 Ta
   0.0015770009389278    0.4029714461807762    0.8000625596127912 Ta
   0.8018933928170917    0.7983814488182791   -0.0028589735178804 Ta
   0.5987063724008389    0.6038889854600655    0.2026695328580023 Ta
  -0.0017743205975006    0.2009639936146096    0.4010014494801026 Ta
   0.0031216129276526    0.1988729396806438    0.2052042871841807 Ta
   0.0036244452441404    0.0011706865660411    0.5969710394554260 Ta
   0.0026844617030152   -0.0049243490867563    0.1988792932875443 Ta
  -0.0009321378500291    0.8002998453253837    0.8002588092041795 Ta
  -0.0026680859994405    0.8023331026566853    0.5983444601546414 Ta
   0.2019966893814606    0.1998478595151607    0.7947513383466412 Ta
   0.8028901700986320    0.3980496736058511    0.1949384329284785 Ta
   0.8041781170570518    0.0011339868419770    0.7968579715579330 Ta
   0.3965340349572588    0.1936177372237390    0.2048852809255796 Ta
   0.6020426928840625    0.0031399313088489    0.0043090884970475 Ta
   0.4000566009356204   -0.0032282343228119    0.6004313576869770 Ta
   0.5976750221986225    0.1960336474873250    0.4012701072183845 Ta
   0.3976321175506775    0.8001430285161961    0.2033107548403597 Ta
   0.7969737687374462   -0.0059137494815134    0.3934450735005774 Ta
   0.4032709233477534    0.6066824567500262    0.2106066360878253 Ta
   0.1972179372828499    0.6001118942904241    0.7994530169808155 Ta
   0.4030874746410626    0.5994749591643213   -0.0053079627238344 Ta
   0.3971997347717773    0.7998119174185220    0.8005482678897580 Ta
   0.7940480326133650    0.7984871222329798    0.5979680337119370 Ti
   0.0010199456531169    0.2010891854348993    0.5967420988141212 Ti
   0.0025374558553663    0.6010354896295532    0.1978278856573557 Ti
   0.7981172942920154   -0.0033527230711904    0.2002017510701285 Ti
   0.4002426956746320    0.3970838148136714    0.5992442710458549 Ti
   0.7990942534200229    0.7975672805113968    0.2016162989704741 Ti
   0.3978947521602408    0.5989764975837101    0.4038832352560454 Ti
  -0.0002396386861299    0.4012152249695400    0.3972428600193205 Ti
   0.6009404505638707    0.8005884271146464   -0.0036343107962750 Ti
   0.3996802969487005    0.3974576678083262    0.4056093122303434 Ti
   0.4038095204819698    0.6002648902830733    0.5990570918548267 Ti
   0.8010633195488869    0.2000729886044499    0.4021186777446694 Ti
   0.7998019461477019    0.4020485656906949    0.6002871041726202 Ti
   0.5999121158719851    0.4008836181201701    0.7966546763344847 Ti
   0.1993045523216848    0.5973762169010636    0.0041313675396803 Ti
   0.2021481840159948    0.4007142243903425    0.7978430166694537 Ti
   0.1978737500050849    0.3998908200167376    0.4019534749434877 Ti
   0.2019331178653078    0.8014205565762206    0.0046823424353901 Ti
   0.5957252333492826    0.1982405316959968    0.6012851335389405 Ti
   0.4020635650131612    0.8005623114157058    0.0019134269575043 Ti
   0.2014320791119160    0.1967867203499954    0.6006892519406563 Ti
   0.2005518837644982    0.1970942974871321    0.2022143655413406 Ti
   0.2018038145626677    0.0027623940089674    0.7970940612931599 Ti
   0.6009837588456617   -0.0030765715699647    0.5972526020548637 Ti
   0.8005241011132483    0.4011532508214951   -0.0001493182157404 Ti
   0.8027663816453723    0.6016436410745624    0.2005121362194686 Ti
   0.0018801040229064    0.8000987407597755    0.4010792712355757 Ti
   0.7987286969309563    0.5997022249712013    0.4000897170536756 Ti
   0.2011825653706846    0.6035276635738068    0.5973085054947193 Ti
   0.0008447097287084    0.6043281189955266    0.5995925125707249 Ti
   0.3965368837136580    0.1933436923586973    0.4029589191023257 Ti
