Yb19 Y19 Ho19 Er20 Lu19 Si48 O240
1.0
  -0.0026896669741372   20.0573312287044310   -0.0461598115540155
  13.9849611242462544   -0.0018724649055494    0.0031608885794834
  -0.0031786220894277   -5.3931976900623599  -17.3314340317896267
Er Ho Lu O Si Y Yb
20 19 19 240 48 19 19
direct
   0.8580418841967067    0.5773547481835662    0.4417084657186227 Er
   0.9221493643301750    0.3150100619154745    0.7348177784967768 Er
   0.5233488511693392    0.5753727912011314    0.9395014924764972 Er
   0.8524797963979258    0.0676265232876613    0.4364786086032909 Er
   0.6436944779312725    0.3196654364465082    0.0632056732173655 Er
   0.6461668370599931    0.3243045230380979    0.5596552544239299 Er
   0.0764430932756412    0.1881409831592674    0.7638715842012345 Er
   0.2457377239056575    0.5662070561557074    0.7658874956476117 Er
   0.0778156258028694    0.6872107976354639    0.2647242361884362 Er
   0.0806310777888393    0.6877898491384562    0.7650693511269677 Er
   0.5247620601651762    0.0800286902956011    0.4413441970664494 Er
   0.4085486904558131    0.6850969846537437    0.2633020035680493 Er
   0.8084463994571351    0.9257131903447127    0.0590201079832494 Er
   0.0873079619368203    0.4366531362486569    0.2356823132881142 Er
   0.4820811086740210    0.9317986685467501    0.0643388400595359 Er
   0.4776127022235442    0.4314045375576157    0.5591799622564615 Er
   0.7556656046726355    0.9364512993178042    0.7356049676836756 Er
   0.4230874743075006    0.4358136479039020    0.7364113868605129 Er
   0.7414087568856649    0.6870356878785241    0.7642784534927367 Er
   0.1910724830170825    0.5684600055100574    0.9411862288931823 Er
   0.2554334646786198    0.3107929409233057    0.2361840444996429 Ho
   0.0893872552846686    0.4381201087478145    0.7366484698881981 Ho
   0.0913670091404262    0.9364230390707670    0.2367479247452159 Ho
   0.6428885915976662    0.8188418033499567    0.5593278417318981 Ho
   0.6461367269546880    0.8148871209179191    0.0644956365111344 Ho
   0.0924587824003851    0.9369182314069725    0.7379150496214310 Ho
   0.7539380764527934    0.9346516161127184    0.2391598306579962 Ho
   0.4250222540765490    0.9352196074064468    0.2400599692351854 Ho
   0.1406150527888097    0.4233863390706400    0.0584902342778729 Ho
   0.7570381937364531    0.4371452854893300    0.7355145966878455 Ho
   0.2438001301678327    0.5648945082014893    0.2612716815503031 Ho
   0.0219006879180270    0.1786080033164139    0.4367057459600577 Ho
   0.6846858732078138    0.1796315467492677    0.9359599714902890 Ho
   0.5772213407510426    0.5650436028584458    0.7637852170924592 Ho
   0.9077532552494832    0.0620725559849565    0.2621829990966903 Ho
   0.5784641729916874    0.5649865245062613    0.2629912256857310 Ho
   0.6920116372367138    0.6770066695798732    0.4377772525262615 Ho
   0.1459696478669811    0.9327590748511165    0.0611113343525216 Ho
   0.1920959553329468    0.0719690467178140    0.4393266126299364 Ho
   0.5793239976147948    0.0635285660915506    0.2636746330121999 Lu
   0.8130725027923560    0.9359255213761838    0.5639595038653189 Lu
   0.1466888711723087    0.4333569419505170    0.5652734796783948 Lu
   0.4077963697887301    0.6844684151444255    0.7651215841540779 Lu
   0.4231084359412745    0.9327912458779809    0.7387130780902956 Lu
   0.0214122539204510    0.1861124760432640    0.9384664106776284 Lu
   0.4077393902719398    0.1848383261628486    0.7643331876878338 Lu
   0.4090909981157877    0.1848178818512904    0.2641226185671741 Lu
   0.9138577151253315    0.5654842303386217    0.2662667767145161 Lu
   0.9238147516205868    0.8121316471805468    0.2363069552664419 Lu
   0.3513528993344000    0.1796805160705327    0.9356937829408163 Lu
   0.3145477519946513    0.8157602371142859    0.5670720416152665 Lu
   0.5191362390136735    0.5678009119429503    0.4354163142759297 Lu
   0.9813631153353130    0.8190029707094680    0.0632584118877245 Lu
   0.8534098201883273    0.0690235124607068    0.9360087838672621 Lu
   0.3118628553426036    0.3180062129768945    0.0625201765663514 Lu
   0.6862034411368938    0.1787783635659632    0.4360054287384235 Lu
   0.5900519339764281    0.8128447653105277    0.7365545686856239 Lu
   0.3137929841685301    0.8165025707479610    0.0654874826293274 Lu
   0.1603754095848953    0.8176787446642004    0.3061857875965588 O
   0.4952464681344079    0.3171242140066709    0.3052506803791277 O
   0.9981556325568823    0.9354780047773745    0.8105240598466907 O
   0.4978470175781606    0.8211085969839385    0.8076747870689385 O
   0.8348975865915970    0.8224232971645105    0.3071039021234547 O
   0.8287459661563882    0.3182437180780668    0.8085573471857037 O
   0.1629010165064521    0.3175780184757323    0.8057530875496712 O
   0.4936997168226819    0.3148388838266844    0.8055378119586610 O
   0.4955857731602820    0.8147520124010829    0.3090233406674919 O
   0.1651842796448531    0.3232693464228327    0.3081737897880216 O
   0.8261977974587321    0.3146029330524805    0.3083047569325697 O
   0.1606267919442314    0.8166901936124400    0.8086944339813655 O
   0.3425273911836015    0.0678161463378773    0.1915040660704894 O
   0.0009080201677984    0.0642995660460824    0.1888529217515483 O
   0.8205644256682731    0.6269183697199935    0.5421289018850479 O
   0.8218029816531272    0.6137287966925654    0.0478113479533247 O
   0.8326562268134712    0.1040948484545922    0.5582786009747769 O
   0.8322898464025907    0.1097271676489756    0.0507249479509762 O
   0.4922486374131678    0.6100097645522484    0.5511534297579836 O
   0.4953118132086995    0.6146531862613368    0.0499066504952429 O
   0.4968536047482148    0.1141763256816332    0.5519100890195751 O
   0.4993341441778277    0.1015868623765033    0.0580780664299927 O
   0.1626372544915314    0.6060892844800447    0.5554854590392783 O
   0.1631971249694336    0.6105961238783174    0.0521910897494379 O
   0.1547038319482821    0.1216417614593698    0.5429386441088377 O
   0.1676120530415154    0.1020711779894403    0.0604431492210632 O
   0.6674927947735805    0.5663369330011117    0.6924763255837114 O
   0.6665688568266445    0.5627205464263111    0.1927953305310370 O
   0.6690167662800787    0.0666322603792338    0.6905967869722458 O
   0.6623738038890711    0.0655718550644797    0.1915327745143520 O
   0.3385472999552139    0.5660245669252564    0.6933129196983973 O
   0.3356125761554761    0.5643400364330288    0.1908445859048181 O
   0.3335405107127238    0.0707913485465317    0.6921945787006153 O
   0.9938326325695236    0.9272065252355195    0.3068780942417328 O
   0.0063237429349208    0.5698051166379348    0.6932940630573607 O
   0.0059439457720719    0.5701749051229837    0.1938592367872277 O
  -0.0000976869477890    0.0709684423432964    0.6918116030422353 O
   0.8306799323931962    0.8203539222673260    0.8055627191103093 O
   0.9979553139007380    0.4340060052832273    0.8069006522047280 O
   0.5020168035910814    0.6782007020815549    0.1920031136583185 O
   0.6632263857495212    0.9278911396824862    0.8094508969819941 O
   0.9189833872066699    0.4837971791012435    0.5611249850210520 O
   0.9168169970162900    0.4927229552330489    0.0626006715162360 O
   0.5872322317957621    0.9696662849749133    0.5620094202828015 O
   0.5913891703923948    0.9686203702071677    0.0585086834138364 O
   0.5876877115391329    0.4827839028727884    0.5554030987878070 O
   0.5865526860864608    0.4727913793087012    0.0578315858358546 O
   0.2545569871241322    0.9750611796196086    0.5594613562381205 O
   0.9204496903835125    0.9734475895532249    0.0542676456288571 O
   0.2600539367457736    0.9635484260593048    0.0674291150983517 O
   0.2535312097185586    0.4676418227014622    0.0605329054139650 O
   0.9152019897769129    0.7442202228438753    0.9430608349155395 O
   0.9139461079904339    0.7387366351334018    0.4413385871874940 O
   0.9114596758349625    0.2204800847729626    0.9351231063506134 O
   0.9102347024407395    0.2162548358275133    0.4359104638710040 O
   0.5817795219417730    0.7383992512266542    0.9418988203420796 O
   0.5790281403557029    0.7189824926210022    0.4419060611148627 O
   0.2547438903410699    0.4727291343710221    0.5635106589747086 O
   0.9226153337418144    0.9780467518589887    0.5568590476533951 O
   0.1682931533114597    0.1887298672341532    0.1932431718256503 O
   0.1666535010591804    0.1857957580025333    0.6884718605133425 O
   0.6678102747055076    0.9392348769276777    0.3093552583464427 O
   0.6621069823226343    0.4305394643097553    0.8077067962739377 O
   0.6613916700569524    0.4312633675800531    0.3082627768794534 O
   0.3382570384554949    0.9340758145745571    0.8104964242170833 O
   0.3371343074817447    0.9295178286414435    0.3108075572268315 O
   0.3317375588051272    0.4318629939866946    0.8089382208126822 O
   0.3293997713207332    0.4316703646195247    0.3058920298990970 O
   0.8380825339449220    0.6871583310376954    0.6897127875892897 O
   0.8468147928698427    0.6819762064234273    0.1941863333048698 O
   0.8355089027254904    0.1842398942944202    0.6948800155721196 O
   0.8352397960520584    0.1749300778810232    0.1916088017501983 O
   0.5039079578009289    0.6807515894900652    0.6948373862925097 O
  -0.0019932589053307    0.3574225575970733    0.4396665568161047 O
   0.5033838837598149    0.1866026759626690    0.6907306224938742 O
   0.5040230756462571    0.1802108685349317    0.1944128999580291 O
   0.1703198570973715    0.6790617265315527    0.6954648132748668 O
   0.1681756579495936    0.6798424645103319    0.1923272638958037 O
   1.0003797495377209    0.4414661585004300    0.3068816102718878 O
   0.0100239373330487    0.3630272516672617    0.9493353693376531 O
   0.6528306681274005    0.6345287253476002    0.0495549919772778 O
   0.0147613112302037    0.8692489756224254    0.9557994578773918 O
   0.3160925495837320    0.1932832294800846    0.3011484368853895 O
   0.8106577058139824    0.5620497089462831    0.8001942394432890 O
   0.8196256202588610    0.5583319469053240    0.3096594859887451 O
   0.8111305210495088    0.0581261118216786    0.8076983626821639 O
   0.8146626649148340    0.0547696028348123    0.3084665153631875 O
   0.4796975633099930    0.5585158862131443    0.8072202238700694 O
   0.4807262918261097    0.5570236389381908    0.3080328441499010 O
   0.3136234572753236    0.1924331899709757    0.8076295584772352 O
   0.4748422177603661    0.0599626916150515    0.7990881119080068 O
   0.1477332964533237    0.5596256130408617    0.8095454451989542 O
   0.1463950522504690    0.5592648456714345    0.3078059248789624 O
   0.1439943772247768    0.0636920000052781    0.8018083742127591 O
   0.1451160411611486    0.0579248953422070    0.3084915533569461 O
   0.6852677904465666    0.8113010510743528    0.6934563062263753 O
   0.6879620951465099    0.8107924040538175    0.1915714027013965 O
   0.6859990753633645    0.3088713827535771    0.6908639911979491 O
   0.4802915780467105    0.0611234672929160    0.3084092282032258 O
   0.3143503999773721    0.6866620943719857    0.3025819367226893 O
   0.3166773461819195    0.6847861383950891    0.8050048604965988 O
   0.6431176158802483    0.1905113163456539    0.3103491200315148 O
   0.8539516153954481    0.4391501689139894    0.6964823721220448 O
   0.8543030089380127    0.4480229242411182    0.1985456928238735 O
   0.5190235526031349    0.9359763460411439    0.6938878882448448 O
   0.5207531496358373    0.9454988071108711    0.1956711239902661 O
   0.5188538211734219    0.4425383505106463    0.6921698471972549 O
   0.5187564357295974    0.4404501174136347    0.1907577016958982 O
   0.1867382087620108    0.9395440934590926    0.6967967562055325 O
   0.1826810905773699    0.9402684909125791    0.1910908060738019 O
   0.1859864500776036    0.4442131837817372    0.6930876853149063 O
   0.1838425565363457    0.4399584554242045    0.1898524433137817 O
   0.9823439693477864    0.6928619034464822    0.8078719318734972 O
   0.9816505987314919    0.6928354009577576    0.3037723758913155 O
   0.9805956439008480    0.1943329044909167    0.8085191687555313 O
   0.9802821977886587    0.1835823926075134    0.3066904354321325 O
   0.6455122588250961    0.6924408512353274    0.8030253164891772 O
   0.6469917474675775    0.6857564808122004    0.3110053456624819 O
   0.6455420519797861    0.1914122902893742    0.8056842454477091 O
   0.6832251336145914    0.3108293583190650    0.1901600627672170 O
   0.0157061900908420    0.8643585763876339    0.4545247991186770 O
   0.3587569538601776    0.8051077748124119    0.6932073642486530 O
   0.3545664539514130    0.3069285442606251    0.6940366982844437 O
   0.4982983476172173    0.8889061455973037    0.9473102641708905 O
   0.5083568902722124    0.8769908928487437    0.4530962914382797 O
   0.5041978497827971    0.3879684001801281    0.9460988162004519 O
   0.5070891828535439    0.3901309669297201    0.4470413478260666 O
   0.1663921591135714    0.8936014548173317    0.9466537183999973 O
   0.1692585202241977    0.8947840131278054    0.4448805791571626 O
   0.1681983275458583    0.3947277819562532    0.9437861484535709 O
   0.8503344233820002    0.3785508160909186    0.4548968311775026 O
   0.1724199532325298    0.3892874864056335    0.4506791885940530 O
   0.6667172947393096    0.8606951591412925    0.4447520540636713 O
   0.6730780299258153    0.3596736642655330    0.9506454351054113 O
   0.6819018835499661    0.3642792733554371    0.4538222529722724 O
   0.3385419894565144    0.8687271720836428    0.9527192634488817 O
   0.3475644145852970    0.8722772385796795    0.4596094371109705 O
   0.3489642529667383    0.3648144408857276    0.9557197400656378 O
   0.3363788908913733    0.3637876640124785    0.4478848821638930 O
   0.6835094901339813    0.8737389334780129    0.9607215956104632 O
   0.8494692668895610    0.3839473843695368    0.9551756266317551 O
   0.8337941302048655    0.8930910652338970    0.4459720904683682 O
   0.8314421041026889    0.8951447094288704    0.9426055721517551 O
   0.3538384488505666    0.3047574669867418    0.1892849151760876 O
   0.0214560931649551    0.8080949035604770    0.6952690684310138 O
   0.0189473462717482    0.8080259217577602    0.1917718658051600 O
   0.0183675042046483    0.3118523825317823    0.6921318262499887 O
   0.0219226087410334    0.3108718010214129    0.1945085616626935 O
   0.9871567763550141    0.6406632042050527    0.5488722018186281 O
   0.9932713553565348    0.6444411997908477    0.0525885781422569 O
   0.9980180454762645    0.1388705035851208    0.5520762276819885 O
   0.9940084954122478    0.1319022644449885    0.0467684544882530 O
   0.6680629906505606    0.6416858063713121    0.5562375493360827 O
   0.5774853714130106    0.2311569672885175    0.9390934558661820 O
   0.6479959946807730    0.1305384828906994    0.5418119239997906 O
   0.6541531924805866    0.1357194663843259    0.0487932303781996 O
   0.3154441635213485    0.6354031334144844    0.5467292736701775 O
   0.3160282908126650    0.6324465496380498    0.0458898771792862 O
   0.3230653618175439    0.1356039834590232    0.5492986293728144 O
   0.3186762150626193    0.1279344400709609    0.0428114631478991 O
   0.3579880525672490    0.8063457106584879    0.1904680173045208 O
   0.5812721299437441    0.2348415642905957    0.4385839379894207 O
   0.7193298417578626    0.9630532565281318    0.6028966483944933 O
   0.2509187431542538    0.7470311166933010    0.4426185708228268 O
   0.6152228001688955    0.5372936538798972    0.8968097308053442 O
   0.9485540896579741    0.0349411611262467    0.3982844077241333 O
   0.9438581688026751    0.0369152200186410    0.8956417587282421 O
   0.9499682834862893    0.5407139214543026    0.3967810145608836 O
   0.9481651731593440    0.5406606016925993    0.8947361577209356 O
   0.1123632879778456    0.2159086827438162    0.3926698323749788 O
   0.1145764754025385    0.2158775365488951    0.8967659547736911 O
   0.1206412951367981    0.7090508015615526    0.3992365257098826 O
   0.1187388066177651    0.7086839497643926    0.8997183617529798 O
   0.4507646783080654    0.2103619254592431    0.3951690237620689 O
   0.4444119428387878    0.2113256887544719    0.8953510684858723 O
   0.4492648417472893    0.7028513164701733    0.3950732512218327 O
   0.4514591902229960    0.7087518068808029    0.8943973866705206 O
   0.7804261722002568    0.2063835817299860    0.4010196760548132 O
   0.7807315660765072    0.2126500118239997    0.8978355347108262 O
   0.6157718990373473    0.5364272215168656    0.4004577465061220 O
   0.6132397119508062    0.0400029890636179    0.8933044104053318 O
   0.6125280611680451    0.0394702079451038    0.3938281213834034 O
   0.2811433315994744    0.5348798532315310    0.8965740071122941 O
   0.2486949424553714    0.7411517928106089    0.9425203068122322 O
   0.2188006235888560    0.2852147407868567    0.1007624072733232 O
   0.2175519500405589    0.2930467723539976    0.6038936260426370 O
   0.2195338872192436    0.7872507490893230    0.1021052855564039 O
   0.2214760459549530    0.7829029349493948    0.6032908025053415 O
   0.5477097531414088    0.2852873065835799    0.0999946359678560 O
   0.5524027718882327    0.2933098472319077    0.6009374327485202 O
   0.7840336254430086    0.7132897822961499    0.3947926068259023 O
   0.5497364797478902    0.7911111369487548    0.1033986080512653 O
   0.8825154968156073    0.2889357362407403    0.1054037610741951 O
   0.8831868415438742    0.2851665389449000    0.6047368460643754 O
   0.8866814434852154    0.7895778617647382    0.0995297100920387 O
   0.8857045634850903    0.7974219481576702    0.6033419205828872 O
   0.2835016809885034    0.0389264479806475    0.3955235727178413 O
   0.2805764046892744    0.0421020240890658    0.8913276349985614 O
   0.2807632263410604    0.5394209954908032    0.3935748361510675 O
   0.5521041766553698    0.7845893835262610    0.6063251256197565 O
   0.7822507245907152    0.7137753163580273    0.8932930988120789 O
   0.8524254149157056    0.9435776843984777    0.6923807445996550 O
   0.0512853693961528    0.4646831691109172    0.6014406885564737 O
   0.7564393199690779    0.7705450076129901    0.0668164353598642 O
   0.7555071085698901    0.7866812196588584    0.5617754554970730 O
   0.0790040016928653    0.0239611005617478    0.4322901281676796 O
   0.0752683001809749    0.0359530659533083    0.9416055676987917 O
   0.0808026882917346    0.5133273830838364    0.4475476550788072 O
   0.0781410927479327    0.5254436988790512    0.9416296507914212 O
   0.4177814069316200    0.0208944887480263    0.4419602024445570 O
   0.4099544487038203    0.0276026309328275    0.9475404580900206 O
   0.4148146470268775    0.5229556571247841    0.9405102768452754 O
   0.7425647830595099    0.0244385607978215    0.4476072525912319 O
   0.7440851252912966    0.0319744206135457    0.9371327044451145 O
   0.7485403954958263    0.5231947511665339    0.4333086478345909 O
   0.7480508712260672    0.5123431939894078    0.9389344666474451 O
   0.2431646944866181    0.2300415367615917    0.4404783442147183 O
   0.2485329114019786    0.2407520619955690    0.9416383032889183 O
   0.7497555561061764    0.2563602844781034    0.5582010382258916 O
   0.7513086528159300    0.2586074806319369    0.0583653486566021 O
   0.4133604422124939    0.5167890995795755    0.4404516990350967 O
   0.4191014707911973    0.7690255484783597    0.0608427670629632 O
   0.0506732617551290    0.9559470471813506    0.1034410053722788 O
   0.4199994546925702    0.7683381910780652    0.5641535587763128 O
   0.0526197956018284    0.9615717558236325    0.6073536428355802 O
   0.3832420187500720    0.4584278983780163    0.1020389966243899 O
   0.3859357226153923    0.4632688325143566    0.6029944942899639 O
   0.3889216449950690    0.9586147451814568    0.1044614914359708 O
   0.3853545783252552    0.9608906790231344    0.6094109452901574 O
   0.7170080247497441    0.4587475366300636    0.1042667310852579 O
   0.0488327678294239    0.4639750911287229    0.1013072222459972 O
   0.7229084549181296    0.9690157285422970    0.1082382444649802 O
   0.8550933049999370    0.9370409531430988    0.1897800166239908 O
   0.0881904167823252    0.2629731982924579    0.0539809423077177 O
   0.0869045393780950    0.2835540356226087    0.5573141694508451 O
   0.0884542150845289    0.7687139217230494    0.0606206188907310 O
   0.0894483839482344    0.7637872813441582    0.5636527377817726 O
   0.7177730301589264    0.4599518412558894    0.6049575531157464 O
   0.4167440788601797    0.2556658703381075    0.0584724596153699 O
   0.4225337264252503    0.2762681684923918    0.5595102825325403 O
   0.6752352727806197    0.4547910472029579    0.9001726204231366 Si
   0.0095992870144155    0.9556264837184264    0.3985396708401213 Si
   0.0102870007929269    0.9634593274710388    0.9025884352215618 Si
   0.3459140024668644    0.9613348566834617    0.4001052907943534 Si
   0.3453739185661277    0.4582275323319380    0.9015228162633204 Si
   0.0094379474536451    0.4588028581992841    0.8994540108915045 Si
   0.3429793053889282    0.9619446703482136    0.8998547036828884 Si
   0.6780941910642624    0.4578946055108116    0.4008041193914358 Si
   0.3419999956305805    0.4573393492740449    0.3986823969308372 Si
   0.0091407371044714    0.4566624650480269    0.3993633375340654 Si
   0.4901198498206642    0.7038404378457426    0.6019492462661247 Si
   0.8275208540989049    0.7078636241332917    0.1019420232697617 Si
   0.8229956751399705    0.2021104222271056    0.6007798471717767 Si
   0.8254668996183764    0.2034607450291182    0.1015164117828120 Si
   0.4906757397293048    0.7076752997165853    0.1015733116122788 Si
   0.4910987580239519    0.2105510849516796    0.5979337409845128 Si
   0.4902344273098441    0.1994123487820189    0.1010300249386178 Si
   0.1596744502635412    0.7060570989735623    0.1015264426187483 Si
   0.1539318333038503    0.2135341940924176    0.5964228240679140 Si
   0.1585661926810493    0.2022027763186865    0.1003931969055977 Si
   0.8227891113380671    0.7170054310165521    0.5976367903741906 Si
   0.1609964123089404    0.7034307239102197    0.6038931198198032 Si
   0.6750144566989071    0.9582251471409695    0.4010452261213968 Si
   0.1747975409545208    0.2954690927892912    0.3989679578910106 Si
   0.6764441942530832    0.9612536712683251    0.9005241300841882 Si
   0.9899344790576832    0.5454312181658318    0.6001877774753985 Si
   0.9911412107354083    0.5481609123595262    0.1011920194975760 Si
   0.9914212675370018    0.0438500163243253    0.6001585231906920 Si
   0.9895943122048855    0.0385441450867634    0.0970834372160492 Si
   0.6581267005602924    0.5445311589328012    0.5996623035459724 Si
   0.6550100888509267    0.5391010295313728    0.1009464364227240 Si
   0.6557441170624815    0.0410454535264982    0.1013277026519543 Si
   0.3228555942300986    0.5414173956969266    0.6004253770703875 Si
   0.3205195427254462    0.5381852947400561    0.0985010675788298 Si
   0.3228748268802841    0.0419553050741604    0.6008878496495608 Si
   0.6547393435041452    0.0394444787911774    0.5980204742271796 Si
   0.8412242237647332    0.7974263952635117    0.8985369655109305 Si
   0.8420868936158066    0.7983232237543150    0.3981162707914793 Si
   0.8440811194370026    0.2904522220863855    0.9007930501099198 Si
   0.8417134573047071    0.2855917802040782    0.3996229414203329 Si
   0.5088288071961180    0.7953119189823533    0.8994332782885877 Si
   0.5100113882036252    0.7847412619754065    0.4002536819825972 Si
   0.5061942568380127    0.2913411617485477    0.8984067411201577 Si
   0.5094178731535973    0.2946552704992886    0.3981761664372722 Si
   0.1746531424217171    0.7975749594682048    0.9015675613559172 Si
   0.1755368375943612    0.7970821354664787    0.3988061611061658 Si
   0.3259029844578910    0.0373059383004532    0.1001309251280142 Si
   0.1754060260678073    0.2970563377875235    0.8994607340580026 Si
   0.7434401790317672    0.1867537804558194    0.7623297263038140 Y
   0.0757759908719753    0.1859896212199491    0.2598596526856846 Y
   0.9810366455749823    0.8208446471304330    0.5624926632308043 Y
   0.4745098291141521    0.4257676382006228    0.0570283638755387 Y
   0.3119608036265932    0.3153872143405745    0.5594970360771033 Y
   0.1918360730378011    0.5714029183373572    0.4416193264974878 Y
   0.0221170659735380    0.6790325422273542    0.9386428227616741 Y
   0.4751555572920407    0.9250322758539132    0.5597293791206750 Y
   0.9719416185039145    0.3251053593393831    0.5561830121643767 Y
   0.7561844590761152    0.4356377834189767    0.2400626251704685 Y
   0.4222367559234615    0.4352434072711417    0.2366507827335395 Y
   0.5877873700619536    0.3142667517620453    0.7355676826281596 Y
   0.9091588164010963    0.5650600646163789    0.7612755487864805 Y
   0.5886539375902311    0.3115240715936061    0.2372845841675277 Y
   0.9109621043107828    0.0655709784093478    0.7631270056689026 Y
   0.9235663078773082    0.8158057762499312    0.7383482908959860 Y
   0.5729772096177459    0.0628550697415840    0.7605851208020645 Y
   0.2420488910404489    0.0635264248313847    0.7594568938072677 Y
   0.2555905226309294    0.3149311085434559    0.7373325588651201 Y
   0.1450785260685745    0.9230444996112512    0.5634669859231928 Yb
   0.8114285977009839    0.4295911617491889    0.0615468869289125 Yb
   0.8083982475335321    0.4234783179872286    0.5569358086403349 Yb
   0.0234122895077106    0.6815876609413930    0.4395992792825930 Yb
   0.3541042195855613    0.1821624152828845    0.4344964035448995 Yb
   0.3572052702103395    0.6752279074713970    0.4393145804818843 Yb
   0.3576968731395830    0.6768391424655640    0.9391057838094224 Yb
   0.2559174852905576    0.8144176446041816    0.2393506719188500 Yb
   0.5208801548297574    0.0703205352580815    0.9381711420151267 Yb
   0.8538333758224461    0.5723924072908361    0.9371792425343370 Yb
   0.2475617822993877    0.0630646145407056    0.2598009480660713 Yb
   0.9750139836066323    0.3228237358581461    0.0607041042729300 Yb
   0.9216402456972397    0.3137160234634315    0.2406669557255655 Yb
   0.5908342447705837    0.8131100245283676    0.2422282669782221 Yb
   0.7438343052525989    0.1844976193600483    0.2612772463591960 Yb
   0.7436641007982931    0.6863642525337483    0.2614365566600421 Yb
   0.2575823653653994    0.8124342325945942    0.7402527917485744 Yb
   0.6919872107874017    0.6755818598058376    0.9408249213651358 Yb
   0.1886911332871370    0.0752233445130387    0.9391545216014853 Yb
