Yb14 Gd15 Ho14 Er15 Lu14 Si72 O252
1.0
  -0.0027738095025137   19.6829976209714488    0.0039115666418953
  20.0555923451419922   -0.0028225102689949    0.0120591392306609
  -0.0066530541528002   -3.9316560798857978  -11.9936690590947777
Er Gd Ho Lu O Si Yb
15 15 14 14 252 72 14
direct
   0.8410310012089028    0.0356976379744852    0.3669357408780437 Er
   0.1749203685737683    0.0380225242246266    0.3681024391015528 Er
   0.1769782771576510    0.3698520063955904    0.3660666596022357 Er
   0.5112137767020062    0.1314967149801822    0.8667985522378033 Er
   0.9415190859940643    0.1095215714138578    0.6523959390950647 Er
   0.8240684465884319    0.9595578754800598    0.6366560752400824 Er
   0.6082697738096717    0.1121562260592753    0.6492100070179337 Er
   0.7275330509050657    0.2813665800432467    0.8553708450349411 Er
   0.4917277363546452    0.2997082839709367    0.6358701117618666 Er
   0.2786009162291426    0.3870355422368050    0.1486698654519995 Er
   0.8421434188378289    0.4628980422011332    0.8616621625404546 Er
   0.0555714511430342    0.5558500787271068    0.3518342088388394 Er
   0.8250261429568753    0.8688881116325997    0.1380543613487581 Er
   0.1738402706331643    0.7959163767110016    0.8626218371531439 Er
   0.4895303963471738    0.8730441476024055    0.1357303893669370 Er
   0.8238690774221858    0.2062744125108422    0.1413201063043604 Gd
   0.8408752619873038    0.7927248302658079    0.8626553078063438 Gd
   0.0548689347603985    0.8883134322527352    0.3493512396651974 Gd
   0.1744924511166533    0.7032102427193153    0.3586732037824252 Gd
   0.5076088663945082    0.0369861750476132    0.3658482735230328 Gd
   0.5100616172476493    0.7060240786030385    0.3647046962155015 Gd
   0.2773016448400317    0.0570554993885927    0.1534149469678601 Gd
   0.1569432367007421    0.5365735628527784    0.1345094948848818 Gd
   0.8417593869120052    0.3676683331878322    0.3662313328782907 Gd
   0.9447534827550551    0.3912633164259102    0.1488718555618678 Gd
   0.9446219782855961    0.0557840320999005    0.1510068614812179 Gd
   0.6081261207906539    0.7267076917774863    0.1448250159469633 Gd
   0.4896964675001069    0.2067303419773109    0.1429904685358022 Gd
   0.6131524170761734    0.0587052857730218    0.1553228150261931 Gd
   0.2758716766098857    0.7764598088096299    0.6495829611446292 Gd
   0.1574841902994291    0.9616973423398159    0.6392835089977944 Ho
   0.4887287119317143    0.9600858682615248    0.6357732669481021 Ho
   0.5058619668043892    0.7984619093501222    0.8611901039257498 Ho
   0.8428798351023277    0.1309700004250959    0.8651130373178084 Ho
   0.4927323170983590    0.6295319175596168    0.6372775685402612 Ho
   0.0603379077086575    0.2206858090929592    0.3588032903745844 Ho
   0.0584184770401267    0.6099652414860878    0.8468411188138416 Ho
   0.9417506190314829    0.4438759076820831    0.6471047564908702 Ho
   0.6076001868838691    0.3892130458325106    0.1466408489133632 Ho
   0.1580408688556427    0.8697370556900069    0.1321314737145636 Ho
   0.4916664267315325    0.5373511447337869    0.1342059694065143 Ho
   0.3923994121941115    0.5531389229699992    0.3523038416707120 Ho
   0.3927774715217793    0.6114410228788991    0.8517625364141861 Ho
   0.1738166248846722    0.1287637472336155    0.8639778757158917 Ho
   0.1580583546175239    0.2047393780875226    0.1379249008340184 Lu
   0.1786389921686471    0.4596090082316732    0.8631851283742176 Lu
   0.8220296201563246    0.5398305371982404    0.1307949052413185 Lu
   0.2744375503904171    0.4485592649198102    0.6451560984532922 Lu
   0.7274377531728746    0.5508280475905215    0.3533302714052802 Lu
   0.6051163580428371    0.4502703317543845    0.6428760181370713 Lu
   0.6051594499102404    0.7807476657927120    0.6477942010076284 Lu
   0.9366095219204889    0.7807660085198569    0.6396565822838265 Lu
   0.3955778880132100    0.2825633868252286    0.8564441843925072 Lu
   0.0608333358739237    0.2793843627207946    0.8557521137368314 Lu
   0.7272488703429674    0.9497964001095913    0.8583730052729602 Lu
   0.1558864949890448    0.6282104741215319    0.6328589879016934 Lu
   0.8242439229243285    0.6262913593575185    0.6323300048738877 Lu
   0.2736390773559131    0.7198940979811259    0.1425290947343668 Lu
   0.6100184177746226    0.9908895853043055    0.7883860827887341 O
   0.6027456154946005    0.6602041095087273    0.7811092363117913 O
   0.2761041759233749    0.3155823076197259    0.7880432777218201 O
   0.6066642956839381    0.3221131858351745    0.7889689083673550 O
   0.9448190971641129    0.3200188527085863    0.7899535710211377 O
   0.9422801062643981    0.6522083279107115    0.7831851762916993 O
   0.2679996411847770    0.9934739659187503    0.7821103719019248 O
   0.2707951926953895    0.6573829687453893    0.7798449579139060 O
   0.6228935551343281    0.3689689632000409    0.3324602327870220 O
   0.7253587722613724    0.4897169199255589    0.7127445838818638 O
   0.7265247290431580    0.1555422511022068    0.7174541605481028 O
   0.9331728854721061    0.9927472600816157    0.7793292602045347 O
   0.3962474933929728    0.8228112440304188    0.7134375116636065 O
   0.3890130004399117    0.4909824928242397    0.7107731304093434 O
   0.3967409272765927    0.1605207152555026    0.7208255495936576 O
   0.0564867021670244    0.8199251395550925    0.7114299306551546 O
   0.0620402764900793    0.4896272470367206    0.7173228395643124 O
   0.7215392272185440    0.8151168798445743    0.7047482152090608 O
   0.3049583807270108    0.2563434896846740    0.9731960016219499 O
   0.9743651578925017    0.2575520497137298    0.9724330987728084 O
   0.3043852702728312    0.9250529015062346    0.9675813020824345 O
   0.0274286110870318    0.7408531932055807    0.0258652373471916 O
   0.0340140890443038    0.4103085320671260    0.0313891112128058 O
   0.0304717794219471    0.0752551322145524    0.0337875736056751 O
   0.6984646613674579    0.7545115046523539    0.5180040367711323 O
   0.6962619552855550    0.4227742836557441    0.5331588587011521 O
   0.6959498569750117    0.0884415366120326    0.5369208270758773 O
   0.3618139439165670    0.7557193261843984    0.5283858200009935 O
   0.3608160226950768    0.4245455077332308    0.5327654645855474 O
   0.3033884258191097    0.5897751134276842    0.9626519100952835 O
   0.3625727826600664    0.0928293993508642    0.5369439597016420 O
   0.0332242864397485    0.4212771768130994    0.5363928502506005 O
   0.0275291249432855    0.0909794833432705    0.5351617460038950 O
   0.9694513232719506    0.9247396296401273    0.9648148750127137 O
   0.9708494185956003    0.5879409448439128    0.9682858416833822 O
   0.0606988928732282    0.1586521250095912    0.7157703941916700 O
   0.6383876169802760    0.9272646952099691    0.9700234907573202 O
   0.6352894165991285    0.5913176625605900    0.9657290327281368 O
   0.6387579976126955    0.2570044649785462    0.9703966985223688 O
   0.0264653627720294    0.7561018921557160    0.5274031889847204 O
   0.7289886550511347    0.6806700922085906    0.2142655806986914 O
   0.0655687407729017    0.6721875104686552    0.2118199836488174 O
   0.7314264930467421    0.0081505050019922    0.2167030992972622 O
   0.0416174888025659    0.5316384011064984    0.1653394842278005 O
   0.0476332327842331    0.2000196061908736    0.1680066245584886 O
   0.9565877118931855    0.6959728065323351    0.3315724184348423 O
   0.6224278725429493    0.1330981752804995    0.8366926563641700 O
   0.3651759027392800    0.0768329569500639    0.0277098048549166 O
   0.6245449418535176    0.4665474780925235    0.8274719652793824 O
   0.6192215709061036    0.8005638252695918    0.8314646800325700 O
   0.9550682891448841    0.1332452243029534    0.8382261275279699 O
   0.9583661974648260    0.4643321289268909    0.8344498745053593 O
   0.9558410702517320    0.7963910372582380    0.8278301732239571 O
   0.9581369617357571    0.3663387386277487    0.3383055045355361 O
   0.9548539972852474    0.0317208097437951    0.3409677046439104 O
   0.2877735522405699    0.0335505082632184    0.3425990534191483 O
   0.2890765539811567    0.3666159117442047    0.3361315277799507 O
   0.2895182393503732    0.6992895907468072    0.3288789812318426 O
   0.6240574396821624    0.0314621227670094    0.3412512939442910 O
   0.6219166440491217    0.6960870250451356    0.3307073766126138 O
   0.0440498153047515    0.8652041917405979    0.1586413281644088 O
   0.7271236601609871    0.3465183379633161    0.2102320478771741 O
   0.3752857046207894    0.1982963222385201    0.1657737301933108 O
   0.3794211907035938    0.8661100612011245    0.1595702630235087 O
   0.3907794966444792    0.6766395210636412    0.2111558087183967 O
   0.3927023795866540    0.3444641659022128    0.2091751319706972 O
   0.3953526362830991    0.0101588581558735    0.2127980432831970 O
   0.0666095560364749    0.3443387921180403    0.2164586487984760 O
   0.0640085863236559    0.0082708225538594    0.2185532096215361 O
   0.9353447446434859    0.8408157970577126    0.2853965933458491 O
   0.9410400188405291    0.5077148742469668    0.2852112931301227 O
   0.9416119193231121    0.1753843523135227    0.2918390688761994 O
   0.6021662144027784    0.8396840553308594    0.2836158570598883 O
   0.6098602868680612    0.5129682986510182    0.2884310712365047 O
   0.6032559727213394    0.1733813846646332    0.2893868086094487 O
   0.2648733286836765    0.8382001338073223    0.2789609771439928 O
   0.2713972234911113    0.5109124899745023    0.2854296967786628 O
   0.2655262555061839    0.1759204262370187    0.2815254386433435 O
   0.7109316398728871    0.8651960399139363    0.1603915566838817 O
   0.7111349696428582    0.5378892600922858    0.1650607803839713 O
   0.7104191815880604    0.1995925675163885    0.1658975056019411 O
   0.3775179962326896    0.5350339831384130    0.1628451352354477 O
   0.3618204395206921    0.4124717778437273    0.0294466635882522 O
   0.7589316978164686    0.3271008207107050    0.4497395668588356 O
   0.6976148280548894    0.0765024858035973    0.0335756024602560 O
   0.4984406405527789    0.0913423856859140    0.6778570951699689 O
   0.1609131017751813    0.7523508474993729    0.6736042003734271 O
   0.1682118903311997    0.4282036675598447    0.6774223889677246 O
   0.1617642806429071    0.0876969499821246    0.6766134770125993 O
   0.8327829846466486    0.9258665557551568    0.8274583110518362 O
   0.8383898639412988    0.5839626608142761    0.8168657462454650 O
   0.8379394442426666    0.2544001417426801    0.8356435732722290 O
   0.5040289022067612    0.9231312692725421    0.8241156436483092 O
   0.5004326525644134    0.5941063207324937    0.8227779535889610 O
   0.5022647251981471    0.2574152552647687    0.8305173929683579 O
   0.1707158642736971    0.9202040643309108    0.8267139491020793 O
   0.1689087769982608    0.5894080286117563    0.8201513443066618 O
   0.1685211640460119    0.2544902119469155    0.8348654172785182 O
   0.9084564859295328    0.6750007286947206    0.5556180385104101 O
   0.9103784041806117    0.3402385941738191    0.5555917358621368 O
   0.9073315573768755    0.0067092563888831    0.5512813628029913 O
   0.5769911991480483    0.6775776457648821    0.5547454653144042 O
   0.4974190330668091    0.4246734530623963    0.6695156435550110 O
   0.5764065926364497    0.3432685303494037    0.5602463003173441 O
   0.4970716285756335    0.7553637260182789    0.6692095037234005 O
   0.8329395188624396    0.4274735476804404    0.6762902183034621 O
   0.8384461139446262    0.2433525102679950    0.3313696587271420 O
   0.5034503421676521    0.9111704225447050    0.3259956202195874 O
   0.5014253901935133    0.5745171360546102    0.3234091317295984 O
   0.5028312953571540    0.2434720604803332    0.3305164335109403 O
   0.1683984709733622    0.9108333031403520    0.3264787072265302 O
   0.1670176965605903    0.5741172735944612    0.3295560523050314 O
   0.1685639499126211    0.2453484607943509    0.3288392437610901 O
   0.8285898300555816    0.7508377759783114    0.1637690985734416 O
   0.8300764760847485    0.4157644830089252    0.1699778522654407 O
   0.8320759207812201    0.0770890308976956    0.1762970380284585 O
   0.4944699677369347    0.7451715079128042    0.1693615488016838 O
   0.4969937853077048    0.4145280866698545    0.1673654979528166 O
   0.4979316492244814    0.0778789667476204    0.1733074760623065 O
   0.1647115443495093    0.7407118351994465    0.1614812269844217 O
   0.1685196538259885    0.4093598520297400    0.1725476005847400 O
   0.1634941136622910    0.0790650404653902    0.1761005800075296 O
   0.8309407179576462    0.7528720007295865    0.6679856304752251 O
   0.8311623277159289    0.0896832651914081    0.6779668298785099 O
   0.5756811440187422    0.0075071413627101    0.5575551929709398 O
   0.2382182376144103    0.6720603485454921    0.5497685416171086 O
   0.2441516673300000    0.3436563582538027    0.5541733615518583 O
   0.5718389331952392    0.8307074018388588    0.0461104065303650 O
   0.5753895162039695    0.4937880874399077    0.0542161130406138 O
   0.5738377188369180    0.1610856296269036    0.0491304190877072 O
   0.2421908684911717    0.8248541281309902    0.0482607421135473 O
   0.2425562209784503    0.4916215170572069    0.0463882381785160 O
   0.2374982407050550    0.1609616425793232    0.0518007985121568 O
   0.9694283260938243    0.9083739438182662    0.4685526207256120 O
   0.9677102468517457    0.5785548837474849    0.4626044781030145 O
   0.9725408365667646    0.2419649547745685    0.4748898141714148 O
   0.6372250976347371    0.9107472039771033    0.4700704506654360 O
   0.6366111972901999    0.5805599921053618    0.4666044125384105 O
   0.6367739562108088    0.2449738668778181    0.4728678227924484 O
   0.3033384903843396    0.9066692244471319    0.4663187907231902 O
   0.3030181864859902    0.5767583716496267    0.4683439858193171 O
   0.3019998835541716    0.2424734971906634    0.4724458914595213 O
   0.6932564184222787    0.7449646533274077    0.0295266211828527 O
   0.6948742562611310    0.4127426017043166    0.0273699893586747 O
   0.9098500378625718    0.1608161593721982    0.0519170222833181 O
   0.9055335221529091    0.4923921142318481    0.0461237993695129 O
   0.9051681195117006    0.8278635945292709    0.0459105504989631 O
   0.0943094673239530    0.3257161603154411    0.4474278407494234 O
   0.2379318423160002    0.0038175905294768    0.5457311310883394 O
   0.7539702943106522    0.8449615720733312    0.9445511158498282 O
   0.7615115871527914    0.5080477985202710    0.9514468229596315 O
   0.7586477367985364    0.1755830189583768    0.9495516415440779 O
   0.4255920519538572    0.8390489238290576    0.9511911245419570 O
   0.4240564572748912    0.5091698095207325    0.9479357578308423 O
   0.4243947085229366    0.1780330359493820    0.9472634669564303 O
   0.0934576785853071    0.8372681569104471    0.9483983798488823 O
   0.3590864745591635    0.7419453131910290    0.0307612072548970 O
   0.0953913314448874    0.5060060067136447    0.9442617494024100 O
   0.7617962088570444    0.9925906155220351    0.4567522188451349 O
   0.7599182771871398    0.6532692660885355    0.4447477975119071 O
   0.2870367151222541    0.8003205122627438    0.8373295760541355 O
   0.4254616251590218    0.9943166599203198    0.4557790371011273 O
   0.4250988134312594    0.6576081506192433    0.4488065782258983 O
   0.4258965605662758    0.3279072288359097    0.4572645746219345 O
   0.0920112822367742    0.9931137016560707    0.4539402970046524 O
   0.0919705302165878    0.6581382658928882    0.4507123003052577 O
   0.0910915448060572    0.1757047682307724    0.9533386352570193 O
   0.2880025643943452    0.4642781913140544    0.8307128455691408 O
   0.7435578253823970    0.7250714355689603    0.8654203729590004 O
   0.7115592693891156    0.9623212369119024    0.6708414232752159 O
   0.1124127124903616    0.8652274428310593    0.5513452089527808 O
   0.4467169689713080    0.2031006797453790    0.5563469659154702 O
   0.4444957685661338    0.5347849535865055    0.5490897446636082 O
   0.4459371406760476    0.8670460149812479    0.5481814610103408 O
   0.7787795536327232    0.1987038441706133    0.5511570786633029 O
   0.7770134335605225    0.5342358595717671    0.5459426612322559 O
   0.7796728468144792    0.8653555175748653    0.5511205383857949 O
   0.2210700620703511    0.0340371893754074    0.9522199742713252 O
   0.2242376199703927    0.3677209881107723    0.9481072198301879 O
   0.2216725754360890    0.7002645099260895    0.9497282067728140 O
   0.5526557338771610    0.0358360091306570    0.9478049343980391 O
   0.5561428590301017    0.3667725954311554    0.9567264146601643 O
   0.5534668966603468    0.7035140942598841    0.9487332611173365 O
   0.8885556938760315    0.0355497277975348    0.9528647815968917 O
   0.8908516957971518    0.3679611453898218    0.9495586331012699 O
   0.8856115527050470    0.6959660323364337    0.9429428839197681 O
   0.2603299056821257    0.2244810337715318    0.6488029985145827 O
   0.1090678791193591    0.5355961073977347    0.5472460927738599 O
   0.2528268779309088    0.5552790844438337    0.6356856641109978 O
   0.1138479738012055    0.1989276589373420    0.5488530836829739 O
   0.7784109937058031    0.6337748758746045    0.0538764631080078 O
   0.2859286038664711    0.1357142838562932    0.8391649127533289 O
   0.2187279326403341    0.1329103582486494    0.4518847253380739 O
   0.2226172356457090    0.4648692001703097    0.4542757954391020 O
   0.2198849780798051    0.7991712435118024    0.4521747125010803 O
   0.5560650425509268    0.1338594513094841    0.4603354943907264 O
   0.5571195660279002    0.4687889471326616    0.4566254942464721 O
   0.5579186418954766    0.8008570990576002    0.4573675148119761 O
   0.8885086298135805    0.1308781625194156    0.4553364996868823 O
   0.8919566359834569    0.4648636884970831    0.4549748531113150 O
   0.8844065456156589    0.8003733162372495    0.4540773797529313 O
   0.1138244806652297    0.2979433331876851    0.0482932291863838 O
   0.1093267780986056    0.6305560783611033    0.0387316405995799 O
   0.1148857215363727    0.9656004107991634    0.0524394468355603 O
   0.4439981997082901    0.3026612087654760    0.0442519655560308 O
   0.4440303609515978    0.6329010210082182    0.0468048996237416 O
   0.4476501631440746    0.9666716741688521    0.0478078527484865 O
   0.7800717835287931    0.3031503625590303    0.0478841665818768 O
   0.7804107502314868    0.9661634314330861    0.0475978900092562 O
   0.2576734634029570    0.8893492376769678    0.6413494318534055 O
   0.8357492571803165    0.9118373234067998    0.3249079816372460 O
   0.5907709359379383    0.5591953265451585    0.6373005626142249 O
   0.2541613521270386    0.2784061348063837    0.1392364331526712 O
   0.2555711547700165    0.6112149751457410    0.1322576161997799 O
   0.2583939201932642    0.9420569882019635    0.1404518810918109 O
   0.5898832133561022    0.2780262521141368    0.1406915981540776 O
   0.5881154707014149    0.6126320037112902    0.1352606729879821 O
   0.5924346792570682    0.9452269085338368    0.1435497890967352 O
   0.9273321081019834    0.2778996479758422    0.1436130895043645 O
   0.9191717362624501    0.6071200653214128    0.1384656857141941 O
   0.9261607737359938    0.9424480310647945    0.1426405252053395 O
   0.0440616369398094    0.2967705560934456    0.6736807246384633 O
   0.0457268559209899    0.6309306204791818    0.6600940482297192 O
   0.0447159721279426    0.9654325571772800    0.6623627160241409 O
   0.3795101322515746    0.2990939863711035    0.6691389082744034 O
   0.3758434579981407    0.6333103928149589    0.6643202503636970 O
   0.7111257121070561    0.2984696355106982    0.6726469496385190 O
   0.7152886529545277    0.6346759439245202    0.6599439537855220 O
   0.5886535848789221    0.2233931298874665    0.6412214988236362 O
   0.7394043068689680    0.7696853434983110    0.3403486606586108 O
   0.7444786624946734    0.4450591029997828    0.3646452997123816 O
   0.3765026454733881    0.9669259107311396    0.6591188798339189 O
   0.4119403173385557    0.7759161818044417    0.3610278445816177 O
   0.5878771560056510    0.8882429093308987    0.6389772792993283 O
   0.7433613338414391    0.1066515498603341    0.3614192050670967 O
   0.9223405079738933    0.2190192612409211    0.6400690670748801 O
   0.9218255099491618    0.8891422488769667    0.6382691542939868 O
   0.0758697020738550    0.0593381261548006    0.8593456500921930 O
   0.0819231686491487    0.3873539411479285    0.8627376680753086 O
   0.0791400091841342    0.7203739311367343    0.8597116861288199 O
   0.4062379746981137    0.0639670656586591    0.8474202563141388 O
   0.4085512847065826    0.3888848391868225    0.8589422743241313 O
   0.9227889934136697    0.5553144559516077    0.6339935278608251 O
   0.7451510715813228    0.0569418568093693    0.8649578737498089 O
   0.7477059475987740    0.3906062907738839    0.8641008515218366 O
   0.8325780506466168    0.5693317430867373    0.3200183831219024 O
   0.0751444176546180    0.1091666296088400    0.3634482767695535 O
   0.0782032443267528    0.4449762047941882    0.3637778349595243 O
   0.4070845401204717    0.4447714542316181    0.3606343028661272 O
   0.0759108874559050    0.7756631820102450    0.3592022630430369 O
   0.4070367350844109    0.7231203242353879    0.8599385607603809 O
   0.4071004698953952    0.1096880903367179    0.3616060591334478 O
   0.0950488424373856    0.4719754763578533    0.6169362816277136 Si
   0.0910298411326007    0.8015652308714996    0.6135174045818041 Si
   0.4280593350189195    0.1386825609778362    0.6179295021846412 Si
   0.4259758728641734    0.4714037175526903    0.6155840528970056 Si
   0.4266086738138375    0.8034379118664122    0.6104645468733192 Si
   0.7603496513933281    0.1370691316002244    0.6176492123019625 Si
   0.2399630336350925    0.3005047835867106    0.8876989511190337 Si
   0.7591937140582301    0.7999385394887101    0.6088426307962364 Si
   0.2389757760249421    0.6377448737968417    0.8806440515911019 Si
   0.2389792070458536    0.9705843467962567    0.8847108855736444 Si
   0.5737243416067378    0.3046321001950744    0.8894867770667529 Si
   0.5725862892384448    0.6398791810562959    0.8828184915795479 Si
   0.0940747836667732    0.1372028614269839    0.6164481202325035 Si
   0.5730180638682859    0.9719722398505157    0.8841330405303021 Si
   0.7598766468857338    0.4711867659659438    0.6146620366709968 Si
   0.7615089583366026    0.7010230653983317    0.1110975053168599 Si
   0.9033386142619796    0.8621782907988367    0.3859231501678083 Si
   0.7625440485145007    0.0287421692036704    0.1155775529850745 Si
   0.9087319028651100    0.3026512252235105    0.8868170941477751 Si
   0.2382258770207453    0.1958117149353991    0.3864898858283667 Si
   0.2393023760650331    0.5283707191675689    0.3871143305311448 Si
   0.2380479962205401    0.8614291897959133    0.3828373257492679 Si
   0.5728948620525611    0.1970321408972843    0.3904933602061796 Si
   0.5743528884080260    0.5300313129629689    0.3867498865153775 Si
   0.5731912706830026    0.8636514667488847    0.3858939113615258 Si
   0.9077263176981666    0.1949976720263330    0.3913161336296537 Si
   0.9059006606134423    0.5271330648796403    0.3828376661413151 Si
   0.0954798692948481    0.0283866009723493    0.1168894816416843 Si
   0.0975541075828360    0.3621151312737680    0.1143477337917062 Si
   0.0922471303032460    0.6939396159778980    0.1068525724119238 Si
   0.4283165686286359    0.0293602607461266    0.1124821450034831 Si
   0.4271661617383251    0.3661995431392845    0.1125687411554905 Si
   0.4248301887004975    0.6959035237579098    0.1125493665989563 Si
   0.7599049857634810    0.3672550008159456    0.1113012164080370 Si
   0.9066429533552428    0.6329731810904955    0.8799803517805608 Si
   0.0346156020415073    0.7754333895476084    0.9086783667713724 Si
   0.2997808174536225    0.2801965248134768    0.5889247769613021 Si
   0.3670970186126639    0.0561782324629711    0.4200697716267779 Si
   0.3681050626364846    0.3889761865113926    0.4163477378779431 Si
   0.3679660741197467    0.7216976590138664    0.4098712835497962 Si
   0.7028359078006405    0.0537919612180840    0.4203145687436025 Si
   0.9051477751341167    0.9726156571607797    0.8834478723015200 Si
   0.7024142004284484    0.7149051573078895    0.4061704736911430 Si
   0.0328104869484135    0.7206307554485950    0.4106766645940746 Si
   0.2975096780215186    0.2225506917452149    0.0901104007539189 Si
   0.3004960765471920    0.8883172220639985    0.0843748142407911 Si
   0.6327040285041953    0.2235536982111603    0.0887006229286882 Si
   0.6315523243156161    0.5574684437545566    0.0847495663938967 Si
   0.9687959275883385    0.2230491434337311    0.0895302342092825 Si
   0.9633386556032631    0.5550139814256276    0.0851382432979009 Si
   0.9649077622737595    0.8885589075682274    0.0817086870686733 Si
   0.2991142722522260    0.5560160183775106    0.0819213186592137 Si
   0.0371300798359956    0.3886694118425560    0.4161271778566573 Si
   0.7009997534645469    0.3887424824601314    0.4143094489191337 Si
   0.6982013246276606    0.7798738054932818    0.9110539025846439 Si
   0.0333762244793641    0.0552398320737183    0.4187122542071235 Si
   0.2980272769437550    0.9432325243815128    0.5826786790138997 Si
   0.6326157102620331    0.2795625516796091    0.5912808774585784 Si
   0.6351182116216527    0.6140360750161856    0.5874339965338871 Si
   0.6322879136561492    0.9429750581598438    0.5901534588709429 Si
   0.9655553046791248    0.2760512778047174    0.5932246717596432 Si
   0.9650408613893268    0.6117416744388187    0.5839189807067718 Si
   0.2972920017118684    0.6101623384194296    0.5869038904185993 Si
   0.0342510730530078    0.1117317493990167    0.9164493642803062 Si
   0.9656881699306091    0.9437506114758006    0.5874423987401717 Si
   0.7024008197524038    0.4467044496145469    0.9098388477660835 Si
   0.7015975179904328    0.1119600639275164    0.9149759654679455 Si
   0.6329181790645876    0.8911387438174413    0.0861972486862729 Si
   0.3681006823796916    0.4454275050904749    0.9106244359310107 Si
   0.3661265356645017    0.1156888482672061    0.9120021751037100 Si
   0.0375805653302288    0.4426706144057180    0.9107153067271567 Si
   0.3662423222060841    0.7781400589094375    0.9153246284558854 Si
   0.3919065734933930    0.2248318853635324    0.3567263332942976 Yb
   0.3906054136295686    0.8892286908792219    0.3505109030029026 Yb
   0.7249586561383352    0.2218975856884486    0.3603673084349002 Yb
   0.7238781932116953    0.8904791461312302    0.3518466441664639 Yb
   0.9404158068552315    0.7217078958899951    0.1442240299964807 Yb
   0.2750847733651252    0.1040360361443598    0.6521724729931959 Yb
   0.3898888353346017    0.9436340372776157    0.8493573528170352 Yb
   0.7259969649071895    0.6113360791730815    0.8497191756112361 Yb
   0.8227367743755419    0.2958563626644912    0.6359340945852543 Yb
   0.5113231350312899    0.4633968884383389    0.8647672026490066 Yb
   0.5085657081193393    0.3703305561400603    0.3664944591670641 Yb
   0.8477526482390852    0.7003750342220764    0.3623557852251332 Yb
   0.0581564968952331    0.9442747409520346    0.8533032163130790 Yb
   0.1551977461290659    0.2980480449015077    0.6373224728291875 Yb
