Yb14 Gd15 Y14 Lu15 Sc14 Si72 O252
1.0
   0.0116039374442871   19.7409088858663999    0.0212262383656455
  20.1127159304506620    0.0118205877302278   -0.0025906945414441
  -0.0007660943380052   -3.9537549510676810  -12.0292776347269630
Gd Lu O Sc Si Y Yb
15 15 252 14 72 14 14
direct
   0.5932017198914581    0.0411898189946708    0.1517157026881164 Gd
   0.8151385249898678    0.8675241966337192    0.1328807790556774 Gd
   0.0668425916367192    0.8812566264074085    0.3540350508400487 Gd
   0.3897514449403662    0.2205687536764191    0.3486436936747511 Gd
   0.1531888607434040    0.9622485509129848    0.6304840138286926 Gd
   0.4921849065795542    0.9663331710831975    0.6444073493660295 Gd
   0.7249603526221533    0.2182771341094981    0.3562125188205458 Gd
   0.1528648896475144    0.5379565286002295    0.1330060406379530 Gd
   0.8265047329717146    0.6293149217992309    0.6373148362411994 Gd
   0.8477385242327389    0.3757706532756714    0.3744716390397703 Gd
   0.8523072058067545    0.0399437967279471    0.3704150326307861 Gd
   0.1863943034480644    0.7949843995079258    0.8681011416825095 Gd
   0.5165104643950649    0.7926393813792162    0.8738229362378092 Gd
   0.1864706202378357    0.7060594153262026    0.3724728774633241 Gd
   0.1771931968236377    0.3715588282318310    0.3630898654632693 Gd
   0.8152371572588988    0.2983065930952934    0.6320569077124848 Lu
   0.5159612585850244    0.7053767150422487    0.3706514205995490 Lu
   0.5172265189979162    0.0418954452074971    0.3817360673220224 Lu
   0.7297821910269509    0.6180535205969343    0.8502933182264895 Lu
   0.8524663036464002    0.7087056013783696    0.3736361154621242 Lu
   0.1469927682925986    0.2074973324372574    0.1243827031544143 Lu
   0.4687194916000358    0.2082529490951157    0.1145388896235156 Lu
   0.4892577100736731    0.5333564883687658    0.1405194420400752 Lu
   0.8561607024476582    0.7895729701775817    0.8734884591587970 Lu
   0.0715106635779663    0.2903204820292153    0.8528330488095298 Lu
   0.1526736455866637    0.2917226108967224    0.6290801737255289 Lu
   0.2695409174940877    0.3850201208505382    0.1444890587091330 Lu
   0.2702677930946780    0.1193048594787305    0.6404469880343646 Lu
   0.9316354009468450    0.3763839216930960    0.1506829778285809 Lu
   0.5989800397978531    0.4539187981062308    0.6448665255255849 Lu
   0.3860517930133861    0.6733865166069221    0.2097208484394353 O
   0.6310691132603046    0.5729839198258698    0.9736967018656278 O
   0.6286860781351393    0.9019194333202234    0.9760115443519493 O
   0.9506548815469347    0.2337550016103783    0.9651933559682597 O
   0.3830013378050241    0.3488179889363802    0.2093751890383508 O
   0.3545915620342671    0.0218639721189053    0.1707097069695450 O
   0.9582371537728778    0.5722824463171043    0.9808790115353161 O
   0.6165421786712684    0.9783929163517814    0.8028379392882666 O
   0.9665258880883038    0.9083498064468536    0.9694813535329116 O
   0.0401250980037418    0.0782534066891015    0.5137090530597611 O
   0.0309494282268650    0.4207725233107501    0.5378781476804650 O
   0.0319433065398314    0.6829026505055356    0.1793811875649685 O
   0.0339722604563422    0.7496817875324648    0.5142245775440886 O
   0.3659103867570233    0.0871431168511924    0.5223168232084278 O
   0.0492637603919351    0.3479366026202286    0.2035396309808073 O
   0.0300102245743625    0.0200585530586596    0.1756878469869493 O
   0.9453798867990558    0.8482771797629084    0.2945075738319169 O
   0.3638157247745513    0.4207193273166193    0.5344715345606994 O
   0.7123105637598555    0.0140682619848969    0.1985920630388006 O
   0.7000214333409381    0.3449240000349093    0.1871946431047268 O
   0.7030117863602030    0.6865583142918694    0.1897865628437893 O
   0.9619001776560820    0.3178904021367507    0.8137895116665153 O
   0.9487164286692992    0.6478650136606453    0.8053513368236878 O
   0.6179333333378992    0.6497752353675319    0.8034195220798566 O
   0.6396095324390288    0.3101894897868843    0.8340598533575266 O
   0.3004029552906687    0.9811031601942770    0.8186942603359479 O
   0.2794568945772981    0.6487032190870036    0.7895715153089383 O
   0.2783203260334779    0.3283963796889761    0.7811704691509935 O
   0.7199391272333850    0.8226584499221006    0.7050972630390994 O
   0.9471239392262735    0.9876166244410948    0.7937502413857753 O
   0.7150073182713148    0.4864933728856993    0.7054228685168944 O
   0.5982402005079634    0.2279106333577770    0.9611478965854207 O
   0.9508572747029934    0.5145746995384703    0.2926085831351316 O
   0.3937703735839611    0.8185286692248361    0.7171258825678772 O
   0.3867152997147568    0.4938183648120948    0.7092909454137181 O
   0.2941011327822591    0.2503002528929206    0.9603578071977443 O
   0.3069434821338935    0.5839117539251886    0.9736592195332169 O
   0.2912621814529472    0.9044847827921527    0.9794518023976611 O
   0.3800153896792929    0.1547255964735907    0.6973388638312554 O
   0.0376224888223730    0.8140424922604642    0.6874464618488526 O
   0.0606814214763998    0.4930079942637486    0.7205298493770018 O
   0.0377241197131527    0.1477825336693716    0.6814274631275938 O
   0.7058456795066914    0.1523057372674504    0.6940979487733352 O
   0.9503593066662676    0.1782010319095585    0.3043955469358304 O
   0.7571422646658703    0.7253197081350560    0.8604799195265402 O
   0.6080218665275681    0.5086755687340261    0.2920766232455179 O
   0.9563984754060220    0.7958904438656951    0.8229877009941510 O
   0.9582605784561742    0.4661072631877192    0.8304406234327778 O
   0.9624394561212429    0.1292507987787474    0.8208331753658035 O
   0.6286354826193546    0.7971052590075384    0.8264051251858888 O
   0.6274870924467147    0.4594224177090120    0.8273710575561961 O
   0.6280572307968401    0.1252611927874406    0.8205918699063293 O
   0.2936933031591318    0.7933572630244187    0.8367071560103668 O
   0.2860247549811260    0.4705558069651042    0.8389146604469052 O
   0.2971219607684695    0.1277264318613324    0.8277829587279022 O
   0.7137312342803710    0.9687279988566654    0.6673927650298970 O
   0.7117826120964819    0.6324781268534725    0.6694190264860770 O
   0.7078482537723647    0.2991235401303186    0.6719774953052888 O
   0.3796680557718521    0.9674968349422517    0.6736719986794096 O
   0.3790153547608094    0.6286401131589601    0.6678799497674788 O
   0.3741593569235148    0.2998948327127545    0.6508072293827851 O
   0.0464788094756349    0.9662290127810594    0.6667170075825016 O
   0.0471175332061397    0.6356125989402962    0.6630376688584024 O
   0.0428402025632190    0.2964722680612169    0.6677155312089949 O
   0.9084437930915952    0.9359541945676707    0.1260797705242482 O
   0.2863990726229880    0.0348767613211590    0.3313262876743899 O
   0.6166740002854916    0.8495237418033542    0.2969544910646193 O
   0.2914768677731613    0.3690666273387757    0.3325307231182470 O
   0.6250052454769108    0.0314812207006743    0.3425676029799675 O
   0.6155959995364146    0.1750191242191617    0.3090479033697603 O
   0.2857995668947311    0.8427527891609138    0.3025351376553969 O
   0.2711193788658638    0.5040154591164481    0.2837140662732955 O
   0.2709280851620487    0.1793770745760713    0.2794360938642370 O
   0.3684687638373130    0.7533895856063246    0.5304491009953036 O
   0.7087361511914260    0.8670617371686306    0.1754364294423850 O
   0.7149632094935139    0.5374252241069775    0.1691173658025447 O
   0.6991347024681326    0.2009038417985644    0.1612545859994827 O
   0.3739585262412694    0.8696864449268306    0.1786579901432290 O
   0.3794538638850645    0.5287184039902175    0.1657381206488406 O
   0.3690000009660624    0.2079200704679023    0.1594600259745512 O
   0.0403279649561111    0.8713378882854478    0.1697978089380312 O
   0.0401821072524817    0.5356767718210488    0.1758551548623609 O
   0.0415975754699763    0.2033671623843373    0.1646610988424245 O
   0.9548906317864954    0.7022552989748648    0.3224719057007441 O
   0.9585115977381952    0.3699245668228471    0.3367356859157702 O
   0.9592328663489198    0.0346665391396449    0.3196218863918653 O
   0.6269615671549222    0.7026984380737955    0.3326292285545555 O
   0.6211358973840291    0.3687712832780343    0.3259371119726146 O
   0.2967967401329026    0.6986577875470191    0.3376766732410348 O
   0.7022077694444288    0.0852532139876001    0.5263641768554336 O
   0.6397896827662306    0.5809987927706500    0.4702546969541777 O
   0.7044821892869031    0.7533069523189689    0.5265720707317575 O
   0.1634376934595059    0.4202240517193426    0.6853408558891700 O
   0.1648406355864242    0.0955665963850004    0.6770981635841148 O
   0.8398337347411624    0.9238432256100541    0.8206247027536152 O
   0.8348725278824929    0.5909674628571594    0.8259167126526210 O
   0.8350312703755876    0.2703363747051444    0.8092315290125945 O
   0.5024484778933833    0.9243630778456950    0.8275737569691334 O
   0.5032996572023447    0.5900480092684720    0.8282552082009804 O
   0.5019945363600623    0.2827793114320246    0.7910413464888031 O
   0.1754061663007520    0.9294662997496496    0.8151326809805878 O
   0.1740980700188622    0.5826788668439755    0.8281061001974694 O
   0.1702521797465608    0.2622014331727807    0.8075418692356443 O
   0.9121354343650598    0.6867663705064890    0.5572124777179830 O
   0.9042362024133809    0.3466421210729721    0.5672689470876827 O
   0.9114709585229643    0.0189726299765189    0.5666007291473513 O
   0.5798311418198258    0.6803895644595174    0.5511133486503070 O
   0.5708970306496299    0.3488929305117431    0.5755627312959272 O
   0.5789281698497429    0.0172056695910342    0.5628882115307181 O
   0.2446381564940487    0.6741334705288763    0.5545405185132691 O
   0.2361696311856994    0.3416665392781659    0.5512581060331552 O
   0.1612269117595413    0.7589025948539189    0.6787800022566322 O
   0.2452242388935942    0.0161407632705974    0.5586829749582025 O
   0.4979209407053149    0.0946732960135169    0.6742124417470380 O
   0.5010401371141175    0.7565561585920551    0.6795043692800615 O
   0.8329549969315742    0.2383880337762904    0.3158015302870960 O
   0.5051514531497665    0.9161450348916607    0.3311097639190634 O
   0.5065337156706886    0.5825811425120674    0.3219049253146956 O
   0.4976864979958938    0.2383457014936015    0.3131336400290507 O
   0.1739393363320818    0.9143426989880985    0.3201393166934790 O
   0.1715223294594387    0.5744322021711675    0.3266456689448505 O
   0.1654573993734911    0.2430592067173150    0.3139695795852293 O
   0.8289350130235974    0.7364679335997475    0.1864459145342704 O
   0.8292917395973662    0.3865956603490137    0.1854558981834201 O
   0.8285837634731311    0.0713249384527742    0.1786477840454645 O
   0.5004819984336557    0.7324926643924209    0.1901701967126841 O
   0.4940066635523231    0.4103581599962084    0.1753309685596215 O
   0.4901564561590866    0.0552786512294312    0.2038881385146809 O
   0.1617103892785099    0.7303059251390552    0.1823094300822460 O
   0.1631051510604876    0.4048376491586582    0.1716413551675555 O
   0.1607391068389076    0.0717114130393628    0.1958118610126191 O
   0.8340675796706156    0.7608345546601608    0.6834595835522256 O
   0.8257288638141167    0.4179459278377435    0.6827132785727545 O
   0.8301738900007967    0.0963623059020714    0.6792131397730318 O
   0.4978350094343576    0.4271383291639070    0.6817825191671845 O
   0.6949427554948829    0.4209341850469979    0.5240648898906081 O
   0.7681173365331578    0.8460602500736855    0.9325826349588596 O
   0.7615676930329024    0.1843263142796903    0.9292236957936422 O
   0.2335396545835141    0.1564913633990540    0.0545409731296698 O
   0.9656579749662185    0.9245614016453371    0.4684507034815291 O
   0.9676686876509586    0.5890882730448456    0.4629770944641461 O
   0.9607767128948221    0.2551939969393538    0.4718528498682318 O
   0.6388949463309229    0.9171710603450378    0.4731779821636518 O
   0.9051108108611915    0.6051858328632456    0.1349258333592653 O
   0.6234941406797659    0.2555909317928580    0.4740642365559481 O
   0.3050925323109590    0.9168886016673554    0.4753063937195984 O
   0.3056630542174844    0.5766059633198251    0.4686185197956201 O
   0.2964084090940972    0.2465822309544858    0.4614451167077750 O
   0.7096093371621890    0.7611580535418888    0.0248196558423512 O
   0.7076343759681220    0.4223086267762028    0.0296279050743262 O
   0.7063123731353628    0.0909245332579820    0.0219310342776077 O
   0.3720321383716810    0.7485643605234951    0.0373579926750067 O
   0.3609494864923256    0.4131619814518940    0.0267960661656698 O
   0.3896481211129214    0.1024835719973266    0.0325042935954991 O
   0.0409964431437236    0.7585594437915157    0.0214086124399680 O
   0.0334652985364694    0.4193799493460443    0.0258016901560616 O
   0.0472791748399365    0.0984312478512982    0.0237576561319456 O
   0.2412119460590186    0.4852682087395687    0.0496827579345402 O
   0.7608354174238683    0.5172290295039368    0.9401576759751525 O
   0.2385001901991099    0.8136635753023571    0.0698156852831880 O
   0.5778262556218829    0.4800696270117217    0.0736311890785738 O
   0.4278458633171367    0.8456183765536633    0.9435229700498148 O
   0.4278775124721604    0.5101287208111629    0.9574010180399011 O
   0.4318601954838168    0.1872217805016635    0.9253331405755509 O
   0.0942787695252208    0.8479097839388990    0.9234841195146370 O
   0.0963814519025481    0.5118810232948046    0.9432058188275831 O
   0.0955121373721658    0.1882898804211553    0.9248610025588928 O
   0.7645026744509406    0.9899574290509509    0.4460961881368323 O
   0.7667589560088409    0.6574457900207328    0.4419256338148297 O
   0.7566430668082841    0.3233538520495695    0.4467424846145868 O
   0.4270891308831645    0.9919021285269878    0.4385665093945497 O
   0.4345074924540021    0.6580703510824137    0.4489851301116905 O
   0.4252819767768643    0.3241615939568277    0.4494426927948312 O
   0.1004940466406373    0.9903165529683488    0.4235042343748885 O
   0.0934511442788668    0.6542964315090510    0.4325451422600473 O
   0.0909539883309510    0.3213973953030675    0.4512213035479879 O
   0.9082798582573510    0.8131260149049293    0.0616651583096577 O
   0.9017282524855069    0.4809614401255526    0.0732253110032239 O
   0.9066952989851371    0.1442559461362936    0.0752164615579091 O
   0.5758664504877335    0.8072050400598831    0.0718391460715072 O
   0.5607439091528672    0.1469484006756886    0.0815806645815815 O
   0.9121484592008670    0.2679811393707044    0.1375242722065949 O
   0.8359641846512610    0.9118676310601813    0.3231875934132958 O
   0.5841931824129352    0.6012122689108422    0.1417838738556446 O
   0.5657432300363818    0.0258584050665727    0.9619184934436600 O
   0.2266202845309419    0.6938009404755874    0.9512198133265795 O
   0.2230507390451316    0.3676613314620536    0.9446415007568707 O
   0.2343324748884475    0.0291935640831097    0.9611865927091150 O
   0.7811445104035094    0.8673537569696679    0.5540162880173769 O
   0.7825627276067162    0.5291737167889956    0.5606769217179761 O
   0.7718062384764639    0.2026837213732690    0.5533125819360669 O
   0.4466434300675181    0.8657856228639340    0.5575424279307931 O
   0.4460651807765965    0.5309969012147273    0.5505592798643437 O
   0.4407229596973040    0.2018681375432472    0.5481332765913185 O
   0.1063259050818633    0.8645639247273967    0.5499493333704891 O
   0.1136648750255688    0.5299338239226835    0.5557006343344530 O
   0.1063115685988251    0.1982380276820599    0.5449220896660257 O
   0.7683683071649158    0.9679244987642556    0.0446366212518436 O
   0.7662612192215821    0.6386104477068862    0.0427894155374118 O
   0.7627202513978720    0.2970853393283707    0.0377755972775716 O
   0.4301241460207577    0.9729005612827804    0.0366765581153934 O
   0.5763424292286053    0.9316904901083993    0.1335563595796643 O
   0.2230275582376011    0.1339499215059404    0.4473662258720346 O
   0.2258218652737748    0.4666501540111368    0.4576324557906903 O
   0.2212111902896768    0.8067380464404755    0.4510471998336832 O
   0.5552140619463624    0.1380311209276258    0.4616737521553492 O
   0.5544691171704813    0.4728449179498906    0.4543382394398936 O
   0.5637595584336662    0.3587077813143315    0.9671714749231562 O
   0.5582618339958431    0.8039041919496549    0.4471096032400896 O
   0.8865210019973351    0.4771817134933627    0.4411471830488338 O
   0.8948654917582404    0.8058591754408393    0.4572616828359498 O
   0.0998758246238083    0.3000091755676803    0.0422393244289050 O
   0.1013716104334501    0.6339852208297171    0.0407358823418782 O
   0.1113298104348401    0.9767047751492178    0.0491397604483203 O
   0.4456876373372480    0.6301561166448469    0.0549464433231236 O
   0.8937128162363016    0.1381166818602208    0.4619953667228568 O
   0.5659854450963249    0.6928973585720799    0.9653258778890762 O
   0.4373712463554270    0.3038966664535811    0.0468625111371325 O
   0.8992709675770816    0.3610558272096670    0.9639920208427994 O
   0.5734272308109074    0.2699227923104570    0.1436263341423578 O
   0.0887501620821580    0.1076192375492800    0.3499036039395185 O
   0.0848812528307483    0.4391689270203622    0.3736616808694294 O
   0.0834828416799702    0.7708393684076293    0.3497402787596367 O
   0.4144472589774816    0.1077250870026750    0.3547663410778045 O
   0.4164433484052850    0.4452921505475277    0.3727678263462700 O
   0.7595394615772977    0.3947293828987098    0.8698616815721912 O
   0.4219738422261953    0.7731035290724373    0.3664153184957727 O
   0.7485695992962424    0.4388460226744784    0.3597378726490780 O
   0.7570186263011117    0.7738131102093773    0.3637074132180501 O
   0.2425948273045159    0.2782045966118077    0.1258999022800450 O
   0.2522654780756481    0.6020782261214597    0.1342788948928806 O
   0.2432920615979517    0.9346806458503173    0.1426207402911764 O
   0.9003138823636077    0.0271335227687908    0.9619184443024800 O
   0.7515267979554222    0.1069035477114949    0.3607884767863679 O
   0.7598431743033082    0.0600668899230286    0.8634580861775909 O
   0.8379562278242343    0.5855041335011301    0.3077469313349266 O
   0.4060063403570142    0.4018008814843262    0.8459484695240821 O
   0.8963102178073462    0.6955306174657909    0.9617671301765379 O
   0.2479182635734540    0.2252100372965336    0.6302159663900445 O
   0.2581680559093374    0.5546053461415696    0.6396715980624021 O
   0.2516968994536781    0.8970529718041327    0.6386687610506764 O
   0.5778475379048135    0.2294795098187015    0.6431447057385522 O
   0.4201352932017183    0.7229562368203104    0.8723993895086969 O
   0.5861231736203443    0.8964887741223947    0.6320674632388411 O
   0.5861447232309533    0.5611282113403105    0.6329632036280798 O
   0.9226514250117119    0.5665526032074109    0.6326676477098796 O
   0.9180058806417652    0.8966480642193854    0.6328718799852880 O
   0.0948705005991673    0.0668118585670120    0.8587372013667397 O
   0.0892872488348916    0.3962413500650616    0.8655651489018409 O
   0.0852827649801073    0.7253836477507989    0.8557753958653023 O
   0.4255435901078530    0.0605742718152544    0.8605255742272162 O
   0.9125958561676432    0.2285697220732816    0.6404527871427388 O
   0.8060795989537147    0.5532020583371492    0.1247862232363816 Sc
   0.1865936613021897    0.0431797822921325    0.3701017424876992 Sc
   0.1796078205319875    0.4606019475485459    0.8695626702748425 Sc
   0.4791640548205559    0.2921528877841113    0.6228359290197156 Sc
   0.7412097540667321    0.2915958203172248    0.8585522989196718 Sc
   0.4066496587943095    0.9600186567905896    0.8629089659420344 Sc
   0.9281785261239750    0.7068941947600611    0.1440342623980792 Sc
   0.9308674688994717    0.1266312445192125    0.6473492255760547 Sc
   0.5988533558590001    0.1282313903829322    0.6473826730503205 Sc
   0.9247455851876443    0.0397221325255932    0.1355230931754918 Sc
   0.5954195180091244    0.7057115884495661    0.1473249139605231 Sc
   0.5930949139172054    0.3730200300129471    0.1439977309356072 Sc
   0.2497167986678571    0.0326379711575756    0.1393411464099615 Sc
   0.9314650713307177    0.7952190991373762    0.6411048775267736 Sc
   0.7523228322957534    0.0335948055517067    0.1090489412847097 Si
   0.7495148874266018    0.3612330860248286    0.1093344084037461 Si
   0.7512352572694965    0.7036159224573701    0.1119908304012551 Si
   0.0875648102034063    0.1317398440717980    0.6049406328110886 Si
   0.0935174764463792    0.4692353096238801    0.6241980056484232 Si
   0.4261372825306475    0.4689527508178420    0.6181222612097202 Si
   0.4237177404266518    0.1362754003132916    0.6126001601956255 Si
   0.4263943239812697    0.6933237280839427    0.1204416095717849 Si
   0.4278746977311209    0.8006847831818795    0.6202984446963496 Si
   0.7548352361498795    0.1365397933711270    0.6159284509395430 Si
   0.7565747801246068    0.4658085683342641    0.6174912770697950 Si
   0.0872435980068729    0.7976167070493762    0.6093891604582123 Si
   0.4214688829111234    0.3666147926404816    0.1160040032071594 Si
   0.0866431357499115    0.3654350705703634    0.1093658625565474 Si
   0.0841883565796504    0.6992957304829333    0.1054054535066002 Si
   0.0857431327138427    0.0378919172616804    0.1099680101002884 Si
   0.7607535759453474    0.8035188330131936    0.6165860824760260 Si
   0.9099831285691850    0.8698006913631916    0.3882102214142654 Si
   0.9077355526413152    0.5391535705036595    0.3755081122829106 Si
   0.9077589559441814    0.2003797699102646    0.3887331972413782 Si
   0.5764669902254138    0.8698298711685112    0.3855831808405145 Si
   0.5751307086623683    0.5353271417988946    0.3867804036994668 Si
   0.5708609489764231    0.2001442194169257    0.3888384523908219 Si
   0.2437442535262931    0.8689508738018827    0.3865210731288106 Si
   0.2432881156648141    0.5278233444890786    0.3855476459920689 Si
   0.2369749312627631    0.1972777517805977    0.3758136334617213 Si
   0.4141458209348218    0.0345829758720582    0.1100043579042859 Si
   0.2427848563391097    0.3061137775651164    0.8750622207614723 Si
   0.3818176026316549    0.1199684782919950    0.8994010936110548 Si
   0.2501091813905498    0.9634577313747898    0.8944496854580969 Si
   0.2998601989430259    0.5481729642223477    0.0888355011967943 Si
   0.0369160047495882    0.3876025787583563    0.4202405786688478 Si
   0.0371594462617665    0.7175919690379475    0.3969661758717735 Si
   0.3682918660300677    0.0546080045255548    0.4024333956354797 Si
   0.3702888146153697    0.3886055736691501    0.4153741106750137 Si
   0.9599688229892361    0.8813472828087937    0.0903188778670748 Si
   0.3766957749174816    0.7192334712436381    0.4150829669957836 Si
   0.2440137462422691    0.6292228386219270    0.8863470252289976 Si
   0.7104539808058069    0.7827924432742714    0.8992620378883647 Si
   0.9563660368547160    0.5463597632811688    0.1062847823862085 Si
   0.7063130338244643    0.0529952168628610    0.4100716551141330 Si
   0.6255701554534528    0.8749276880997726    0.1004791053191635 Si
   0.6311799055516468    0.5455235782499447    0.0975243146228023 Si
   0.7000664249026143    0.3881002601243202    0.4055133305251474 Si
   0.6148871259078244    0.2118556794790320    0.0960891068704765 Si
   0.7084693979771453    0.7200953171610467    0.4068034468152157 Si
   0.2881118302654948    0.2220855679175215    0.0820991189583703 Si
   0.2918559533858174    0.8792048372351046    0.1041304077535900 Si
   0.9578661825435315    0.2112090814271533    0.0942881991240464 Si
   0.7083836247061641    0.4492387996195987    0.9072373704416771 Si
   0.0413335398492426    0.0524433237496587    0.3903301852266990 Si
   0.3741817079388882    0.7801886269531171    0.9148167374635428 Si
   0.5771103766713943    0.2984762288669371    0.8891567533211788 Si
   0.5777354653147251    0.6288127965132958    0.8929783223927188 Si
   0.5794060477426649    0.9607992366388859    0.8970177640949487 Si
   0.9126151867940779    0.2987890124899710    0.8896169734192251 Si
   0.9103183399978535    0.6289810130717023    0.8966053891727135 Si
   0.9139795327757037    0.9648550867822021    0.8892814646815584 Si
   0.2941718981117345    0.2784740027402559    0.5821337957732939 Si
   0.2997042941636930    0.6108352380708235    0.5862179602334298 Si
   0.2996664347359784    0.9492612856966766    0.5943563541852641 Si
   0.6255009057311599    0.2840179639795705    0.5993411533327048 Si
   0.7105974762943349    0.1164660830232843    0.8965794885932473 Si
   0.6329314710166962    0.6149941906325289    0.5867760187171557 Si
   0.6335486159996483    0.9515636016068628    0.5902826892506093 Si
   0.9601547036186223    0.2826776740820015    0.5957832831750005 Si
   0.9672231257510540    0.6207714212025645    0.5849506433319301 Si
   0.9656970783155989    0.9529204401625899    0.5931061855638683 Si
   0.0445534660323308    0.1200951887125662    0.8964135434097176 Si
   0.0387030092135923    0.4492690986246699    0.9058546207880847 Si
   0.0400189350754687    0.7833403613064693    0.8962897110030252 Si
   0.3673401462997892    0.4508444775006050    0.9144227212185903 Si
   0.7302952295069414    0.8849682407546153    0.3627515122252559 Y
   0.3997574075589340    0.8827885103593549    0.3656510862162425 Y
   0.0660649822891094    0.5491744457769591    0.3673817859718889 Y
   0.2734365235472479    0.4396546531681381    0.6566406159136514 Y
   0.6039881775822952    0.7854432668384411    0.6377404416705326 Y
   0.2702465875928208    0.7127151820707376    0.1482377329365001 Y
   0.0643954725830840    0.6129701872891600    0.8447893416546268 Y
   0.0606303727220014    0.2179040041537290    0.3532731522402471 Y
   0.8101943513304837    0.2009066217401884    0.1244275643792594 Y
   0.3986289251344065    0.6119804410836684    0.8596034374956678 Y
   0.7340552486889966    0.9510773702000014    0.8529238837431070 Y
   0.8262559246489782    0.9684715290618586    0.6422738853116928 Y
   0.1910872362975566    0.1278105448317347    0.8698796853599842 Y
   0.8544015692067778    0.4610870714951144    0.8745883240475434 Y
   0.3986253957706813    0.2878160183582431    0.8417163843458763 Yb
   0.3943082172834306    0.5599114250072252    0.3520262351562417 Yb
   0.4783582694089387    0.8703511815638724    0.1316800555287765 Yb
   0.7335392325642818    0.5501514661853927    0.3627710628882575 Yb
   0.1426989393547998    0.8708161926602827    0.1216504873254858 Yb
   0.5136062328788890    0.3708314802712828    0.3686477243582478 Yb
   0.5281497296110234    0.1268461110637092    0.8777557715306247 Yb
   0.0691741228131072    0.9551665544631778    0.8567144463561975 Yb
   0.4933188606054502    0.6326337517919832    0.6392238956911672 Yb
   0.2713849152659175    0.7835734788062915    0.6461292724431547 Yb
   0.1587224546024373    0.6313602997508080    0.6365121304302509 Yb
   0.9346839316108917    0.4552302377022336    0.6398214123010546 Yb
   0.5214040438574472    0.4597863144795306    0.8774880142674075 Yb
   0.8606457472000748    0.1274014617220871    0.8763794135523710 Yb
