La29 Ce29 Pr28 Nd29 Gd29 O252
1.0
  16.8760830860059095    0.0079691147186307    0.0098639903172136
   0.0079688661599271   16.8550989325695006    0.0001483274862594
   0.0131421270978412    0.0001937698929141   22.4332380351640595
Ce Gd La Nd O Pr
29 29 29 29 252 28
direct
   0.0060621529777439    0.0003696309311458   -0.0026107070878734 Ce
   0.6714875530019876    0.3233821747744601    0.5079349839156612 Ce
   0.1574296423498968    0.3390428559719586    0.8817194115137262 Ce
   0.1653555956202181    0.6645154654504214    0.3730692097706503 Ce
   0.4890603964200053    0.0005789507902636    0.8721989244323374 Ce
   0.4862890622349247    0.3278028926791968    0.1205985080323176 Ce
   0.6646686292363707    0.5017750915407621    0.8736369689754745 Ce
   0.3247207499037721    0.6609076008476820    0.5049502902488636 Ce
   0.4976597359956487    0.6718150241989242    0.6273280632882100 Ce
   0.3213603781799899    0.6762251859517490    0.0012790804724505 Ce
   0.0065235089039521    0.1663453523316532    0.8808518176955973 Ce
   0.8190148579011036    0.6670325189718644    0.8739815054141180 Ce
   0.3359508586073414    0.3222821644055075    0.2548756394927869 Ce
   0.1668876997001125    0.0038435897185594    0.1196660875225584 Ce
   0.1553465873271153    0.1502443495135440    0.7457194320623090 Ce
   0.6589586120630142    0.5049748445153056    0.3635892971507827 Ce
   0.8367893833014542    0.1793560898260624    0.2490875159087474 Ce
   0.8265378392104816    0.8409089085775511    0.7408194882666498 Ce
   0.8217476866982470    0.8239584752870038    0.5046265492684853 Ce
   0.8286742909648858    0.5023071349443752    0.7485462220807214 Ce
   0.8224535374506901    0.1661462448307741    0.7450316141477916 Ce
   0.1577757826624812    0.5060137656437756    0.4946392215463130 Ce
   0.0015769369237344    0.3312396863277206    0.5009604660498321 Ce
   0.1591807085386379   -0.0004594611890785    0.3803312475032000 Ce
   0.0097806295991508    0.8383978827915799    0.1307766202194006 Ce
  -0.0000938519366415    0.6706499410676345    0.4996866281697867 Ce
   0.3256103190758640    0.8398692674312559    0.1194003018892720 Ce
   0.3257141929005078    0.8210809995734746    0.6274579473463645 Ce
   0.4902665664299277    0.8263801386591920    0.7459492566707431 Ce
   0.3215902750784864    0.4881342527155394    0.8770892319662379 Gd
   0.6613149266346667    0.8243772852849605    0.1189904749049862 Gd
   0.6686004847093576    0.8246462485823587    0.6255029411188495 Gd
   0.6726945947272943    0.1637578734877804    0.8649566885972404 Gd
   0.5012116819019254    0.3400998949213465    0.8706753299287312 Gd
   0.1750011136203060    0.3402774101550944    0.3847490210886610 Gd
   0.1577828551902792    0.3226277422048688    0.6301414919790276 Gd
   0.1594969977193343    0.6768440486239894    0.1196741864512425 Gd
   0.5119606393393074    0.0019174914788776    0.3837809897524909 Gd
   0.3196343818925105    0.1755349596155727    0.6337354406566864 Gd
   0.8456365169149772    0.6763630051247961    0.3809473007818727 Gd
   0.1589402725863631    0.1816288663608440    0.0044829115030928 Gd
   0.1590947385309014    0.4897783322754166    0.7435430154764454 Gd
   0.1574797808390526    0.8177828935737489    0.7376313082463558 Gd
   0.4809564501931498    0.4940365415473714    0.2579339050739417 Gd
   0.4852211126113814    0.5020659174124650    0.4999964002411539 Gd
   0.5117242225098432    0.8231147652838362    0.5021241626697472 Gd
   0.1635375822613230    0.0149106727156196    0.8792087559976982 Gd
   0.3281959748803474    0.1755769460384451    0.1210231973574309 Gd
   0.5144202377056850    0.5020711565217070    0.7446291425466752 Gd
   0.6709947470461605    0.3256373887799157    0.2519217002036354 Gd
  -0.0133575392219561    0.8269626616980046    0.6154397690526940 Gd
   0.6563014739215023    0.3388259973562034    0.0066301810965853 Gd
   0.6675393690917728    0.6675200644969005    0.7446829383969704 Gd
  -0.0043976555116215    0.3352025920903767    0.2433090276228152 Gd
   0.6554638884527968   -0.0003854027982408    0.2604517283160410 Gd
   0.3341334627629418   -0.0044992360090675    0.2362721828171670 Gd
   0.6668966235137737    0.6849462645441500    0.2480998468755981 Gd
   0.0151844450177287    0.5028944166802936    0.1266025093251897 Gd
   0.1525812186396973    0.6721107659118768    0.8821951477373043 La
   0.5113266330845151   -0.0063575250527415    0.1247464303154302 La
   0.5065949910198513   -0.0029882668764548    0.6373135287971278 La
   0.6741239137843158   -0.0021171201418374    0.0036615234936812 La
   0.4960383423937004    0.6696296015990278    0.1163911075534337 La
   0.5071265088097677    0.6731827932893090    0.8703517666187006 La
   0.3341502203259173    0.1612324681823160    0.3748928611933804 La
   0.8319852179929524    0.0015889364564120    0.8758592313744766 La
   0.3352507654245185    0.3279835302650219   -0.0089389829644838 La
   0.1723852950581301    0.1585172048622858    0.2457926288522489 La
   0.5075884365836092    0.1697444674256361    0.2431339392987086 La
   0.5098775955182412    0.1706226061773878    0.4952553414362263 La
   0.5052677686543443    0.4940093749178204    0.0019100873609242 La
   0.0007620389978472    0.6724829127706053    0.0022469898483263 La
  -0.0198676077346386    0.0110199457232636    0.7478832758351244 La
  -0.0026609527756107   -0.0049521872638701    0.5007488702626877 La
   0.0103040014151592   -0.0060621886484641    0.2491118914169153 La
   0.8484257887554030   -0.0090802333278858    0.1199550222725821 La
   0.8332091054626197    0.3507750620878970    0.8759927343232473 La
   0.8306270149099672   -0.0010722254172952    0.6167890044526729 La
   0.3391885814579026    0.5049281968790513    0.6301532016509657 La
   0.6739834617852255    0.4954668939240426    0.6223420112190678 La
   0.6693177768158660    0.1787461450751302    0.3716491427578170 La
   0.3457575917224051    0.1682846113827600    0.8715983966325974 La
  -0.0028397053112296    0.1643476344311670    0.1276938412025826 La
   0.3490795061741518    0.5119375255615568    0.1184120754225318 La
  -0.0091306533015290    0.1708991479572773    0.6294844735649254 La
   0.6642590195520354    0.1649157700978852    0.6240713627223662 La
   0.3312179958377336    0.5013412978930137    0.3770498222635033 La
  -0.0016616075160332    0.3401298674542045    0.0009631283177882 Nd
   0.8298756094631432    0.6648164804680389    0.6279558675817323 Nd
   0.0048614315372783    0.3346840279863697    0.7485864639864525 Nd
   0.0155687377299459    0.8249122101824735    0.3697977063015021 Nd
   0.3372492402903606    0.0066331255077944    0.7431723090991168 Nd
   0.4987132883019370    0.8292104090834744    0.0030409538650610 Nd
   0.3221561665909305   -0.0027840524473799    0.4909170102063474 Nd
   0.0069504867639605    0.6644836653294207    0.2451622968554251 Nd
   0.1756415764869446    0.8307965185224705    0.2472867949034211 Nd
   0.1675390203536045    0.8288900542793519    0.5013920657853185 Nd
   0.3434012205913872   -0.0029349394137834    0.0039291358499013 Nd
   0.4949798150538002    0.1714828075496619    0.0019763950784117 Nd
   0.5094731659606346    0.8386318640321034    0.2557124580753815 Nd
   0.8408217951630645    0.1740105657244000    0.5046767417900633 Nd
   0.3299498292902751    0.8384828662600239    0.3766597608997664 Nd
   0.0064606260251556    0.4981603232834163    0.8681242515730081 Nd
  -0.0090002783603915    0.4993169134733603    0.3777624891410817 Nd
   0.8237989424344568    0.4960907589458777    0.0050739752034982 Nd
   0.1518414948015344    0.3226369401715182    0.1285547271050859 Nd
   0.1821030015545970   -0.0020975860638961    0.6248990137065105 Nd
   0.8421025725838965    0.5062742941019225    0.5026599276311279 Nd
   0.3356763918997676    0.6707362395526778    0.2635537554572780 Nd
   0.5085793117685259    0.6607344842282397    0.3677979285657879 Nd
   0.3440087359389103    0.6596168973521966    0.7471621718997908 Nd
   0.8269685246949522    0.8346503081792221   -0.0037963577640454 Nd
   0.8480896251672297    0.3252673971500930    0.3718010277725296 Nd
   0.6734301113944978    0.0046709062727984    0.7477468974810761 Nd
  -0.0057715481078336    0.8350475057419008    0.8839852189573953 Nd
   0.6719016705343374    0.6609534090798115    0.4905630126004163 Nd
   0.8987176264258435    0.5826789591758466    0.3129158715535149 O
   0.9045797546774611    0.5994849987149614    0.0530253672285289 O
   0.9242802799662490    0.8932750596437471    0.0637907295859467 O
   0.9187790044744600    0.5868326399139197    0.5638843393217334 O
   0.9193334173759292    0.6063112828365836    0.8268036398406635 O
   0.9241348783981791    0.9193629955878917    0.3214713281400017 O
   0.4216253078749129    0.0723022442805078    0.4439109112972513 O
   0.0863203330397895    0.0812001793046832    0.4501176308896689 O
   0.4116539710573263    0.7352154796272568    0.9429140620439130 O
   0.4214909461336356    0.0775815174992530    0.1850490679720079 O
   0.4223634841354044    0.0817464278981359    0.9353370797137107 O
   0.0794613675634699    0.7555389186528094    0.9402768959276110 O
   0.4185116884670593    0.4162999131878034    0.1876523637768690 O
   0.4281155727714579    0.4229074728043275    0.4360751742944351 O
   0.0765686670304870    0.7604542376155429    0.6804320152691611 O
   0.0945331223949167    0.7434538688569265    0.4356686853367654 O
   0.4209365722295200    0.4209379505814363    0.6948533024545773 O
   0.0889092359532885    0.7531261404608782    0.1867471507531308 O
   0.9194693597774400    0.2557722634990827    0.5634364987567723 O
   0.0828181899117722    0.4178872630358877    0.9345499049503747 O
   0.0822325281250102    0.4092177936518966    0.6872566034430568 O
   0.0791442594976907    0.4198404405989125    0.4410581676450336 O
   0.0848894879790268    0.4179238132493464    0.1889688478481607 O
   0.0980364528098967    0.0936637037609143    0.9375673999044769 O
   0.4152252828072857    0.4280896631857037    0.9278018023476332 O
   0.0815150615868771    0.0707683450835608    0.6822141010003164 O
   0.4085997788194808    0.0844034011641524    0.6774196897664655 O
   0.0883668755102989    0.0767059918623596    0.1820085560206227 O
   0.4132641532960771    0.7464696223262069    0.6844027263702043 O
   0.9207930200316302    0.9070397392243498    0.8097700057698625 O
   0.9088986769938769    0.9067496191785738    0.5472784604142282 O
   0.9289005320715402    0.2355673540300708    0.3110976570893895 O
   0.2686290227525752    0.9094974738534044    0.5688541278564559 O
   0.5714527722298104    0.9005115886098222    0.5702159627711382 O
   0.9204868253578867    0.9216961335091378    0.9439530980330268 O
   0.9190586071573372    0.9138800304371087    0.6809745724115983 O
   0.9215616750463039    0.9109144961105043    0.1893585120106566 O
   0.9134548189126029    0.5796818626499026    0.6941595968847104 O
   0.9206668155032298    0.5936542429282210    0.4409688811511224 O
   0.9229552222201289    0.5731908199479424    0.1848245250950509 O
   0.2447406752773154    0.2636593588202487    0.0611991066335748 O
   0.9149619353435874    0.2478882106424277    0.9229760171015676 O
   0.9260833045368887    0.2540804034143631    0.4422084804559788 O
   0.9122914862408061    0.2542260646032041    0.1889979117027890 O
   0.5865793950000502    0.9404809241165383    0.9180558115826176 O
   0.5709770802957009    0.9160417869607729    0.7125860562161654 O
   0.5812321017388865    0.9107691288948786    0.4404896894593197 O
   0.6029332689903651    0.9130564764379191    0.1910980623685632 O
   0.9112671826512958    0.2504129328916350    0.7007467180748941 O
   0.9145180473379393    0.2511397061189257    0.0588138026521309 O
   0.2436659928350795    0.2480337278244172    0.3131895181535109 O
   0.2458458088307918    0.5800917796666970    0.0719953755523203 O
   0.5814432927105693    0.9208581637081619    0.3176834974454867 O
   0.5863412577700517    0.9106956854830373    0.0590246973100058 O
   0.5832834821433474    0.5891172811496618    0.8054975764031794 O
   0.5972155906573583    0.5849999141624415    0.3017114448759955 O
   0.5787743437244821    0.5798920290061983    0.0722510672247558 O
   0.5820856726434057    0.2501941432989678    0.8168518837099235 O
   0.2520426129690418    0.2654302036998896    0.5696824887362159 O
   0.5868191009636538    0.2577341674279052    0.5618722994376362 O
   0.5729520002723580    0.2556002713765144    0.0605822848644561 O
   0.7622552664826200    0.0873747692239410    0.3092347329222487 O
   0.2626392763603611    0.9235651657429531    0.3093268654452923 O
   0.2504181319922377    0.9217702573310557    0.0603739329751444 O
   0.2488953707058214    0.5727239710670049    0.5607555435236149 O
   0.2458482709854413    0.5864832024139428    0.3087775341155954 O
   0.5878467556020873    0.2498374791276760    0.3098270332924190 O
   0.7488058983617160    0.0834654355851735    0.6848999284393081 O
   0.9169886404221254    0.4192229702487179    0.6888345732074325 O
   0.7390691483187251    0.4087075380504230    0.1917051721388523 O
   0.0767861400590128    0.2502453103442344    0.0649519358053526 O
   0.0812624484189279    0.2455118606645083    0.5597373634764689 O
   0.0880638901172180    0.2387403743929674    0.8161379667156727 O
   0.0785630768468148    0.5911932508025146    0.0652050762630616 O
   0.0760698685803416    0.5801692097776939    0.3168032104037767 O
   0.5828217785919864    0.5782827852138328    0.9331254144419132 O
   0.7479577475597424    0.9106562029011377    0.2992269022215290 O
   0.0809449504632662    0.5839590111877930    0.5555233293649792 O
   0.1010972040726846    0.5815742459293742    0.8097773933217539 O
   0.0838722616930587    0.9261452097746071    0.0606617780667477 O
   0.0995282228433480    0.9163377337405317    0.3131858220692024 O
   0.0819264015627771    0.9234153272304875    0.5753025709308295 O
   0.7516031919232532    0.9108680154974861    0.0727400148580184 O
   0.7464701464415349    0.5880521865087117    0.8123155000405523 O
   0.4126340045985735    0.2493244507695516    0.0613734146009465 O
   0.4132060760558788    0.2447824588500543    0.3070852210004400 O
   0.4127640313708659    0.2316120327376782    0.5644597195165926 O
   0.7593556877865845    0.2571782765428937    0.3070681564507604 O
   0.7456419053974587    0.2502938876781160    0.0460026510914409 O
   0.4225892917145921    0.9172847491702799    0.8087329023137050 O
   0.4195599495989196    0.9317946096177508    0.3172286164520665 O
   0.7498781024686691    0.2493548968013497    0.5630500882498218 O
   0.4142277706679187    0.9158111097257114    0.0659186729428299 O
   0.9089041605314642    0.7434843838119524    0.9310670534970739 O
   0.3955167923428817    0.5812607894933821    0.8272796952861221 O
   0.7449203101225145    0.5806221232394575    0.0663120244363576 O
   0.4257153750632662    0.5915455747194124    0.5644105878563721 O
   0.7449666205276672    0.5827036302522873    0.5578387520910786 O
   0.4193557999735490    0.5781505082317301    0.3149665693223094 O
   0.4091512276109874    0.5896300315598280    0.0439266664768542 O
   0.4084846239505494    0.2596589552585677    0.8103432849788398 O
   0.7590661591532867    0.2507712275730914    0.8190949041833897 O
   0.9091068322808501    0.7515471290814627    0.6968804863854896 O
   0.9213200514164797    0.7646076650839340    0.4402802331472345 O
   0.9240213197342381    0.7466479126975529    0.1756559790546392 O
   0.2687891662910331    0.7497696635703011    0.4466768067884889 O
   0.2694161158166916    0.7432352536360745    0.1846115050303412 O
   0.2418803431148021    0.4139571282059922    0.9425514065507261 O
   0.2468883359512427    0.4115560299978564    0.6741781338735783 O
   0.2462207371750739    0.4207863608080020    0.4480581372899272 O
   0.2443458257240594    0.0863446073238310    0.6913021493373418 O
   0.2479960003416385    0.7452465314206950    0.6993422042529484 O
   0.2462281539572749    0.0791395669961603    0.4316886959939519 O
   0.7457665071267018    0.7470094839697371    0.9342328349543905 O
   0.7460335133376509    0.7524486320042498    0.6885812135672219 O
   0.7535096340857761    0.7453867665603955    0.4396867102127495 O
   0.7464538752578035    0.7655834726269265    0.1880635329619166 O
   0.7400148960919232    0.4109199015608639    0.9378513394839857 O
   0.7562856429250637    0.4222792735318135    0.6899998974983755 O
   0.2537313652693879    0.0834459878603938    0.1770338708325572 O
   0.7441283543332837    0.0977929241071802    0.9362043780371910 O
   0.2494407695943504    0.7571548635642122    0.9311304649018796 O
   0.6019099360524039    0.0846973642031905    0.4366657566510742 O
   0.9165609780438670    0.4342022679669664    0.9403858550612001 O
   0.9057822178466169    0.4183682991057832    0.4357512541937212 O
   0.9183334473602304    0.4174919179001758    0.1812759832828365 O
   0.9336585644794145    0.0826043709176266    0.9361014691641059 O
   0.9038357065027307    0.0868192933584506    0.6886207495202333 O
   0.9061125924601681    0.0742231796242853    0.4280196658073347 O
   0.6029456138154186    0.0843833974859827    0.1874906590420407 O
   0.9020473642563943    0.0841299286217660    0.2005701609052216 O
   0.5739239826433566    0.7525740127213049    0.6849225108730737 O
   0.5749095562287223    0.7428834478077374    0.4373427437967673 O
   0.5710489393157424    0.7403149607976024    0.1883521620756263 O
   0.5811598490110236    0.4089232646672735    0.9376780107482087 O
   0.5854246270202529    0.4197211671008818    0.6857226025131140 O
   0.5816589770498709    0.0840766617829656    0.6932562824882352 O
   0.5811751622978886    0.7559694848249010    0.9349951187541762 O
   0.5858066970646578    0.5905713407199298    0.6731506177862312 O
   0.9260875487723179    0.0704375865564319    0.0590188731109423 O
   0.6047335079310506    0.2353314097898972    0.9379963182917290 O
   0.7583167449384608    0.5799711818891550    0.9335961622892275 O
   0.7615500065623972    0.9177437514720452    0.4375804413477722 O
   0.7458144362824315    0.9128629535603746    0.6842940088766941 O
   0.7543827218735246    0.9184071047583822    0.9385728553559223 O
   0.2533823029381044    0.0941228978019612    0.0460348263174327 O
   0.2536233961945425    0.0647111887279278    0.3078051450763334 O
   0.2546708241249855    0.0846508267377224    0.5630983931736269 O
   0.2453053260460407    0.0873569437741727    0.8177695893411460 O
   0.2508741619143762    0.4111383187704644    0.3062721197894703 O
   0.2459387488765787    0.4148541722124831    0.8147072672386372 O
   0.2439379529132837    0.7526957415939427    0.0574771346039407 O
   0.7491035641868935    0.5827435543954331    0.6912528033287099 O
   0.2493627651267410    0.7517216993047420    0.3197619254078352 O
   0.5819637896087694    0.0831755237264462    0.0519631622829231 O
   0.5813515341205028    0.0822908556483348    0.3161534722568000 O
   0.5679106502743609    0.0761000231609326    0.5645376936316164 O
   0.5853199799757276    0.0711110683467930    0.8278932751851935 O
   0.5746057686125952    0.4131321363756099    0.0748319784010688 O
   0.5811941696751834    0.4211276872693396    0.3080630319799915 O
   0.5843683160289640    0.4307524091919638    0.5435392481336455 O
   0.5845279368022297    0.4241862745533659    0.8151329947136254 O
   0.5848030482569113    0.7473239153173369    0.0608910225354776 O
   0.5886780749978558    0.7521891548118020    0.3131125445315908 O
   0.5789288590973055    0.7177413381264893    0.5605315007222886 O
   0.5807265981869316    0.5589247043342936    0.4328462242539980 O
   0.5791245448362515    0.7683230900241820    0.8067207293490735 O
   0.7485953185991844    0.5702732956788811    0.4174360130027068 O
   0.7486413134150264    0.2484427374955824    0.6902781277892870 O
   0.0811280810341207    0.2471389178576820    0.1967262187192003 O
   0.0893801553177077    0.2548839574006672    0.4296985571598973 O
   0.0836651102150426    0.2402052970011346    0.6909694055334664 O
   0.0785068378348049    0.2567411758314723    0.9384777293126504 O
   0.1034909638528282    0.5848912768351424    0.1875490540243166 O
   0.0824823859694872    0.5844346875864426    0.4362992370067933 O
   0.0827946324679910    0.5798705426258626    0.6874117444539521 O
   0.0709226223822398    0.5870136064831363    0.9382023119260074 O
   0.0897729684851974    0.9168986991219766    0.1832843237710136 O
   0.0777012153922185    0.9145325142676333    0.4375471720211548 O
   0.0818266358067863    0.9265735141313239    0.9271436069387919 O
   0.7370224874447028    0.5864662227016556    0.1983338178382186 O
   0.4136417162292744    0.2499962005889641    0.1838089014292362 O
   0.4112518636350201    0.2536655137674280    0.6838728519965646 O
   0.4272453122440178    0.2561036787073844    0.9336048935240322 O
   0.4146610496470081    0.5918080529734611    0.1867957899012585 O
   0.4098560234874016    0.6106150796234725    0.4419650932429969 O
   0.4264164227875247    0.5858420463807316    0.6910634154977062 O
   0.4141261243182665    0.8945599266303912    0.1883199691466269 O
   0.4141205844780756    0.8946785403284442    0.4537790003367391 O
   0.4016962485137329    0.9088757770658874    0.6769146588864915 O
   0.4250617039259069    0.9148454559900188    0.9382530511330660 O
   0.7500896060104737    0.2303272489765912    0.1866936425606524 O
   0.7546306744342959    0.2594453669264480    0.4399240701195662 O
   0.4207318733584476    0.2460070839014989    0.4346288364776726 O
   0.7439567772867908    0.9043236764886158    0.5624182078818111 O
   0.2487786054297691    0.7440949258807616    0.5691919484982615 O
   0.9201261565994375    0.1141574523411579    0.8122272198461616 O
   0.7498562891625448    0.0807742707730247    0.5484035786745816 O
   0.7542424165752708    0.0860799494493288    0.8077888510416527 O
   0.7445077142592097    0.4148817255038174    0.0626693563614804 O
   0.7489583962245250    0.4299915874844657    0.3265153049487933 O
   0.7539991218432281    0.4113643790246445    0.5516259623341000 O
   0.7479099868695174    0.4300398000992246    0.8135502365720262 O
   0.7578324772665446    0.7471441367908729    0.0626126901691123 O
   0.7571993639557628    0.7304507913470603    0.3130384284364072 O
   0.7431357814590724    0.7465068143451649    0.5621190509455496 O
   0.7682190179688136    0.7520677533506822    0.8099314432498487 O
   0.2529763697738439    0.2651216117056088    0.1890254321635218 O
   0.7570809030358426    0.0816011505163564    0.0721588268952697 O
   0.9284892075874829    0.0846152943402026    0.5608251338443415 O
   0.2437308136274287    0.2432785248751296    0.9243044186926823 O
   0.2432056476247764    0.5881920093055487    0.4386664338475473 O
   0.2514639498588079    0.5745024961302556    0.7036492138765876 O
   0.2587625922689821    0.5889521625375378    0.9353424016241321 O
   0.2504007679092199    0.9171243498337716    0.1800791817483451 O
   0.2405339982223119    0.9179353491000304    0.4344080565354191 O
   0.2281711308816542    0.9178068934654039    0.7017829705212633 O
   0.2560597466018438    0.9388429575582842    0.9237599810357221 O
   0.5809816651279391    0.2756693759998660    0.1829357321289418 O
   0.5900275557277639    0.2710849625623817    0.4387098769732451 O
   0.5807353256384680    0.2548660296132861    0.6902054176842667 O
   0.2416013264434015    0.2432017551325348    0.7049394174474759 O
   0.4084100228387432    0.7522547034499071    0.8095456899302926 O
   0.2556221685217600    0.2523842787092140    0.4365800273765771 O
   0.4202937367867766    0.7536790239329902    0.3159082478142701 O
   0.4103342072360263    0.7646744818220998    0.5603631616752893 O
   0.9200685241420116    0.4252161492259274    0.0724254473141357 O
   0.9200039375102833    0.4125849344066208    0.3049833400576651 O
   0.9285297334422541    0.4154206345605996    0.5571708598320059 O
   0.9151944284593982    0.4196304661520103    0.8091655461361937 O
   0.9259249384098728    0.7428271989167079    0.3123655581111714 O
   0.9097332212663469    0.7458717341779431    0.5622133457594515 O
   0.0906455087086842    0.0839807850518537    0.0591199978791143 O
   0.0814256043817565    0.0884833785558973    0.3173265331024796 O
   0.0810040467925958    0.0643005429115195    0.8105315645267964 O
   0.0935854488890536    0.4193601805823824    0.0628534627803830 O
   0.0800884295827629    0.3968847387792965    0.3166825504272361 O
   0.1056952519798854    0.4149547645779486    0.5618536513167282 O
   0.7498131720506934    0.9164627446751091    0.8079981258973182 O
   0.0737305727406643    0.7588053087062191    0.0655028678225524 O
   0.0846515329894184    0.4101135091162763    0.8141037428529502 O
   0.4209749229438995    0.4288706189954152    0.8092077650557122 O
   0.4088354869074634    0.4186255401577832    0.5635340186732561 O
   0.4098880695647743    0.4109978114679467    0.3098514758068328 O
   0.4045951238376542    0.4159776658612411    0.0604015183179915 O
   0.4059904463835966    0.7546094065154327    0.0674688836022286 O
   0.4231872872382001    0.0648242192019314    0.3067722437579035 O
   0.4149716489641716    0.0865629939103683    0.0705810548605896 O
   0.0870064872591408    0.7683840605974436    0.8125032548873865 O
   0.0750980746011124    0.7478576111412977    0.5579082253302790 O
   0.0924449139112865    0.7422196158716936    0.3107442281116216 O
   0.4177735812160372    0.0813624378555649    0.8091421534971279 O
   0.6716416060242397    0.4969302742793471    0.1245274737377283 Pr
   0.6601681653672542    0.1736066536742387    0.1147733506505831 Pr
   0.3473285722710400    0.8332491475744793    0.8839880087977319 Pr
   0.0027323159379563    0.4980425994050429    0.6233232733574043 Pr
   0.0032056641940798    0.1619202981035789    0.3874874535302414 Pr
   0.6691892673267905    0.3361050832684796    0.7518050915443037 Pr
   0.6562270221642299   -0.0107852387620269    0.5085002344934516 Pr
   0.3309148405044812    0.3417960474561388    0.7453038110998633 Pr
   0.3446436602788436    0.3281499092836707    0.4963562005391744 Pr
   0.6694525733891910    0.8305589482569232    0.3766211999125929 Pr
   0.0033203949566159    0.6613171362138108    0.7461186316277464 Pr
   0.6665094600318249    0.6639691357412179   -0.0011475033815145 Pr
   0.6725442381180498    0.8344538941800782    0.8752194640549532 Pr
   0.8342727256940865    0.3345353731375101    0.6260885725291777 Pr
   0.4951166534320231    0.3268568818094749    0.3676770007273917 Pr
   0.4988488222564543    0.3348198878214130    0.6236929712457037 Pr
   0.8267394506961653   -0.0090483241991816    0.3666111684724480 Pr
   0.8253198782016246    0.3249634163317974    0.1216192876195232 Pr
   0.8234850390615829    0.6614975649427225    0.1327781196953047 Pr
   0.1765823736951110    0.1765010070803362    0.4966601877098510 Pr
   0.1577551079884474    0.5100037284274224   -0.0032440203663424 Pr
   0.1528507774268668    0.4942847115895989    0.2631003050316260 Pr
   0.1644164805297031    0.8420592473792679   -0.0040774808228436 Pr
   0.4961289202482736    0.1716707923636532    0.7474184172070253 Pr
   0.8413028931564231    0.1590656292656027    0.0020048788374121 Pr
   0.8448590115350164    0.8228675008815445    0.2536949731781263 Pr
   0.1594071319149414    0.6610295742321971    0.6226068632111253 Pr
   0.8318447842506450    0.4922318043083043    0.2466916562317246 Pr
