Yb18 Er18 Tm18 Lu18 Si72 O252
1.0
   0.0039050243673086   19.5411982421092567   -0.0062405098624645
  19.9304284599541788    0.0039776974332171    0.0030192076575037
  -0.0025832311018393   -3.8971720429884531  -11.9093434506009128
Er Lu O Si Tm Yb
18 18 252 72 18 18
direct
   0.3903467091543794    0.9450717103091599    0.8540178434294022 Er
   0.2750236059517334    0.1118435081354071    0.6462645591213534 Er
   0.1755867079953214    0.0368681082111978    0.3636877986320149 Er
   0.1758115529950848    0.3722566246867317    0.3648909647286442 Er
   0.9411626718208929    0.0523466239481383    0.1458332286633008 Er
   0.1599835493644596    0.2983381734231074    0.6386605055435541 Er
   0.1769286156692026    0.1289856233151543    0.8642239312988761 Er
   0.6087184866851501    0.0546845026312121    0.1471617558266501 Er
   0.2741927765990723    0.7211333449540883    0.1459469602581043 Er
   0.5071388546745482    0.7936997452286401    0.8624628931590745 Er
   0.1759352311330742    0.7960623838409133    0.8625050128084807 Er
   0.4899974453429344    0.9631005900938289    0.6365975038225979 Er
   0.1589656847166377    0.5375724878262709    0.1363293175311905 Er
   0.7232448307997819    0.2219747702833201    0.3500694818316187 Er
   0.3918749468485831    0.8882768112710373    0.3516556533091056 Er
   0.1582262030669318    0.8738112690495419    0.1368823626287379 Er
   0.0608539000505677    0.5539125440773794    0.3577373801955059 Er
   0.8421747309195570    0.3736329701804139    0.3630490746360088 Er
   0.4889227423900013    0.6296129296147731    0.6373186863020489 Lu
   0.1616141344866766    0.6286785810240352    0.6378927478148607 Lu
   0.8229801732515636    0.2953156573198908    0.6364345072946395 Lu
   0.8416916371990291    0.7011058239676468    0.3669137641896983 Lu
   0.5083671912759933    0.3720931193447356    0.3608127617075816 Lu
   0.5069496248612756    0.7032573834566375    0.3652593084070112 Lu
   0.1603264553216804    0.2032648092575577    0.1364951971566795 Lu
   0.4917625944396288    0.2057436617399479    0.1331987147671802 Lu
   0.4905726681027483    0.5357761291904760    0.1335132286849061 Lu
   0.5051413070709333    0.4642375002323986    0.8635579655823036 Lu
   0.1750167043858235    0.7069920120232365    0.3652140636962933 Lu
   0.4898598146600455    0.2968828169895640    0.6337366893866394 Lu
   0.9431259990517057    0.7252942378646560    0.1540434489881179 Lu
   0.2744971164516863    0.3863943944410212    0.1460209135180919 Lu
   0.2723481165671422    0.7811340448179130    0.6446591579377828 Lu
   0.9403779937321987    0.7771892458651427    0.6457180411426720 Lu
   0.9386230362657053    0.4506523247809351    0.6434161276185923 Lu
   0.6053511883266304    0.4434939247376415    0.6432482596087418 Lu
   0.0296233689540925    0.0930132031688352    0.5340933575966251 O
   0.3948158956603929    0.1586828505739247    0.7168751886277936 O
   0.0272525148854350    0.4250277746214990    0.5346803937327678 O
   0.0602591024200056    0.8213254010400384    0.7152260356626052 O
   0.0284643094516818    0.7561044973443536    0.5315455108981845 O
   0.3627057490520748    0.0918088394747067    0.5329556419524329 O
   0.3622586963487862    0.4252609317927240    0.5301362350772608 O
   0.6920124405390862    0.0915974620026972    0.5311875996282786 O
   0.4015435257886435    0.4915301984189177    0.7198021564172208 O
   0.0590375421094046    0.4893706312715634    0.7192133360442906 O
   0.0655721489454165    0.1626057759432104    0.7206160409206483 O
   0.7278324291582449    0.6775841344507211    0.2120506861810718 O
   0.7295187447463526    0.3394723528883109    0.2187528319083160 O
   0.7263932596970357    0.0078692942662672    0.2159060577845384 O
   0.3941073598241596    0.6784293406221472    0.2181507832461330 O
   0.3930128859607454    0.3420251532903538    0.2172720607836978 O
   0.4017702951401604    0.0078515254841499    0.2213150162511819 O
   0.0590377523222210    0.6767458033627629    0.2153900930583195 O
   0.3590886286934281    0.7587213828566415    0.5296690935318769 O
   0.9682187478343953    0.9195970511212648    0.9648602866303063 O
   0.9395416513068643    0.9900586395044818    0.7871076963935758 O
   0.3069554792628962    0.2574726292152369    0.9693427146454365 O
   0.9411582608313874    0.6599089810114991    0.7901928726052838 O
   0.3055033759170230    0.5905981999026350    0.9682161806093889 O
   0.9429732637375353    0.3227665599505636    0.7873279609153029 O
   0.6047025115928186    0.9879004931794293    0.7831796056557908 O
   0.6013031946835720    0.6610808765942869    0.7771857966136927 O
   0.3051567410300328    0.9228774528322471    0.9692237561850243 O
   0.6016767562503360    0.3258315582385339    0.7763401922293425 O
   0.0660768077660324    0.3412272552161252    0.2209027377323188 O
   0.6376608705054958    0.2597349406192275    0.9659444808625482 O
   0.6413466205867588    0.5925157334394571    0.9659571681578430 O
   0.2743778064624343    0.9877212925006784    0.7862897985806976 O
   0.2656219011864875    0.6592417172391224    0.7803138667852919 O
   0.2737087577722628    0.3229157745630117    0.7854715026702702 O
   0.6379217878461563    0.9227455424483568    0.9680150263927425 O
   0.7297513808227559    0.8253300505548382    0.7169555186765795 O
   0.9684631656929377    0.2571662827673517    0.9705169681364021 O
   0.7267861067002859    0.4852589735954330    0.7176312004910020 O
   0.7284994975337070    0.1600455498112383    0.7176042413051779 O
   0.3923251826711017    0.8232410836669725    0.7145711312148055 O
   0.9741053820366878    0.5905057494148185    0.9685289880873083 O
   0.0608652708747302    0.0118013829339767    0.2143660581679531 O
   0.7368352012820505    0.7291807285546856    0.8415945535373553 O
   0.9420178244118010    0.5140414915944002    0.2863531413046750 O
   0.2863164654254222    0.7012351732288393    0.3331881339562360 O
   0.2885242379006965    0.3682726919232568    0.3323014889305151 O
   0.2872411354461638    0.0330303617881925    0.3381562059821400 O
   0.9576982893257432    0.7966349676496894    0.8294186391515482 O
   0.9553752734015271    0.4634930336679412    0.8326273722951002 O
   0.9562316919749198    0.1371789189641554    0.8336476227270089 O
   0.6196674173760571    0.8033439637685630    0.8383775155454231 O
   0.6214643150840062    0.4624131743041133    0.8308526518519296 O
   0.6204937547201939    0.1348214530517067    0.8400678445257028 O
   0.2886226007801542    0.7993249895186221    0.8326641633029397 O
   0.2873338870945081    0.4680828354968121    0.8402896297053469 O
   0.2896859675583180    0.1331307445703357    0.8349354870914514 O
   0.7098614515810846    0.9652732868098048    0.6648824332473976 O
   0.7076973268075015    0.6325168041967556    0.6617826800349931 O
   0.7127114862716621    0.3015832555809415    0.6559310477549196 O
   0.3789652270209954    0.9662283603928071    0.6665355191528033 O
   0.3804960701298700    0.6358241336816577    0.6592236905851667 O
   0.3796072658107360    0.3004532892977709    0.6648692256828659 O
   0.0416499652545846    0.9642607506403569    0.6687990763019085 O
   0.6190361290393079    0.0329719775258874    0.3337968772137086 O
   0.9361980216110304    0.8387984421698077    0.2822240898603406 O
   0.6189875699114085    0.3637529122103388    0.3398234108824446 O
   0.9570333360284261    0.0373881045555853    0.3330729939258970 O
   0.9411466468447877    0.1832159458507367    0.2868954722380354 O
   0.6070421979595871    0.8425523486176117    0.2821058392069102 O
   0.5973329671016593    0.5077268496678008    0.2753165703128116 O
   0.6038243272608437    0.1767407470307776    0.2800628446737896 O
   0.2742915480484182    0.8416468446663323    0.2851513994630978 O
   0.2727329521438314    0.5113025823254372    0.2833461673902183 O
   0.2736066603520014    0.1782238894203434    0.2832375226304015 O
   0.7116547997203893    0.8657672553113565    0.1645406190783209 O
   0.7095375265394293    0.5317090440598693    0.1618750208004623 O
   0.7105146415804787    0.2006740960045598    0.1629343404854208 O
   0.6945220977174814    0.4218459284188388    0.5337356424118749 O
   0.3792276109710125    0.8654326628235058    0.1652729513842895 O
   0.3795281096954678    0.5341995235260920    0.1667017899956915 O
   0.3795415256466104    0.2008998417590463    0.1665045780775157 O
   0.0474770478476289    0.8663085667014224    0.1621977396191039 O
   0.0457076587662447    0.5337543850931383    0.1676080836217252 O
   0.0462677882824902    0.2021384567445828    0.1672922861065479 O
   0.9556469964332777    0.6990143050723295    0.3343754801747292 O
   0.9539226080613695    0.3674847105037015    0.3402966629209632 O
   0.6210308752375725    0.6999077918462301    0.3343758448814884 O
   0.6959009606714449    0.7563985993097148    0.5332541345578095 O
   0.9687358604428877    0.9079931061015276    0.4682104411460521 O
   0.0282788982564760    0.4076302451336175    0.0317002861638057 O
   0.1623074384232125    0.4198527535123434    0.6793772693267822 O
   0.1665576233064433    0.0951088081851347    0.6744368168504093 O
   0.8322736000817730    0.9262942422517177    0.8226207377972843 O
   0.8385868348613842    0.5836680370973771    0.8282386702504466 O
   0.8349278366761107    0.2573120109727956    0.8162499120776046 O
   0.5011249842862652    0.9216113231192432    0.8269512178242443 O
   0.5059846555263420    0.5870658382354207    0.8243547477140409 O
   0.5018069038480406    0.2566185850548242    0.8239474920491947 O
   0.1650455551649508    0.7562748626955406    0.6724932817774175 O
   0.1687108892764129    0.9192776358932589    0.8332187060487171 O
   0.1696961747174813    0.2573630466878905    0.8286508733963761 O
   0.9117221251142611    0.6757963254228473    0.5504170865658791 O
   0.9073086379431771    0.3459505481306921    0.5533430085359313 O
   0.9044910679431475    0.0040307001574892    0.5519031030894953 O
   0.5681665116843834    0.6674121709175114    0.5423403228594811 O
   0.5726633721322604    0.3408778876171927    0.5452614638740136 O
   0.5708288593412822    0.0030003918164977    0.5454311180371927 O
   0.2412530131350497    0.6777132121650987    0.5475251642079677 O
   0.1687014215532482    0.5872727519293778    0.8308703472781969 O
   0.4967445339057334    0.0877762492632048    0.6773733332735524 O
   0.4987010366358281    0.4214394436267482    0.6666382207802534 O
   0.4942217158580526    0.7522272436373482    0.6741801501750561 O
   0.8337972614551885    0.2457795360040766    0.3258545053102413 O
   0.5023652531134974    0.9074340362153608    0.3249511967891044 O
   0.5008664674840327    0.5781065351259504    0.3288071130378225 O
   0.5011368307179935    0.2449467928214945    0.3233438129506913 O
   0.1723100653150270    0.9137848375156641    0.3238910158794150 O
   0.1690779086190737    0.5803642065327814    0.3245303136457142 O
   0.1699532039818474    0.2441654203610352    0.3266778443244496 O
   0.8331984587480148    0.7451407035221584    0.1763503378044448 O
   0.8303648365980940    0.4102654256568681    0.1789707176512230 O
   0.8302323753095038    0.0783034142882169    0.1695910113822577 O
   0.4985009434217239    0.7444494841531412    0.1751606847060190 O
   0.4949154997208716    0.4117812641053793    0.1764976650260542 O
   0.4983317636522062    0.0799534321436456    0.1694567091900446 O
   0.1636578092304293    0.7435683083377277    0.1743226929103116 O
   0.1654611854325987    0.4099323730462907    0.1695724892062180 O
   0.1618968058023431    0.0828503144969661    0.1726179229080982 O
   0.8336852081604368    0.7588263521926997    0.6686168867334548 O
   0.8324422562511029    0.4201968962900613    0.6749366134474266 O
   0.8265204598705759    0.0839587742065437    0.6696072488389595 O
   0.2399867857610319    0.3396845463567671    0.5473835492560412 O
   0.0268122950723732    0.0773994576728916    0.0293401287070110 O
   0.2436896462647229    0.0090832156489290    0.5494179010936259 O
   0.7597392700384846    0.5031778690780909    0.9474086946290571 O
   0.2420005390733532    0.4915780220131636    0.0515271044681777 O
   0.2395391558032336    0.1621063101587031    0.0480969746043758 O
   0.0489320823309817    0.6337209999057111    0.6700151337251017 O
   0.9757357694086470    0.5769201302268963    0.4722861825069339 O
   0.9698795055822416    0.2474788217701582    0.4706087081671018 O
   0.6373209900766440    0.9059861637672568    0.4686732442319742 O
   0.6381185452399422    0.5723994401674154    0.4664831467940848 O
   0.6368650487122763    0.2405278981508510    0.4668305013136957 O
   0.2412919686566318    0.8242527980903047    0.0501651946415388 O
   0.3070353608569010    0.9094845929429327    0.4685013249162320 O
   0.3070572983632473    0.2431014209788464    0.4680010405412116 O
   0.6982467190620621    0.7424150033910401    0.0273966236549686 O
   0.6963673866625161    0.4051280705548513    0.0288078969041553 O
   0.6936407794679866    0.0733472803640040    0.0332955267215357 O
   0.3623248258119373    0.7417657037497073    0.0313306272294579 O
   0.3596433133529858    0.4079356706121375    0.0342532790723554 O
   0.3625493874160822    0.0760617486613441    0.0324823491454569 O
   0.0265959989930406    0.7416757133421584    0.0301321028547102 O
   0.3049119234803794    0.5779830004226603    0.4662821372979593 O
   0.5739919627540813    0.1590835072029155    0.0465025680168787 O
   0.5708235899155631    0.4969250626152587    0.0409146823767668 O
   0.5735606601281318    0.8247671280551483    0.0513156137251708 O
   0.7595502287321927    0.1705663977012057    0.9574455010128020 O
   0.4253175707287317    0.8411492945122275    0.9508394695090072 O
   0.4276903741568624    0.5037485615568140    0.9554843559122501 O
   0.4270823021366087    0.1747698033580707    0.9507957806978274 O
   0.0925572665180271    0.8408617673733554    0.9500999195062820 O
   0.0924324106624649    0.5064257158822993    0.9507301593185117 O
   0.0939929711888457    0.1741368231330343    0.9523057481908814 O
   0.7548656586762780    0.9916695775756417    0.4514744292476529 O
   0.7606667306667838    0.6617131213558793    0.4469367591139467 O
   0.7586153158403585    0.3237626461311884    0.4524018211140141 O
   0.4254623243150603    0.9926562894781089    0.4505739182021190 O
   0.4237286399544571    0.6593289567608966    0.4487263633582373 O
   0.4262379174729210    0.3258097321015336    0.4497778950011498 O
   0.0945543224286379    0.9971980411625645    0.4492687545578476 O
   0.0944660151171891    0.6576334814730055    0.4534532663169992 O
   0.0927340333236028    0.3272642984932284    0.4525824843448444 O
   0.9092675005218250    0.8227628538954984    0.0562944210270661 O
   0.9082763424459283    0.4946299380745778    0.0458789720396825 O
   0.9090301547185151    0.1578130485975478    0.0579324355482173 O
   0.7592030110235635    0.8433464619289975    0.9513753839898181 O
   0.0454219831597746    0.3007615872971591    0.6686434100098879 O
   0.8332915260622442    0.9051637666444049    0.3237710356220320 O
   0.9248006243964416    0.6140136985420862    0.1378756737048401 O
   0.1144336296343685    0.5336198002138468    0.5554154371044703 O
   0.1124603218052727    0.8669766332506659    0.5480578943870852 O
   0.4487230594056654    0.2016529004972131    0.5512918421139706 O
   0.4465323979959765    0.5354368336057298    0.5465030473710641 O
   0.4474500456037249    0.8668497848421685    0.5505893704506261 O
   0.7791278281843954    0.1999750481344541    0.5501502589769197 O
   0.1108905744955268    0.2044450992501710    0.5458921075450344 O
   0.7811785556848314    0.5309146744278026    0.5527104866234878 O
   0.2193634646407495    0.0340159157121956    0.9464346837566706 O
   0.2227562120924338    0.3676744499072435    0.9548244636237615 O
   0.2218597841933577    0.7006979185442106    0.9543394650036381 O
   0.5544342082311627    0.0338635717254521    0.9507053552831417 O
   0.5519338449300121    0.3704676958140574    0.9435996231373157 O
   0.5569068918932715    0.7001769124024114    0.9537895038080672 O
   0.7768173991535102    0.8692788131932121    0.5466479049325532 O
   0.7854297839049298    0.6357571984515723    0.0462746498760152 O
   0.7840563365222714    0.2972194906390530    0.0541820595770033 O
   0.4459216250609300    0.9655601491687914    0.0477445905604715 O
   0.9234225974040349    0.9416242893024096    0.1389268147147383 O
   0.2221988356336139    0.1331551344635067    0.4521013244828083 O
   0.2182768752128054    0.4677405112639555    0.4467232039604092 O
   0.2207609970616389    0.8001813395367975    0.4502631137239222 O
   0.5508132129101504    0.1323677529912580    0.4466959934021670 O
   0.5541940065983291    0.4645564797476867    0.4518016395886072 O
   0.5540647341088686    0.7949292355530293    0.4474654802721249 O
   0.8864187837828160    0.1359913538701640    0.4505114504793517 O
   0.8869901543334568    0.4702553905998155    0.4503492931395411 O
   0.8875162362185288    0.7961937477983760    0.4537963822113180 O
   0.1116896600235315    0.2964126362770018    0.0484332509024047 O
   0.1119100509864930    0.6319003662060423    0.0490954004745490 O
   0.1111387320230912    0.9681622549514040    0.0471428756601638 O
   0.4451925438348361    0.2991624282975348    0.0486258102761332 O
   0.4487732771739278    0.6308330374852706    0.0559877389745959 O
   0.8873908654408358    0.0324913449680659    0.9557601602055020 O
   0.8830278779336402    0.3676765937644391    0.9459263706372870 O
   0.7791970764378566    0.9651964727380959    0.0484632664948265 O
   0.2572464887298516    0.2228462259713305    0.6381977069279154 O
   0.0762160500841920    0.4444094564828432    0.3635899322014851 O
   0.0791265468179057    0.7738287153032741    0.3609689911472448 O
   0.4098789443905788    0.1111148404263310    0.3626139986709163 O
   0.4117672978550557    0.4446983176989850    0.3610695562205246 O
   0.4110538427586053    0.7777919750063432    0.3639764791682810 O
   0.9212981852418727    0.2763797585493571    0.1428245818239473 O
   0.7407969050521954    0.4400232713635365    0.3585250551896592 O
   0.7421141430197372    0.7784303799720638    0.3594491059091474 O
   0.2562450154091744    0.2786489142086809    0.1376769307242975 O
   0.2561578115861871    0.6104513653118482    0.1373446750631061 O
   0.2566880167204031    0.9419986638778810    0.1409085736350341 O
   0.5868974445103686    0.2761948797106156    0.1362439826194130 O
   0.5912654526614922    0.6118270926241122    0.1389339169263468 O
   0.5890065665891615    0.9439400374079540    0.1373376749635651 O
   0.8829546816160775    0.6955323111301770    0.9568065583441075 O
   0.0773997045830467    0.1153532102257773    0.3617057993646826 O
   0.8396121792901723    0.5854503089944911    0.3321098281658683 O
   0.7387729945972116    0.1118431264257032    0.3589172414080792 O
   0.2566007584493898    0.5611127843782339    0.6383373264112228 O
   0.7434526001214798    0.3865330012196021    0.8543957127190365 O
   0.2575014040258144    0.8879967073205414    0.6361545980504348 O
   0.5942540663627296    0.2274550371704057    0.6488581424694742 O
   0.5908010411021807    0.5522754551355905    0.6420746864106731 O
   0.9200000994107959    0.2279410268904342    0.6402697654039321 O
   0.9273959911406267    0.5576013865981949    0.6433543173681794 O
   0.9206663784280799    0.8866833848460903    0.6404350096537654 O
   0.5920804965525052    0.8874510662543715    0.6459442542739411 O
   0.0801033445749515    0.3867703404900496    0.8655091883593026 O
   0.0815541118539197    0.7210577351402315    0.8668253203820737 O
   0.4116953504655632    0.0559796151565656    0.8619848721622891 O
   0.4086053558952772    0.3887198321079539    0.8624141933297094 O
   0.4128665477516304    0.7231266160862970    0.8623752705262027 O
   0.7368994451960285    0.0547814538262527    0.8550806635621275 O
   0.0765882144191446    0.0564509824416469    0.8596150604530078 O
   0.4263042152096954    0.8028096896147328    0.6147148506882326 Si
   0.0943941470747796    0.1411973501292311    0.6160342092896046 Si
   0.0937019799910402    0.4700750149590618    0.6200176669824107 Si
   0.0935237875090955    0.8044216376044380    0.6130943094619045 Si
   0.4284201616348405    0.1378847806480912    0.6169127341874012 Si
   0.4279725093389501    0.4715593172517504    0.6134985314085478 Si
   0.7592610858591858    0.1353861325924305    0.6163637080100831 Si
   0.5721382483095185    0.9693777587330141    0.8856764820845974 Si
   0.7616665517208840    0.8036411026474400    0.6134678683260611 Si
   0.2413794818586416    0.3045279540809501    0.8873597377844286 Si
   0.2393587804194679    0.6370249417110877    0.8860609273640701 Si
   0.2389740668305234    0.9691209299652482    0.8848839340782799 Si
   0.5719673892169579    0.3059332882202301    0.8824132202584414 Si
   0.5739212135156384    0.6377592817602183    0.8824663331630668 Si
   0.7609578983636002    0.4676273515907602    0.6160185323839729 Si
   0.7629951028172012    0.6977232842781191    0.1145183387731591 Si
   0.2411354910362500    0.1961931798714799    0.3851194111286405 Si
   0.7607117043190735    0.0281236156061829    0.1171460043236103 Si
   0.9044776706294351    0.3027702589238568    0.8824512462913093 Si
   0.2395996021087021    0.5310895451264218    0.3843441991876083 Si
   0.2405206869300185    0.8638253432370551    0.3845044988113331 Si
   0.5708674156810505    0.1950256110541485    0.3815023488388969 Si
   0.5709631017174872    0.5279532179247457    0.3819714847345360 Si
   0.5731098675845898    0.8586778812843351    0.3834301334638877 Si
   0.9056558181551281    0.1998261797907642    0.3874750053969717 Si
   0.9072593776412752    0.5346340871179613    0.3852707072882212 Si
   0.9055039396070107    0.8592779915234041    0.3846188415571022 Si
   0.0936938680403036    0.0325416772797840    0.1138224264886104 Si
   0.0939323432838293    0.3606665268578086    0.1151817737329505 Si
   0.0926544316235866    0.6956365902108660    0.1148977410179030 Si
   0.4282281926341174    0.0295460249241813    0.1153666546859032 Si
   0.4263722596091685    0.3621585612366942    0.1167167580861470 Si
   0.4276612289108864    0.6953593667437571    0.1164163856517462 Si
   0.7618657199339087    0.3619057846586375    0.1180024114790749 Si
   0.9056609503587668    0.6344328971736285    0.8853677744825045 Si
   0.7001856186702657    0.7820194091545056    0.9117378248123766 Si
   0.2998818646111880    0.2784809905138391    0.5857534830784922 Si
   0.3661929440955729    0.0557514864050268    0.4135694766623508 Si
   0.3679640037900117    0.3897025711947029    0.4123467300247013 Si
   0.6983563445445868    0.0553058004517319    0.4138229140337088 Si
   0.6984995725478952    0.3858635891308566    0.4149168184433856 Si
   0.7006690292481482    0.7219977125021383    0.4138521837154802 Si
   0.2999453805654961    0.2226307880467828    0.0873758169193351 Si
   0.3002544825086537    0.5554169882147804    0.0863357263921272 Si
   0.2994925681430944    0.8880747574692175    0.0876611054262752 Si
   0.6310878310926840    0.2234054672172170    0.0828932236960119 Si
   0.6321867806603134    0.5564472974317001    0.0817540488363445 Si
   0.6322410502251367    0.8879808275211428    0.0868372883931387 Si
   0.9659313795534306    0.2208945511474626    0.0888340683485739 Si
   0.9669386277359918    0.5555245183145806    0.0861652202479019 Si
   0.9672551331335347    0.8861481747719443    0.0875897721081132 Si
   0.9048751787263448    0.9704327856668147    0.8862172210177000 Si
   0.0352803006561566    0.7207136978446528    0.4147040364965327 Si
   0.0332070253515735    0.3896707649675697    0.4164567964162774 Si
   0.3657983193211953    0.7227943348663464    0.4126094209777845 Si
   0.7010810353627588    0.4420112639693745    0.9124206262871192 Si
   0.3004535521211328    0.6143421260652483    0.5849731232511388 Si
   0.2994268880352484    0.9448649744472263    0.5863632874266529 Si
   0.6325887445492542    0.2793662331842195    0.5820254290457225 Si
   0.0357021999654415    0.0585041386216321    0.4150233565626720 Si
   0.6309029652696281    0.9425266594143736    0.5843198485362159 Si
   0.9654632406571674    0.2826589895077484    0.5887179866961249 Si
   0.9692923158140979    0.6131121052979027    0.5893487753624511 Si
   0.9634188964198517    0.9427471607804319    0.5865080702100276 Si
   0.6296729039141735    0.6079873050882169    0.5823374315086217 Si
   0.0350238496051119    0.4421329840278012    0.9132323927436744 Si
   0.0356989100692689    0.7765412146817656    0.9130690300165972 Si
   0.3686547025971455    0.1109704171146762    0.9146638581922961 Si
   0.3659823032214714    0.4438867643898652    0.9163443318550780 Si
   0.3678186353610708    0.7766225545157092    0.9123869929317009 Si
   0.6993571432569882    0.1106129093668672    0.9167428796220884 Si
   0.0337542135638338    0.1124497440396779    0.9116464951511283 Si
   0.3926925718461817    0.2798374565654947    0.8523735436011289 Tm
   0.0593827016506880    0.9457177977341378    0.8538214290078057 Tm
   0.0595178112668101    0.6118471004639079    0.8545706878686957 Tm
   0.0600642591547311    0.2763020221087044    0.8539430864804600 Tm
   0.3920656233905017    0.5545669125119650    0.3537480749292332 Tm
   0.7251926811947136    0.8898516647596179    0.3504579915755447 Tm
   0.3934057569634045    0.2202674501168660    0.3530939399055781 Tm
   0.7247164047218432    0.9441370924102856    0.8526107858051234 Tm
   0.6078174067514802    0.7219294100960326    0.1487075634037835 Tm
   0.8237151862666338    0.9654952232664930    0.6357395566368503 Tm
   0.8262352972429541    0.8704961458110247    0.1380932443935136 Tm
   0.0610312823434365    0.2248913516599647    0.3541017227482695 Tm
   0.5091004175713898    0.1284455251972910    0.8629842211559934 Tm
   0.8223578545988145    0.1991436001984893    0.1355849214562957 Tm
   0.4906185600300096    0.8713021874664389    0.1357953295250762 Tm
   0.8445489409887311    0.4668219432436562    0.8665674356958355 Tm
   0.5076011610699395    0.0376090630752628    0.3644077396646079 Tm
   0.1770135470856821    0.4613879348407700    0.8651082909452812 Tm
   0.0594861710766490    0.8908157439698715    0.3553910835821502 Yb
   0.8243235066183211    0.5334206481098186    0.1378665115148305 Yb
   0.7258487157038302    0.5571697639544924    0.3538166771626849 Yb
   0.2753068322778650    0.0565405659779708    0.1472458867909709 Yb
   0.6077724774529779    0.3921549308366467    0.1480765991849639 Yb
   0.8423300650608514    0.0366990697930207    0.3660660425196930 Yb
   0.9436589205183357    0.3944805998206502    0.1529393262263177 Yb
   0.8249023019208267    0.6314922093305717    0.6347548775313092 Yb
   0.6095595284176094    0.7677092484606095    0.6517790297125811 Yb
   0.9401854703841049    0.1090385419704368    0.6453089412661333 Yb
   0.8465899405852114    0.7994097159508818    0.8633245855650161 Yb
   0.8429177492315060    0.1304452464394018    0.8631460299152512 Yb
   0.3910168281790468    0.6086033664556113    0.8495676839355392 Yb
   0.7201052399752730    0.2651265459593866    0.8383275215482900 Yb
   0.7250128066246381    0.6073807632022330    0.8506233195686419 Yb
   0.1571382988796341    0.9639238189205802    0.6339361608484259 Yb
   0.2754364892643136    0.4462762979710223    0.6484543622865373 Yb
   0.6087956423642684    0.1088497776475486    0.6485305153916097 Yb
