Zr25 Ta25 Ti25 Nb25 B250 Mo25
1.0
   7.7205991787198753  -13.3730166338204288    0.0002781411163497
   7.7183556017131680   13.3717213759782876   -0.0022537972482776
  -0.0021578895063087   -0.0015963317493451   16.8258435374952917
B Mo Nb Ta Ti Zr
250 25 25 25 25 25
direct
   0.5345135183316386    0.4679212534368858    0.5035478945677124 B
   0.0686212253676015    0.1345923354336358    0.8975093228214540 B
   0.0639503067413377    0.1314438441689855    0.6997017163980588 B
   0.0635165020031323    0.1310329654489024    0.5009354811843321 B
   0.0684673393062586    0.1360592759380536    0.2993589673392665 B
   0.0692793447769037    0.1371229244735540    0.1012992025512916 B
   0.9320923211918637    0.8630220657337668    0.8938781138167791 B
   0.9329069529201538    0.8656438915030609    0.6985028186729777 B
   0.9345015843572324    0.8660117094614251    0.5020040470962202 B
   0.9360334860704316    0.8655884398708297    0.3047169470858489 B
   0.9342205069852936    0.8635391829748387    0.1012379003192667 B
   0.9306656377809729    0.6644965991455323    0.8971645989012765 B
   0.9315454363710057    0.6665979158229917    0.6996205439870270 B
   0.9318178671338078    0.6663214830825507    0.4994010185366032 B
   0.9326848747050834    0.6654420561370454    0.2993273769520907 B
   0.9310795437724547    0.6631464418898021    0.1039883985813746 B
   0.9324924368611270    0.4674365453409218    0.9003757480448235 B
   0.9313436387911498    0.4680445450685051    0.7028666700592471 B
   0.9298969333154217    0.4670574926273149    0.4966055300860763 B
   0.9323654673188597    0.4675470435069036    0.2999687529963603 B
   0.0673308228005506    0.3349546159981607    0.1012305693049069 B
   0.0668902807781513    0.3336168725007317    0.2971392810046254 B
   0.0651614354236501    0.3310144615831178    0.4989150161916031 B
   0.0660034390039760    0.3327504774777374    0.7008012527390776 B
   0.2666049774090019    0.1333576052624278    0.6993342826491942 B
   0.2661528935648022    0.1334901101791416    0.4980835922807631 B
   0.2672429903341456    0.1343050106188074    0.3039042341841797 B
   0.2677333092327188    0.1347619159255672    0.0956619397631890 B
   0.0646497018395902    0.9294961011042244    0.8984331028670600 B
   0.0655878730324939    0.9318918240269958    0.6961735489138772 B
   0.0656939298964217    0.9321695604624541    0.4999774993648546 B
   0.0665169510265431    0.9321565377655661    0.3027185624286042 B
   0.0664634848829552    0.9321862884698772    0.1026624807801202 B
   0.9317623129247433    0.4669526863071253    0.0997918282911431 B
   0.0645666688220551    0.7308683072198890    0.8964018670506844 B
   0.0658418388200504    0.7341180117434574    0.4982820374972300 B
   0.0645232358254337    0.7325844345424706    0.3048121931899175 B
   0.0626194027440850    0.7290254274849155    0.1016533695357869 B
   0.0657022559330817    0.5332167816557410    0.9000109495780981 B
   0.0674068101477855    0.5360421129721779    0.7009017919248486 B
   0.0648269509027733    0.5355774601257299    0.5001932040613116 B
   0.0644507415854429    0.5331888930179682    0.2957746638171331 B
   0.0647260512187581    0.5315950248494311    0.1044792628777536 B
   0.0683246505996829    0.3361494130842001    0.9005669236950269 B
   0.0674500130020268    0.7340441731956426    0.6988777886406150 B
   0.2687883915636898    0.1363538281915201    0.9030129299631684 B
   0.9354486224428123    0.2710013948583564    0.9017002568158471 B
   0.9319713837647366    0.2652992192258254    0.4985948667067350 B
   0.7356850360023165    0.2701036468423471    0.4973880995006540 B
   0.7321088462033994    0.2675657507788918    0.3024611702262378 B
   0.7337880038439007    0.2689756922421439    0.0958210328721460 B
   0.7303130389876565    0.0665160159066440    0.9024994505113964 B
   0.7333719180213999    0.0663217801400456    0.6977175715264744 B
   0.7341046699017582    0.0664115072426570    0.4999431142350011 B
   0.7295943688646609    0.0667152458692176    0.3031574841906119 B
   0.7306039313459489    0.0675851476376294    0.0961778497134374 B
   0.5315466183508346    0.8637265467259496    0.8992018576152919 B
   0.5347846432277336    0.8661334383795368    0.7062297955500707 B
   0.5346351984209685    0.8653555903345216    0.4978130920014852 B
   0.5331230929844365    0.8663641653355199    0.3050974607551985 B
   0.5323193500863050    0.8658764673056090    0.0919901856013178 B
   0.5319794414668731    0.6663272747160672    0.8996503251434838 B
   0.5345413823782076    0.6669636634431995    0.7041627159071566 B
   0.5343221365790161    0.6660949042560743    0.4949476573276281 B
   0.5322727449490910    0.6649442433024627    0.3080143996495420 B
   0.5314459883539725    0.6652268312230831    0.0938905114782616 B
   0.5345307018991126    0.4688953931970525    0.9000961128023586 B
   0.7342450836774009    0.2701062136615098    0.7022294954107409 B
   0.7347714373082361    0.2703332736439875    0.9020368509392991 B
   0.7349315418345602    0.4665901219123326    0.1003443104680532 B
   0.7340765277364387    0.4669693714809122    0.3000472369251272 B
   0.9341988344312153    0.2675649516840781    0.3011801887732213 B
   0.9338552812750530    0.2693352027958440    0.0980074860916447 B
   0.9351940324947344    0.0675067972231451    0.8973623120312951 B
   0.9326538451072096    0.0645908594567258    0.6965122240090319 B
   0.9328270923249963    0.0649787685031115    0.5029541568158817 B
   0.9360240886992003    0.0687090511466640    0.3014100724907243 B
   0.9360580779473336    0.0694171686815721    0.1013419619142364 B
   0.7294777708770842    0.8616130441352069    0.8948689117910231 B
   0.7327092562113039    0.8640441762141083    0.7009580956832870 B
   0.9326928473104814    0.2662031733527566    0.7005184622113775 B
   0.7336166936278037    0.8656120250181781    0.4995582245950361 B
   0.7311451417528639    0.8651290221161995    0.0989026327471973 B
   0.7327592932674271    0.6645180203474700    0.8941053862862249 B
   0.7340162622738166    0.6657952128802835    0.7008754368126995 B
   0.7343532440387402    0.6645442605374282    0.5029064677930505 B
   0.7347398541454017    0.6639257054197830    0.3028666366070820 B
   0.7330424816666127    0.6621797594126320    0.0989645740032481 B
   0.7362782128277490    0.4690317126408360    0.8964391801286286 B
   0.7343662783988476    0.4688742058525516    0.7002307444297564 B
   0.7340875372159630    0.4687862526794717    0.5043651513417908 B
   0.7319496090035047    0.8660242866348808    0.3060317480215544 B
   0.5357209538783074    0.4683737537009456    0.6959292029134372 B
   0.2659250634423376    0.3332849404232635    0.1016535057935255 B
   0.2673456145005751    0.3342935435341748    0.4989168695149737 B
   0.6653799183525432    0.9305093897430452    0.6998456618803309 B
   0.6677064037782962    0.9325226555272007    0.4990407010921514 B
   0.6650242482656532    0.9335343565962502    0.3049371933789096 B
   0.6626849742251398    0.9325963836183447    0.0962385155652925 B
   0.6642945139189091    0.7299101289219297    0.8934063929534939 B
   0.6664550598298138    0.7320697132058828    0.7028835945849439 B
   0.6663277153072046    0.7316326110336343    0.4992370011554699 B
   0.6654625043386019    0.7316793210440413    0.3069262173681823 B
   0.6641359244008553    0.7307712384211219    0.0968763438104418 B
   0.6688628025508099    0.5348735076198756    0.8975649373638691 B
   0.6685056553407711    0.5349084838728434    0.6982012259283902 B
   0.6673736148828102    0.5335343845769195    0.5053342344829960 B
   0.6679227775377903    0.5310054941079331    0.3004897949670652 B
   0.6684201684773301    0.5312608314577811    0.0988616367734642 B
   0.6694415369346916    0.3357579080618009    0.8994596619968523 B
   0.6686274077013690    0.3366383626181813    0.7015109629076680 B
   0.6704378560628316    0.3379438921782091    0.4996139870326671 B
   0.6667241002192794    0.3341915215341110    0.3020080469623143 B
   0.6682158434450685    0.3343530054280960    0.0962921535856820 B
   0.6620331230807576    0.9302012085533091    0.8994760563570930 B
   0.8682482684880419    0.1370695637449604    0.0984903207503307 B
   0.8667314365349190    0.1341225134388783    0.3027713891259849 B
   0.8661367363862191    0.1324185283990450    0.5006517293082794 B
   0.8683729799261952    0.9332739073342737    0.5023798771656406 B
   0.8689283645955334    0.9331628742780059    0.3040493793475694 B
   0.8673866722417388    0.9325927447764388    0.1011773490663728 B
   0.8644947205680048    0.7297312451613407    0.8932360035891163 B
   0.8658719807000805    0.7321282148168249    0.7002109478496098 B
   0.8669884865841937    0.7314589007852889    0.5017067733255436 B
   0.8682993546111054    0.7307615629491757    0.3030249965542454 B
   0.8662865504156849    0.7285550727961370    0.1017805995719348 B
   0.8661663755879289    0.5330628866280293    0.8973415683676031 B
   0.6667473735522162    0.1350495707145731    0.9040964197354312 B
   0.8650753612858336    0.5346530491861226    0.7012820284843216 B
   0.8665370727473918    0.5337483720246482    0.2980994736691204 B
   0.8658390017834026    0.5320219325757994    0.1027421290353470 B
   0.8679232345873725    0.3368701826356175    0.9016233550202669 B
   0.8661110750821731    0.3354549637033689    0.7030061509513998 B
   0.8654937114342777    0.3349550752012763    0.4960173186874893 B
   0.8653777246966972    0.3353658301359512    0.3031512653380672 B
   0.8660718796664099    0.3357384382231415    0.0967285894176557 B
   0.8686270520761107    0.1370439897645021    0.9009771738490362 B
   0.8666263592030761    0.1327917604320758    0.6974118578558075 B
   0.8643692980269230    0.5337235374808024    0.5007471409451618 B
   0.2669851916305436    0.3333073441771649    0.3000795316185019 B
   0.6679640300185906    0.1342700886481149    0.7003126677079249 B
   0.6648708686779503    0.1336973806139584    0.3018566308566416 B
   0.4683291304605864    0.1344510976784071    0.2994773202204934 B
   0.4693931993818192    0.1363040705430228    0.0986817268428724 B
   0.2643365171227449    0.9302010364169950    0.8990929172735677 B
   0.2638887457526085    0.9296059611970174    0.6976290012735237 B
   0.2627239876827230    0.9302320683792892    0.4975207956978974 B
   0.2656217178045009    0.9338517691643431    0.3044679157669486 B
   0.2669171205891455    0.9339375143089718    0.1012065873884914 B
   0.2675928794070713    0.7317195470536978    0.8972781466844364 B
   0.2659348428255607    0.7333610747443504    0.7024144206983020 B
   0.2644944699575811    0.7337218238748279    0.5009006944361584 B
   0.2656211075491065    0.7334165796626100    0.3020771908999663 B
   0.2660254018328963    0.7296322093918766    0.0992991654159306 B
   0.2675825709163359    0.5349628303282907    0.9034910156137446 B
   0.2685766438244017    0.5361477175437399    0.6992911181268825 B
   0.2676614573967100    0.5335250025353067    0.4986845650836199 B
   0.2655452553231583    0.5311487279914686    0.2991883182912299 B
   0.2644542514604428    0.5328428837758414    0.1005956093334004 B
   0.2675748470468682    0.3359309809647810    0.9004338531500919 B
   0.2692668663784669    0.3360617413287406    0.6992931479717949 B
   0.4661795352694198    0.1356986495366371    0.4988537194073016 B
   0.4693082115179330    0.1360507223723798    0.7017387933186038 B
   0.4691941113977364    0.1372308650188267    0.9009384166462951 B
   0.4683235809248159    0.3343193514485173    0.0966745088021408 B
   0.6661008131728435    0.1346978460396986    0.0947695450779901 B
   0.4678015829379883    0.9299611387620639    0.9009885250582984 B
   0.4680145671535870    0.9313237398458684    0.7040967644561948 B
   0.4660492378012767    0.9314024264498446    0.4971382590029191 B
   0.4679130609283680    0.9349747089620432    0.3005787593248087 B
   0.4686642116215072    0.9330211747335506    0.0969140414051204 B
   0.4656353604237147    0.7320587160102239    0.8997071246911200 B
   0.4679582008507414    0.7331334352581697    0.7074541998138908 B
   0.4681264123970870    0.7328925834173291    0.4946067332035608 B
   0.6697422266254398    0.1343360720642777    0.4992028272754024 B
   0.4659760277134922    0.7318733326874904    0.3070263356541232 B
   0.4661786590935202    0.5346491707864869    0.9018204286874552 B
   0.4696524986128896    0.5336492068585827    0.6992937071848068 B
   0.4682732675232640    0.5330443051363050    0.4977386131261688 B
   0.4650436296437011    0.5307376279196355    0.3052253453889586 B
   0.4655697066674401    0.5315611501612583    0.0952314174972050 B
   0.4673462234410132    0.3340029934901466    0.9008835540888063 B
   0.4694198164145276    0.3365897186004869    0.6971402955656218 B
   0.4678573596519896    0.3357101368530076    0.5042648451225105 B
   0.4674957862276943    0.3347963569898891    0.3012314947635184 B
   0.4644594452353181    0.7320259524331576    0.0923089204609781 B
   0.8676015515120579    0.9318402503715669    0.6986331506198447 B
   0.8660356392579626    0.9299844109533587    0.8946618052002504 B
   0.5342901248352884    0.4656678037927278    0.0964419009797126 B
   0.3310181980018735    0.0667779636179953    0.4985558992423521 B
   0.3334525780460285    0.0665565315640150    0.3015096276907384 B
   0.3338474487703499    0.0682794104874498    0.0991261526979027 B
   0.1303651637690843    0.8626167611936897    0.8974332313796911 B
   0.1333923486160273    0.8653583724540583    0.6970434899851259 B
   0.1315890680485735    0.8649240526328759    0.4981977009267102 B
   0.1311273688015331    0.8651936701716425    0.3060413367414918 B
   0.1305365931878387    0.8649251163269386    0.1006893842191777 B
   0.1325993551705035    0.6649105855176655    0.8962950372958410 B
   0.1349657692806699    0.6696643192050112    0.6995692428158169 B
   0.1324337123420334    0.6695368328583223    0.5008454670847767 B
   0.1301410120329472    0.6654867600443682    0.3001998446417858 B
   0.1313610803995922    0.6616856218327832    0.1033873457640952 B
   0.3325328473897820    0.0667469434530145    0.6982561800932869 B
   0.1341306960019960    0.4681315924575794    0.9004158056124909 B
   0.1327368365005805    0.4666574208429587    0.2954663812398364 B
   0.1327473975419384    0.4672849768174694    0.1049451837986587 B
   0.1353134891739366    0.2694987520831942    0.8999448078560649 B
   0.1319598678263815    0.2666627524627294    0.7010511422397604 B
   0.1308044519782503    0.2650750290943969    0.4983895206195941 B
   0.1339678908687918    0.2678314699471647    0.2975460373192999 B
   0.1348685896206689    0.2689312629618721    0.1014384945327022 B
   0.1342375126770589    0.0670948449327594    0.8999213994626035 B
   0.1304782283595194    0.0637330133429185    0.6979638164346244 B
   0.1301804191222038    0.0641475532149403    0.4994435598800419 B
   0.1338980237377842    0.0666084162964621    0.3022315409844950 B
   0.1353491891708138    0.0692346598188154    0.1013880283879277 B
   0.5332042077875490    0.4651802729317550    0.3032102098691463 B
   0.1347708548005081    0.4685550814293720    0.6999281688303995 B
   0.3334028499625912    0.0690027489450526    0.9019147777405251 B
   0.1328797076093129    0.4668470227276344    0.5004111325427767 B
   0.3325262525848127    0.2669964046162586    0.3021367188328878 B
   0.3338960563428996    0.2673308942019725    0.0962708560207889 B
   0.5352076125420151    0.2682199434925211    0.9003634699044312 B
   0.5363346558653926    0.2701557262884430    0.7007068415079372 B
   0.5348238355125674    0.2712242736308645    0.5014567833756486 B
   0.5351535612866163    0.2687785122962808    0.3010999070288743 B
   0.5352886623803478    0.2681042281744230    0.0959245447466556 B
   0.5366671362930856    0.0674231125382662    0.9012841566072038 B
   0.5367617561080222    0.0670702020398946    0.7021635934928274 B
   0.5349730319904041    0.0669607490958232    0.4977011317761158 B
   0.5358408056074617    0.0682074668188459    0.0981417573253613 B
   0.3325527648843908    0.8623691945187908    0.8975647312024120 B
   0.3310368179514569    0.8635730638147452    0.7021484501111255 B
   0.3296304294477533    0.8641448971575607    0.4979055720717561 B
   0.3332950899501623    0.8674796096711647    0.3038312670411124 B
   0.5346477897743883    0.0678801497278755    0.2996045319554163 B
   0.3363481682429038    0.2698891373734665    0.6992628206421996 B
   0.3347340253909015    0.2679079617647485    0.5007218062911503 B
   0.3342938040423014    0.8653829077389286    0.0991775893712797 B
   0.3345628114294437    0.2678653061005271    0.9021575063376882 B
   0.3318440844914757    0.4655557618801948    0.0984061131748624 B
   0.3327140804406529    0.4647722459862503    0.3015998150865389 B
   0.3364870298305389    0.4681120563405989    0.6989348515701889 B
   0.3355841424751380    0.4667064640094172    0.4983088562557156 B
   0.3310141306657854    0.6643450912220867    0.0950636026823964 B
   0.3324280053856745    0.6655312940963275    0.3013654902355085 B
   0.3342544875574313    0.6676517501535068    0.4973911067425358 B
   0.3344801738802018    0.6677676334727989    0.7039373320060037 B
   0.3341050829781150    0.6666723962950404    0.9024884441238910 B
   0.3334480740513079    0.4686105201986314    0.9026977766446675 B
  -0.0046436193617697    0.7902560281661430    0.0002401629203486 Mo
   0.7990274842913813    0.2037799384086021   -0.0000979725116798 Mo
   0.5989348666548638    0.0048840234240962    0.1901793819974183 Mo
   0.7994733912494487   -0.0006734556520463    0.5972683617706670 Mo
   0.5969806807475662   -0.0017776558485085    0.8039836962419749 Mo
   0.6054260088782577    0.2037955847838069   -0.0023564077106372 Mo
   0.6011887359433187    0.2022834717808260    0.8085945710672187 Mo
   0.1963584783420618   -0.0044305921588825    0.5960474615954403 Mo
   0.5949868776605401    0.7968948842475718   -0.0043502784588378 Mo
   0.5994299549070694    0.5994655903806569    0.7926690006213538 Mo
   0.6054859820422055    0.6024003555953790    0.6053271522867191 Mo
   0.1968956984490509    0.2010884909710266    0.2000772015133475 Mo
   0.6017045276851190    0.2018533188025735    0.1894349340241895 Mo
   0.7993313597011459    0.1953847296943574    0.6017909225456779 Mo
   0.0000409420031154    0.0005283553157037    0.4039619523306369 Mo
   0.0058076813712909    0.2052199815132348    0.1975261780796552 Mo
   0.0011843733406102    0.4012300349300003    0.2036595966099227 Mo
   0.4026943118886361    0.6011545614546622    0.8054853381186400 Mo
   0.6045679367299597    0.3960987273347056    0.1982439925181787 Mo
   0.4010180923125442    0.2019706975093138    0.4060145029388387 Mo
   0.8014115512180139    0.5964069432462767    0.0013576922237173 Mo
   0.0009240938537903    0.1998270050459194    0.3913060916556706 Mo
   0.7995706671311177    0.5987010270791060    0.3976478102525572 Mo
   0.4008790163482910    0.8015840946604965    0.3996930045901156 Mo
   0.1967013666805100    0.5950330761370016    0.0040024574406936 Mo
   0.6048690450454122    0.4022848653147364   -0.0020335043009845 Nb
   0.3990490267971717   -0.0001894429659037    0.4010148321751539 Nb
   0.2043797986986035    0.6010281422836697    0.8018881370168405 Nb
   0.1989752276193817    0.3977473727030502    0.4010198984088290 Nb
   0.5979122318735635    0.2015060571606355    0.3996447553096105 Nb
   0.6071661089030040    0.0006648001479455    0.6031414432939485 Nb
   0.2051813014935655    0.4044408047372762    0.7946582466081665 Nb
   0.2007321095231057    0.4015450468519900    0.5979237873635204 Nb
   0.2039332650504297    0.2046176806146222    0.7997550716179012 Nb
   0.4043657010550845    0.4064658661076132    0.7989250506587784 Nb
   0.6018059035472957    0.4013201346488334    0.4016141644095002 Nb
   0.8031161990931037    0.7993447679035178    0.4027629357613954 Nb
   0.6021061307754241    0.4024295422317706    0.7991489799696831 Nb
   0.0058486384798516    0.0062667046027562    0.2028752455972331 Nb
   0.7985370563874663    0.7985872069763061    0.6015456111590970 Nb
   0.4053822998085221    0.2060320578641822    0.7984351886676606 Nb
  -0.0000336640520415    0.2049717252283635    0.0008979673179207 Nb
  -0.0014838906644474    0.3975866320703352    0.3966372725372563 Nb
  -0.0054008294944734    0.5986201687510408    0.0009940205543400 Nb
  -0.0014463717310266    0.6035695005607224    0.5994499980133512 Nb
   0.3992706225640161    0.2005133094927458    0.6009533963506885 Nb
   0.2001276037916719    0.0024572949774550    0.1988691137839702 Nb
   0.1986715419521934   -0.0018267696164501    0.0002009686226331 Nb
   0.6063412527429869    0.8006262465234690    0.5999673099749240 Nb
   0.8050665049498177    0.0010029190568232    0.4019116701926505 Nb
   0.2043943058282334    0.2038501060882167    0.0002176013411940 Ta
   0.4096670082958032    0.0057770651561511    0.1970442244476164 Ta
  -0.0038678725542325    0.7955184302488845    0.8001384009075487 Ta
  -0.0011190035353822   -0.0004115384551720    0.7975258583162438 Ta
   0.1970885727286411    0.6024098266891713    0.5997123531521688 Ta
   0.0042037144261603    0.8031361919921308    0.5987770052280660 Ta
   0.0068547150284992    0.2042650862544483    0.8033250493015071 Ta
  -0.0004061448720532    0.4028381729000707    0.0052093600884372 Ta
   0.2007687004946859    0.4067021522248664    0.0035861691606058 Ta
   0.1987680811592977    0.0017728105899879    0.4022976335341396 Ta
  -0.0004831781471053    0.7983827928709908    0.1988689502945347 Ta
   0.1934062236950443    0.1959197559800217    0.3997707904205880 Ta
  -0.0071531152496072    0.6001933411112760    0.3994379953961789 Ta
   0.0005051305691432    0.6010968350745431    0.7969558904223075 Ta
  -0.0100969783908790    0.1937139088854981    0.5991956241622948 Ta
   0.0039923361882802    0.4054808319928824    0.7991332108592173 Ta
   0.6047757736897076    0.5998817520698602    0.4032000278344945 Ta
   0.5955541792257286   -0.0043379815424052    0.4006423610173382 Ta
   0.5999954834281170    0.6023556656253268   -0.0042028259343561 Ta
   0.8022549445110959    0.2005613481228962    0.4032679186714628 Ta
   0.3940238205407603    0.3932448794374835    0.1980128984521946 Ta
   0.4000340146095028    0.3963717182095176    0.4033400377481400 Ta
   0.4010153972248232    0.4013267237406672    0.0000994271364745 Ta
   0.7998213167266572    0.4023787648029890    0.6045166443583379 Ta
   0.7950741693407202    0.4003636525443271    0.2035942278953024 Ta
   0.1932684965274998    0.3940590577290326    0.2013787711459741 Ti
   0.7989182395547869    0.4016139238529429    0.3997699363507966 Ti
   0.4004993389828720    0.7958573579984783   -0.0028894570469780 Ti
   0.6013199445083554    0.0006029081799292   -0.0026273139783287 Ti
  -0.0032280522539829    0.5947795162150024    0.2000874303002887 Ti
   0.7984643381799023    0.3990138186544034   -0.0038504703914657 Ti
   0.6013794710601948    0.4049577587290260    0.6012383600586962 Ti
   0.4013828136451632    0.7977577075051583    0.8022925369117692 Ti
   0.7991824314239098    0.4018628948085735    0.8006212034866204 Ti
   0.7993174878904283    0.5942334248365959    0.2004956652862757 Ti
  -0.0028220434152941    0.7987792696909191    0.4014353576801244 Ti
   0.1937500653778672    0.5946420307981810    0.2001077268746457 Ti
   0.7992629486459948    0.6013250412589773    0.6013886849044412 Ti
   0.3988792973299459    0.6012791871880904   -0.0010417018404018 Ti
   0.4038169038361731    0.4018317330957245    0.5998301753849382 Ti
   0.7973722931335181    0.5992133708387292    0.7982658425545548 Ti
   0.5962600741460040    0.7955883645424829    0.8018677532973454 Ti
   0.2010268747313619    0.8015124116211277    0.4014809208032919 Ti
   0.1965220688272098    0.8004606487856954    0.5993259279833878 Ti
   0.1990113105432409    0.7960310905244690    0.7989727033150313 Ti
  -0.0025766134325500   -0.0034142088740112    0.5994861629530434 Ti
   0.7971442145557289    0.7957244706213071    0.7971013174685584 Ti
   0.4035843666189284    0.2028720257469085   -0.0014449713692584 Ti
   0.4005305355955406    0.6000638997189003    0.4002634536759769 Ti
   0.5998987454572544    0.8001978293343132    0.4020019723643659 Ti
   0.4011184334500131    0.2021296957785965    0.2005388620487387 Zr
  -0.0034959298463243    0.3994450270163180    0.5993804794551988 Zr
   0.7982238824190405    0.7948190372433428   -0.0025837848683127 Zr
   0.8017729033437102    0.7985502580870265    0.2028368792110861 Zr
   0.7978241307571614    0.2013246798583178    0.8016840613920905 Zr
   0.8001253600332581    0.2033056690429103    0.1993171346651851 Zr
   0.6035053230714027    0.2031317453214027    0.6000412257921670 Zr
   0.8007373889584237    0.0030482824857197    0.2011315997938124 Zr
   0.4022271615524742   -0.0004399558651441    0.8008809814969234 Zr
   0.3977850777142429   -0.0010179595671735    0.5991283914397980 Zr
   0.4019958387286505    0.0009588922030901   -0.0012665621143183 Zr
   0.1977588366294269    0.7993447333150643    0.2023249682198394 Zr
   0.1974576548184290    0.7944625964950843   -0.0005479395007895 Zr
   0.1990056391142081    0.6003266946686562    0.3991595338730787 Zr
   0.3963641798590116    0.5959890793448808    0.1998599267032097 Zr
   0.4043206848233962    0.6005359629826932    0.5996478577330058 Zr
   0.4002526096428961    0.8005177927761342    0.2005674468511502 Zr
   0.4014943757036275    0.8000051239341518    0.6002362309556520 Zr
   0.1990804904838188    0.1991090594885183    0.6005445840444537 Zr
   0.1993708331987520   -0.0002119278307127    0.7988311926726029 Zr
   0.5986435962930953    0.5939153974556907    0.2008543599355757 Zr
   0.5985564887565555    0.8011681998332982    0.1996563288758526 Zr
   0.7977831025628533   -0.0004008593886084   -0.0015846161181883 Zr
   0.7971250296987505   -0.0022635320164691    0.7985539651245468 Zr
   0.0017606551905868   -0.0016794189184547   -0.0005260079134657 Zr
