Hf28 Zr28 Ta28 B250 Mo28 W13
1.0
   7.7872217237270718  -13.4842946965632997   -0.0016037464003056
   7.7848388596930604   13.4829189986115683    0.0022915395700240
   0.0007507658009971    0.0024591964301985   17.0336988402368732
B Hf Mo Ta W Zr
250 28 28 28 13 28
direct
   0.5374460802935903    0.4693926652099855    0.4979583895481324 B
   0.0657633025124947    0.1305679592440572    0.8967055546986755 B
   0.0617380951701899    0.1284337968384161    0.7008607487783194 B
   0.0629535898314033    0.1323015499326591    0.4997504465059336 B
   0.0638524645206712    0.1310816471101268    0.3030157893821679 B
   0.0669747481947537    0.1307948657038841    0.1017667615754397 B
   0.9350733277849214    0.8654163256569269    0.9006878444667568 B
   0.9342388656192094    0.8663651544322820    0.6944814664884202 B
   0.9298882064724714    0.8644653136804125    0.4994116971077617 B
   0.9333040929323242    0.8687323703958896    0.2984661693829264 B
   0.9337265422435038    0.8653097790377111    0.1036872956563269 B
   0.9381659770444567    0.6685680924857185    0.9021017169803939 B
   0.9359762714189913    0.6698095269432692    0.6987196000604199 B
   0.9285952990257306    0.6644098485918581    0.5018692709133057 B
   0.9313611274423601    0.6667040740899340    0.2988069156926398 B
   0.9342119987204520    0.6691550807854696    0.0997895897144088 B
   0.9339065755787698    0.4691038659206516    0.9026160160522648 B
   0.9314951785608772    0.4678125689770026    0.6985520550345669 B
   0.9322503749403608    0.4660023614125415    0.5031220116856461 B
   0.9323524001892254    0.4657987135321683    0.2984392497165618 B
   0.0673485809613856    0.3356716014637859    0.1006686424035551 B
   0.0671713579430948    0.3345603245411508    0.3042012157396984 B
   0.0642434149036693    0.3324391171844792    0.4973190690419593 B
   0.0635378101024613    0.3303892956580352    0.6995760475213176 B
   0.2676852106204290    0.1310516454144569    0.7019762291169198 B
   0.2669963393904942    0.1316344061969946    0.5004838015060381 B
   0.2662887282776399    0.1322698347517307    0.2995976685784675 B
   0.2692836046808387    0.1301694234452928    0.1017509293780405 B
   0.0681994215231568    0.9310422319536268    0.9002156118407622 B
   0.0623118414080491    0.9290811434445118    0.7019309081092165 B
   0.0646636788721236    0.9309823102694387    0.4973037994621584 B
   0.0664612413907416    0.9345350053677280    0.3007973552239379 B
   0.0673910421686243    0.9314032869767739    0.1030216140782117 B
   0.9314540446155198    0.4681638221558552    0.0970658757810965 B
   0.0691194508525783    0.7351004899952989    0.9013752548604638 B
   0.0639460694232154    0.7313738059358040    0.5004676612165292 B
   0.0673830570623601    0.7346966854507367    0.3005449726282751 B
   0.0660704228834057    0.7350840181702044    0.0982857807589007 B
   0.0660402196316395    0.5369454896553442    0.9024769080297246 B
   0.0648499411030804    0.5366436726260467    0.6984882830948099 B
   0.0665210438944275    0.5335828845445235    0.5003844424066674 B
   0.0664140836004053    0.5321171338162027    0.3014466130150136 B
   0.0661636067341177    0.5346330957990750    0.0987593331581585 B
   0.0647102758135387    0.3329943755155466    0.8987015604900642 B
   0.0638294970176595    0.7335267846447028    0.7011461106224607 B
   0.2684650936288511    0.1306787892042018    0.8983110209365746 B
   0.9314863319196057    0.2664605287267517    0.8981519847872108 B
   0.9316946568585177    0.2653809869860967    0.4993259974462244 B
   0.7375416938128727    0.2671046990802944    0.4989348532196841 B
   0.7322555637080541    0.2669400674090817    0.3000058756069633 B
   0.7314046499611537    0.2686166124330546    0.0999440424167890 B
   0.7295597128201823    0.0650794152400232    0.8979850482827968 B
   0.7311594510726384    0.0642867706353885    0.6993844538808727 B
   0.7361164539999023    0.0696817505700362    0.5029324050870007 B
   0.7347533068659158    0.0680715938485725    0.2997988118067698 B
   0.7303297012266505    0.0642188616198721    0.1011232525281471 B
   0.5338859884905540    0.8679596431039061    0.8994981741058220 B
   0.5342365154235343    0.8690630300454825    0.6990966579460060 B
   0.5351804614639051    0.8673567769149009    0.5036536592231360 B
   0.5338550186527321    0.8677611444216509    0.3006967788258579 B
   0.5320828519313967    0.8664073619235366    0.0976177797380109 B
   0.5361452117558247    0.6696087966513263    0.9021195438932277 B
   0.5367846035092274    0.6710887238688259    0.6989179360984462 B
   0.5351273212262220    0.6675789631291197    0.4978613341493642 B
   0.5317397975542999    0.6632407410770081    0.3017344629587749 B
   0.5308344115547651    0.6642461326630875    0.0969690049966978 B
   0.5345351325057448    0.4662055793724493    0.9023379982574198 B
   0.7354523034801698    0.2669006456834258    0.7021295396372306 B
   0.7352734003817580    0.2687619598151588    0.8978434182463495 B
   0.7322549696052484    0.4640538377087750    0.0980858295652737 B
   0.7306747215459340    0.4653693036783182    0.2992174944638220 B
   0.9336187209390253    0.2678837052671920    0.3037750585368110 B
   0.9326449840003900    0.2692752306525397    0.0997428635840607 B
   0.9338728629344032    0.0653191070305299    0.8971433862173398 B
   0.9317615289395286    0.0623159370510919    0.6973973860092598 B
   0.9318057226371768    0.0658156705578889    0.5029998865063068 B
   0.9329806722096282    0.0652113798115526    0.3006999629249811 B
   0.9315566420073539    0.0634370208964449    0.1026103283083624 B
   0.7304784292656601    0.8642666152566700    0.9019612107652091 B
   0.7344584549934021    0.8692439717293107    0.6948788463060236 B
   0.9300256499939045    0.2625162630634891    0.6999010420315467 B
   0.7354388716887524    0.8665256751441889    0.5041325362261307 B
   0.7329337202731282    0.8640917124705221    0.0990996317959461 B
   0.7323967215726663    0.6669142136218218    0.9018810055149189 B
   0.7373012264300990    0.6696241457654666    0.6985581399225289 B
   0.7350642509941102    0.6668491407420180    0.4971809219274718 B
   0.7317520039780813    0.6672728578284711    0.3006036153400130 B
   0.7337506688632358    0.6688917188897651    0.0989493458529065 B
   0.7345181757073975    0.4661663835628612    0.9012814450771043 B
   0.7377125295131304    0.4673851952050616    0.7006611601187184 B
   0.7359442784064528    0.4702732538609011    0.4988176790180511 B
   0.7358765533669140    0.8670478992893448    0.2986917382563410 B
   0.5352967905311862    0.4669564432796061    0.6998636344123986 B
   0.2701940283293161    0.3357544080216117    0.1020852406174068 B
   0.2652250952402098    0.3342943258870808    0.5001719247278522 B
   0.6649803189499218    0.9339109158416009    0.6982525148319594 B
   0.6696535139359659    0.9357383581801929    0.5040600732630821 B
   0.6681052688592317    0.9341980438547332    0.2992554602790869 B
   0.6651600507156031    0.9320418108530863    0.0990634925899528 B
   0.6673945035282377    0.7339802657696229    0.9029752717161819 B
   0.6689228530908826    0.7368852173808839    0.6971838693891582 B
   0.6692230594522436    0.7335564409823516    0.4993840949682531 B
   0.6668499793765402    0.7325170877396668    0.3005002202819834 B
   0.6668886245899462    0.7323300620446064    0.0969040121724623 B
   0.6658870087692753    0.5328642497497460    0.9022713731886746 B
   0.6703773895591899    0.5351838904814438    0.7005978319476815 B
   0.6721004559284066    0.5367760471638802    0.4973182882206941 B
   0.6646420302426141    0.5325466578229482    0.3017638475812679 B
   0.6651557787157717    0.5325058454221407    0.0976841622029521 B
   0.6682636305540001    0.3341696599020677    0.9017872610859639 B
   0.6696842093990524    0.3339275452733964    0.7013588911163027 B
   0.6700300504409923    0.3352779161885946    0.4986212967909513 B
   0.6650300667003818    0.3327029067488633    0.2999027536432015 B
   0.6657777161473064    0.3339276105526080    0.0988609374254334 B
   0.6626278302788560    0.9312259696810513    0.9005490966792660 B
   0.8644474032663721    0.1319863118659158    0.1015062562473252 B
   0.8669693538077218    0.1337558483976171    0.3018045907069657 B
   0.8666487691555677    0.1348980470262681    0.5038108198106008 B
   0.8664860062094110    0.9327405104785691    0.5028083181791096 B
   0.8676252781873393    0.9339301644788731    0.2977344185371781 B
   0.8642416860247277    0.9288920664261985    0.1025454987837249 B
   0.8693112752357369    0.7353663363123545    0.9018164946122873 B
   0.8715066381228997    0.7359350600201313    0.6970477928396406 B
   0.8637212295019798    0.7300076256284527    0.4985470325869714 B
   0.8644821429265445    0.7343197625883616    0.2994246026641447 B
   0.8673073326639417    0.7364538173072446    0.1003849834402397 B
   0.8688646071389245    0.5330346082151922    0.9004537826676671 B
   0.6657875745199047    0.1315385885077223    0.8987596039632498 B
   0.8692687806808059    0.5353177415689352    0.6998012158947257 B
   0.8642482483215072    0.5326210362084174    0.2975110865645275 B
   0.8658564203022231    0.5323607328192465    0.0991831296876252 B
   0.8659345773147159    0.3348913202228455    0.9003320942276414 B
   0.8647704435279386    0.3333782159447964    0.6995339568965585 B
   0.8675276586567544    0.3317306108339438    0.4993672178188279 B
   0.8667188387881560    0.3337800397157164    0.2994748841293957 B
   0.8646789263569316    0.3363843227328435    0.0987222733498090 B
   0.8654162094318041    0.1333482281517021    0.8964218236247524 B
   0.8650564089823406    0.1297609796136419    0.6982772631807380 B
   0.8645247842853213    0.5330995198734694    0.5041062178446311 B
   0.2667049919450782    0.3352016408289383    0.2976439626743377 B
   0.6671416014787115    0.1302954446296124    0.7021800236012993 B
   0.6671436603930492    0.1356557897406216    0.3015722044844652 B
   0.4699379092583685    0.1373639671162277    0.2980739693052837 B
   0.4645941328033455    0.1316705568363580    0.1011735473516572 B
   0.2667386770015840    0.9324115010953085    0.9004805113207838 B
   0.2655852837302585    0.9330029950424724    0.7028597687413936 B
   0.2643180733382475    0.9317390412953457    0.4976674512875987 B
   0.2667279039431293    0.9348863904266006    0.3013204954979500 B
   0.2675279177562238    0.9345329321062907    0.0989494766550197 B
   0.2668566339366086    0.7374539973435338    0.8981447373447957 B
   0.2673980775307465    0.7356228565681177    0.7002941894009886 B
   0.2643247387233975    0.7306931970143739    0.5001045739462745 B
   0.2643892038364781    0.7311909033378554    0.3022373359380522 B
   0.2663987019296470    0.7338052507509207    0.0999039417254641 B
   0.2683458615844929    0.5359398168511713    0.9001329816069873 B
   0.2660381260179826    0.5348420736911278    0.6984493764381036 B
   0.2643297899836625    0.5339624124916549    0.4972706871071517 B
   0.2643224200522775    0.5312083976049006    0.3008008672759163 B
   0.2701412304738481    0.5354863382589633    0.1042547519118741 B
   0.2681600113259718    0.3330170307298826    0.8993284587866986 B
   0.2665106025332151    0.3323726621733562    0.6994946472344183 B
   0.4687291156510047    0.1349227647144203    0.5004712339687839 B
   0.4651376454622617    0.1315257345511396    0.7012941448344476 B
   0.4639673746372443    0.1311437362125434    0.8989963954386608 B
   0.4683348124398914    0.3328711489028013    0.0999966160848997 B
   0.6626433387059754    0.1322714762642640    0.1005746453963735 B
   0.4663170246890185    0.9332020285958936    0.8997382902394959 B
   0.4673376712814742    0.9332021773058807    0.7007550726651677 B
   0.4684364202392828    0.9343218621904974    0.5019919644306172 B
   0.4667179563299240    0.9356772509856801    0.3001430895867119 B
   0.4649175241764525    0.9359404361095126    0.0989177138361239 B
   0.4691622562645159    0.7360277759895884    0.9007289361992709 B
   0.4682767469834700    0.7379712317153151    0.6988889355004376 B
   0.4664989847579635    0.7332282260334348    0.4993956145113502 B
   0.6717264262672336    0.1360358314425945    0.4995086900065745 B
   0.4648082856168406    0.7308381734763496    0.3019603168848713 B
   0.4697594928901447    0.5357144577432666    0.9018138747103561 B
   0.4686498451283606    0.5346859364481272    0.6995926194658157 B
   0.4685570184956038    0.5355919259487489    0.4972350611645160 B
   0.4662667756684089    0.5325633481485301    0.2991536711101108 B
   0.4653781929859820    0.5342312366327832    0.0998585710537610 B
   0.4672572579395765    0.3308789373311462    0.9012562101978355 B
   0.4669336378466618    0.3304929325492278    0.6994554004910343 B
   0.4702144730108891    0.3340126491175585    0.5007834944741523 B
   0.4695416616692134    0.3350342912974590    0.2960461189653515 B
   0.4647095962677625    0.7294079175322769    0.0977523062120197 B
   0.8672601765402526    0.9315943879589038    0.6946084503286681 B
   0.8666486104215853    0.9308679862208982    0.9004341138628905 B
   0.5327671639624222    0.4651901718582868    0.0981970888148970 B
   0.3330542037374902    0.0666761671079640    0.5002682008573380 B
   0.3342507907840449    0.0682003844589326    0.2989549782269490 B
   0.3343447968768624    0.0649401866048580    0.1007111804802778 B
   0.1354675610672965    0.8663846067336349    0.9006937704974587 B
   0.1281848812340774    0.8639943094131188    0.7032070606526821 B
   0.1305417162363437    0.8640481670698563    0.4969133280603515 B
   0.1340860101750982    0.8691035542353761    0.3012900071562284 B
   0.1338966734245838    0.8676017818474734    0.0992240074425170 B
   0.1343073916998911    0.6709893816751085    0.9005334273315381 B
   0.1309913918070216    0.6683333741925738    0.7005036775862646 B
   0.1331627244305831    0.6653033895437497    0.5001895101052538 B
   0.1342520586001431    0.6662970047746058    0.3019568483457723 B
   0.1325651687380029    0.6680320892174767    0.0989806537098016 B
   0.3336320600693097    0.0659034589746998    0.7023197745348257 B
   0.1320026196401285    0.4672831548750184    0.9008024239745972 B
   0.1314834830285496    0.4670233859978992    0.4974754871522535 B
   0.1320164204284346    0.4657369713476364    0.3020839546602735 B
   0.1352688987173631    0.4693921621807060    0.1017851528767296 B
   0.1323920171408167    0.2656729812422006    0.8976933850032132 B
   0.1297788566337039    0.2665495774467460    0.5000170059428132 B
   0.1324694869367734    0.2683944636488909    0.3023221309196415 B
   0.1341794504171385    0.2680738139288815    0.1016227536636415 B
   0.1339064477198695    0.0634111831210059    0.8981772772817519 B
   0.1292371532131538    0.0617080917828815    0.7022715369271469 B
   0.1311502103716637    0.0640510404707348    0.4980108003810380 B
   0.1316333098570993    0.0643371869019578    0.3024019638199995 B
   0.1352887077172808    0.0629732094356737    0.1021209049769589 B
   0.5336389977160567    0.4655671491566626    0.2991864912716617 B
   0.1316305359543281    0.4674277735704612    0.6983261261988654 B
   0.3322467452605961    0.0644211829281903    0.8994002746099645 B
   0.1296222506168796    0.2637641418157015    0.7002642461854455 B
   0.3363451103917375    0.2685867508775286    0.2967520306537196 B
   0.5320359493138708    0.2651110698679532    0.9006797199815171 B
   0.3368642072622747    0.2658157064430619    0.1011816340200086 B
   0.5320167649265817    0.2644692339504713    0.7005920731008188 B
   0.5359522723516784    0.2679579027774756    0.4998053800364347 B
   0.5363516567500174    0.2698025289381963    0.2976731074265022 B
   0.5326251633706849    0.2658829986444842    0.1005474811990248 B
   0.5327827225953328    0.0642888584599059    0.9005150378128139 B
   0.5366154991344765    0.0683371605741767    0.4994085065849367 B
   0.5338367071490883    0.0704545757084941    0.3002596027256121 B
   0.5293391797808904    0.0660881299776036    0.0998191718176486 B
   0.3319472571761678    0.8676595531595224    0.8976606629203943 B
   0.3344302663452735    0.8673798774585723    0.7015299024039990 B
   0.3324610952886419    0.8647454669872716    0.5002605154924410 B
   0.3321884150523383    0.8675305677386579    0.3016403951475203 B
   0.5333579497686831    0.0636376755358514    0.7022816619496719 B
   0.3350744226067083    0.6699182785162398    0.8997295069830763 B
   0.3331612204714965    0.8700775586709277    0.0983975237605918 B
   0.3354570802264655    0.2639760323063574    0.8985830070952384 B
   0.3366084291259244    0.4705188722167988    0.1028050033183243 B
   0.3349207658368582    0.2666115480638243    0.5014633609215839 B
   0.3321631634729714    0.4680873746082636    0.4977478450914558 B
   0.3334049183550038    0.4664337876734690    0.6990860492355725 B
   0.3320900466194386    0.4663663806468980    0.2989656044014044 B
   0.3355135133099870    0.4691216972192925    0.9007930607482540 B
   0.3338382121126193    0.6641918185063770    0.1021181439953056 B
   0.3301270873952017    0.6628367810762373    0.3018897082759072 B
   0.3308976700068339    0.6659750754147394    0.4988683951235481 B
   0.3339279858457636    0.6707350694861179    0.6986021874512769 B
   0.3349259870780267    0.2640560897767387    0.6996185886141464 B
   0.4040263702687357    0.0023053120639906    0.6012218738880994 Hf
   0.6019426952146225    0.7966090422917207    0.3994248053587421 Hf
   0.4022615202280143    0.3983810362814785    0.5996928447277218 Hf
   0.4006794957534268    0.3979283975347016    0.7992351253084534 Hf
   0.6024677267950658    0.6035281619030879    0.8003695966609796 Hf
   0.6079821894199854    0.6040508800471824    0.5988251027534190 Hf
   0.4042486447758893    0.4020586648942453    0.0003521682423620 Hf
   0.3965598707549406    0.7983278104682107    0.4006748280230241 Hf
   0.4005831619417163    0.8011603331449011    0.0006302532462205 Hf
   0.6033830052333419    0.3989525105692714    0.8003147573758366 Hf
   0.6066412117679136    0.4016825912035297    0.6008912861686323 Hf
   0.5977657137230282    0.0020186236831357    0.1990526361948936 Hf
   0.6017088800533067    0.1963399700761446    0.8006368355930162 Hf
   0.3961702509505494   -0.0021422174839700    0.4005329502448249 Hf
   0.6035097256030514    0.0029303874328531    0.4019280386470852 Hf
   0.5940958250243650    0.5936200598271815    0.1977825770914631 Hf
   0.1981586992908279    0.6041769659935476    0.7995855472379179 Hf
  -0.0002219505079936    0.5997420232862229    0.1986939942015435 Hf
   0.5966368448420442    0.1997201789075239    0.0012195149191513 Hf
   0.1983625751186086    0.3992577289022609    0.7988413905102761 Hf
   0.1967852378555591    0.3990930345141666    0.5989301343281688 Hf
   0.1974489357486194    0.1957902611486706    0.7994854899167501 Hf
  -0.0008453352088620    0.7992914038541638    0.3982099836011799 Hf
   0.0023579012351920    0.4040963894950773    0.1999781827649429 Hf
   0.7955509087753486    0.1986799144534037    0.1994657703857835 Hf
   0.7962514541658033    0.5969980319127666    0.1999750957681639 Hf
  -0.0043342239831976    0.3985310210583811    0.5992524941262293 Hf
   0.8074825537922878    0.6008462360778030    0.7993345205662709 Hf
   0.6051624970016877   -0.0010775566288422    0.5992698871631956 Mo
   0.5977010232085226   -0.0017521123631300    0.8080217149765243 Mo
  -0.0084118990987022   -0.0067781502669775    0.5995562528717479 Mo
   0.0029389624292544   -0.0031148090847215    0.7995560392312773 Mo
   0.5947930390721804   -0.0025407899554975    0.0033487735161626 Mo
  -0.0010437669293230    0.2060241602384831    0.4020517961402840 Mo
   0.2035962608725738    0.5964599921037720    0.2009281401927508 Mo
   0.0052904491567860    0.7983314365015999   -0.0037818206689241 Mo
   0.0042217092953253    0.8007473192353539    0.8122470260992786 Mo
   0.4021625361731471    0.4020968230142409    0.1943578753907059 Mo
   0.1936954697751770    0.4005676425406096    0.4023539809003123 Mo
   0.3999597667698833    0.1943092166064539   -0.0051479157547154 Mo
   0.3989150858993161   -0.0017446668407656    0.7963483596466449 Mo
   0.1996696743324439    0.8027831797217710    0.3991049270243272 Mo
   0.0007569208174795    0.6025924622738408    0.0018742302494284 Mo
   0.0010837600431237    0.6055258304200406    0.8094300528180004 Mo
   0.6064000097845992    0.6021779332654558    0.4015836685166983 Mo
   0.8019426756248973    0.3998244017383440    0.7955925417094015 Mo
   0.8005622989383813   -0.0024607202158373    0.1981749240242248 Mo
   0.5973436697503819    0.3956721812869704    0.1949766005942278 Mo
   0.8051666550680269    0.8016758679966627    0.5974046779866339 Mo
   0.7982596163937900    0.7927826371583474    0.4026894235836639 Mo
   0.5962070366513705    0.2015572234299243    0.1957150215774889 Mo
   0.7965656702235639    0.1989758352242371    0.8004613826300324 Mo
   0.6003239120288129    0.6038068535262048   -0.0001402498487053 Mo
   0.8057540518502675    0.6028714090406351    0.6091065822174662 Mo
   0.5973696803373492    0.8062912570661602    0.7951476957374568 Mo
   0.8039066827541470    0.4044100437628759    0.6037171412871268 Mo
   0.1951872514809609    0.5937286430874676    0.3970056642364901 Ta
   0.2093514471846728    0.4069937988979117    0.1980700634443961 Ta
   0.7883166167038788    0.3946714092665338    0.1990372556670704 Ta
   0.1921657582615312   -0.0065895853805943    0.7970753125133417 Ta
   0.2030337206435342    0.0015875169660487    0.2084999107964990 Ta
   0.6071539160575345    0.2011902161447659    0.4015572837444344 Ta
  -0.0038015739615185    0.8016239840273084    0.2014422490843619 Ta
   0.1981160915038225    0.6015602401951675    0.6060166707593142 Ta
  -0.0095602850762168    0.5986416197348119    0.6002756458049493 Ta
   0.8024254454404968    0.8059571834726004    0.2027612474468380 Ta
  -0.0045946773836369    0.4063706884820475    0.0020241467699196 Ta
  -0.0023785215072428    0.1973934381882741    0.8029647133062704 Ta
  -0.0067229715959015    0.1889850714818941    0.6025414914828240 Ta
   0.0027292380633005    0.0013774983032495    0.4055208750633421 Ta
  -0.0048870444735074   -0.0022415321938440    0.1979834274259596 Ta
   0.2061544557237944   -0.0046189186949533    0.0015082274621612 Ta
   0.1968495193970504    0.8012487250040903    0.7954012365903423 Ta
   0.7964902233005605    0.1924816866608774    0.6082139713993528 Ta
   0.4002505041640017    0.5979271538990186    0.3986044478005423 Ta
   0.3988000282073337    0.1928702688713348    0.7982368367674781 Ta
   0.6012377177508111    0.4012385834479301   -0.0019313451970670 Ta
   0.5988280499270677    0.7931543611004217    0.0014598661607853 Ta
   0.6065937479379371    0.4100793997810782    0.4016443619271229 Ta
   0.4060053848626818    0.8112009997716028    0.8009479554262658 Ta
   0.4001636936890956   -0.0019133762286347   -0.0079983428303377 Ta
   0.4092163594905125    0.2059833067114273    0.1983979217737135 Ta
   0.6084678493016935    0.8092150216736417    0.6017320786510093 Ta
   0.4058452246858746    0.8046168753197356    0.5958096286083115 Ta
   0.1963142544287478   -0.0053405159584928    0.4067786418775520 W
   0.4021489663353238    0.0074421938567774    0.2123466615879168 W
  -0.0122422479340537    0.7951698347653708    0.5889117111875348 W
   0.7925453593001134    0.6028992036750209    0.3885905753904945 W
   0.4087384982513881    0.6048143845256890   -0.0081226545314508 W
   0.7979036433249924    0.7963852736905216   -0.0088285788998788 W
   0.0022075512869517    0.3922938228181809    0.4008596707090212 W
   0.4019325361618362    0.2013049070855331    0.5942247128346593 W
   0.8033159538329833    0.4034420936080877   -0.0113680220469650 W
   0.8034961738609407    0.2029526040361035    0.3890361073838969 W
   0.8016520773990315   -0.0010518800108098    0.5942389052649089 W
   0.1970742499723949    0.8011669322315114    0.0119164659909050 W
   0.3936300133784097    0.5938055909130596    0.2128663306155618 W
   0.4026917435502650    0.6051827497712632    0.7992504978274843 Zr
  -0.0000207609144559    0.6000281436410934    0.3995889571525189 Zr
   0.3980168967470726    0.7980181466666494    0.2005974087545443 Zr
  -0.0046675122687078    0.4009145432713475    0.7994112058993280 Zr
  -0.0016110600672715    0.1989001617033296    0.2011695750978260 Zr
  -0.0005350485547745    0.2002696104909809    0.0003419766863941 Zr
   0.8038177923344200    0.8027245423466388    0.7984397347009698 Zr
   0.6034232413849879    0.2007258671693712    0.6007725536219376 Zr
   0.4018283688378299    0.6028315373244773    0.5990724467412355 Zr
   0.8032586578547105    0.4017177456111564    0.4010815602657670 Zr
   0.5993183627054924    0.7988635185610019    0.2004548693721652 Zr
   0.1967030777468429    0.7985154021236130    0.5984870755991422 Zr
   0.7977655861216738   -0.0005323753066889    0.7990712634383753 Zr
   0.2004097413557863    0.8002322310622222    0.2021042142134546 Zr
   0.7957166103708579    0.1992753169709537   -0.0005156002518498 Zr
   0.8036368008574315    0.0012523518611039    0.3996499491164300 Zr
   0.2014843597618149    0.6036480828191844    0.0006833075820741 Zr
   0.7958897667052716   -0.0038947893530472    0.0007998183988641 Zr
   0.4011217938697428    0.1997587946403518    0.4007754716624374 Zr
   0.2024346439898754    0.4030106356930404   -0.0004697731853648 Zr
   0.1977979123682974    0.1965557452678867    0.6007236749128224 Zr
   0.1974002267407972    0.2006383415996656    0.4004901967868963 Zr
   0.2025366081858614    0.2009071463806302    0.2002688100981850 Zr
   0.2042580846458166    0.1980558340842848    0.0001493828356415 Zr
   0.1954199154004269   -0.0025010236291118    0.5995999497017037 Zr
   0.4006932638323780    0.4028829822389614    0.3987828650994160 Zr
   0.8018649525134459    0.6028342393951560    0.0005937169791846 Zr
  -0.0002475775400425   -0.0064454858962809   -0.0002144044510650 Zr
