Ce29 Nd29 Sm28 Gd29 Dy29 O288
1.0
  16.6140581302865584    0.0033610053123266   -0.0066852393292868
   0.0033608898515109   16.6172447242471506   -0.0028266647157010
  -0.0089146844133145   -0.0037688578548359   22.1747976782320784
Ce Dy Gd Nd O Sm
29 29 29 29 288 28
direct
   0.8400658569019120    0.4934837799463223    0.0006539039995957 Ce
   0.4949164952827494    0.6575103080622720    0.8743016998558808 Ce
   0.1743273064879762    0.8389946479022514    0.7513178753208434 Ce
   0.3387672242072938    0.6670555956314520    0.4972276067725639 Ce
   0.1622255328184158    0.8313944129663015    0.2510118144604265 Ce
   0.6775984945295982   -0.0002883682485327    0.2387126971881620 Ce
   0.3337298255934439    0.5045829832603330    0.3750019306158083 Ce
   0.3342105834698791    0.3278139987135038    0.7496025997531133 Ce
   0.6753240129753759    0.3365341625887792   -0.0022128557269026 Ce
   0.6669622021420114    0.3270822935020170    0.4987731891030179 Ce
   0.3321947789689681    0.1665397549641511    0.6247474932530229 Ce
   0.1715207911871166    0.1775501408232807   -0.0081761171460557 Ce
   0.5007435264173247    0.6628892603360256    0.6186968327419540 Ce
   0.8364434733582776    0.6643088214659189    0.6271467677469396 Ce
  -0.0033622214686562    0.1741946780091058    0.8741962123392059 Ce
   0.1706982934579594    0.1606358398806469    0.5012484558038820 Ce
   0.4972998517426554    0.1683074741737746    0.5018374133375346 Ce
   0.8365674451699958    0.3343102474530797    0.1268440530792281 Ce
  -0.0075420500902652    0.3314694391344821    0.7543345641403862 Ce
   0.3255032597403826    0.0082252981436046    0.7530434384775642 Ce
   0.3312847890936757   -0.0007241112500497    0.5035746420158016 Ce
   0.1614639452403110    0.6738592033313396    0.8700096522948731 Ce
   0.0029822464761878   -0.0033756109763811    0.2490997575121865 Ce
   0.4953425128676764    0.8366292738288117    0.5073526769004335 Ce
   0.8363170394330949    0.8355076874075907    0.2492836366298835 Ce
   0.0074689778274256    0.6644611699171167    0.2594494841656003 Ce
   0.8392470373425435    0.5022583561009416    0.7481621563297866 Ce
   0.8377789669931306    0.1720526482586249   -0.0004312478845053 Ce
   0.1684101196880952   -0.0012978159517434    0.3765724580949105 Ce
  -0.0118618463779148    0.8321174485245476    0.6377357789434920 Dy
   0.4977533177479903    0.6755421045387461    0.1304377216586665 Dy
   0.3287382084724268    0.1602671607230108    0.3843092393263364 Dy
   0.3208310171580050    0.8263390171788999    0.1334980275821404 Dy
   0.3248594729315247    0.1723570319441611    0.8693209537329797 Dy
   0.6694042216102443    0.5109699153384227    0.6322973048916604 Dy
   0.4945179173529752   -0.0046372029197388    0.3849137468342097 Dy
   0.3352768901635129    0.5076985519829353    0.1198676623400377 Dy
   0.1660488833589857    0.3305763047621348    0.1128854630519278 Dy
   0.5056207713615494    0.3279880169531633    0.8813737478307874 Dy
   0.1560352089796365    0.6592169246079040    0.1357047288292760 Dy
   0.6666057615002681    0.5013410111248584    0.8850117543635416 Dy
   0.3407195906859275    0.4955594919633696    0.8690626746017305 Dy
   0.6652896050772666    0.6473634069697495    0.7603712543475670 Dy
   0.8398715536996342    0.3362437816541634    0.8821210706682572 Dy
   0.8305278484398684    0.1731989805771818    0.7504283374228669 Dy
   0.5050231231390098    0.8253348053489901    0.7647233546473581 Dy
   0.4952000067962891    0.8274210153618308    0.0004008481365733 Dy
   0.4871643074822742    0.4977172543835733    0.2409407593383516 Dy
   0.8251922485801124    0.3340383485857798    0.3769990250734522 Dy
   0.3371688698832105    0.6642083625083972   -0.0081430908956276 Dy
   0.1648785917119351    0.5078032490681349    0.2594989085997409 Dy
   0.1592350496773808    0.5032329578222979    0.0122133989786860 Dy
   0.6620268247669183    0.8360518639469333    0.6205378867576339 Dy
   0.6568784672470062    0.6700064959569836   -0.0044781687369710 Dy
   0.6743800134640026    0.6792567332236451    0.2490749374806749 Dy
   0.8299826503947323    0.6486333709386537    0.8770690258217401 Dy
   0.6657900691921372    0.3391798371838826    0.7374188903363518 Dy
   0.0073825100349290    0.1585253877556131    0.3662113391166791 Dy
   0.8256218193383071    0.5027775465819992    0.5068640791765867 Gd
   0.8358886938495034    0.0118104934787116    0.8733111403446719 Gd
   0.8261954940363654    0.1674376568106778    0.4992007215244100 Gd
   0.8289424549944479    0.6719283926792942    0.1132034524793209 Gd
   0.1804848856877851    0.3349844351811361    0.3645645821896490 Gd
   0.1804288229524199    0.6609003073390920    0.6236687719508142 Gd
   0.5147637639683600    0.0017619007676778    0.1174049418556524 Gd
   0.4989402784402052    0.4935908147587831   -0.0106672172252631 Gd
   0.4981922419050588    0.0056928834041170    0.6201912738559308 Gd
   0.6623227901585613    0.8232595162123064    0.8725510439942215 Gd
   0.1790531973324380    0.4978442448166413    0.5027678608902897 Gd
   0.1656163551021343    0.3299003732249798    0.8647610403802823 Gd
   0.5046199457199340    0.1701015498508429    0.0083570200183995 Gd
   0.0003663595634032    0.0097165519916137   -0.0129352573561983 Gd
   0.3406423669668724    0.8391013704005311    0.3816906727577384 Gd
   0.3280561498664143   -0.0086579004657449    0.2580781176695361 Gd
   0.6804435331293271    0.0050765132971713    0.0024032046009332 Gd
  -0.0060845247994596    0.6634019375549379    0.7520849129499620 Gd
   0.6647519734481221    0.3326625021891172    0.2411987195477306 Gd
   0.3434055515474574    0.5036779637229643    0.6183654963207340 Gd
   0.6673353239026559    0.1671288591794106    0.8835492806974792 Gd
  -0.0007462246915103    0.3327091426775078    0.5066344321529395 Gd
   0.6656191419504882    0.4882324081203959    0.1240288966656046 Gd
   0.6740506381255476    0.5013149348142611    0.3823440351682132 Gd
   0.0084129113673224    0.1731510117062253    0.6225449224645522 Gd
   0.0039535470086136    0.0114081772329185    0.4926170753721343 Gd
   0.0059639001938183    0.8234458348920555    0.1294496401618954 Gd
   0.0001495696535807    0.1658445885754581    0.1263344018485043 Gd
   0.3302439585996005    0.3368620034313687    0.2430009619867096 Gd
   0.6628266518668704   -0.0023222178571019    0.5008991776099950 Nd
   0.1684188990917522    0.8293883789394956   -0.0044358214227864 Nd
   0.3327339362322977    0.6684527212599931    0.7543395534474369 Nd
   0.0040745247502404    0.6636427863153029    0.0016286914450342 Nd
   0.6674926065272129    0.8420205872474661    0.3678314217742654 Nd
   0.8322790571302862    0.6691057133543864    0.3694726196883162 Nd
   0.4956230035127067    0.5040925018638001    0.7424815151384307 Nd
   0.3265589368135660   -0.0031811868551675    0.0051821999014494 Nd
   0.5041572382735711    0.8412745594496532    0.2470711916315757 Nd
   0.8387468185293738    0.1643802399519261    0.2468210447620964 Nd
   0.8267502872507595    0.4955641087498525    0.2528687778162900 Nd
   0.0038064978199756   -0.0010305808061290    0.7490182208202772 Nd
   0.8356001369826938    0.8368436866291703    0.5059752073831826 Nd
   0.5011841023713636    0.1697497585403202    0.2377802810082802 Nd
   0.8324333829319731    0.3316889090214641    0.6265537079751884 Nd
   0.6628336398178838    0.0032938669878985    0.7615648635594894 Nd
   0.6705888582127166    0.8315003158730356    0.1186585174392796 Nd
   0.6656042665141000    0.1679656567925142    0.6271091038413982 Nd
  -0.0016777584836020    0.5007734157773951    0.8735495985087998 Nd
   0.3349397141236058    0.8336433769180260    0.8761938166546945 Nd
   0.8346624010295848    0.0039538652364182    0.3694612653972953 Nd
  -0.0033313127899142    0.5009654360940409    0.6192610009408983 Nd
   0.6626527707242843    0.1664867831310933    0.3758690462041308 Nd
   0.8445639874718536   -0.0044700159104847    0.1213524922053434 Nd
   0.1677468716713692   -0.0001310358913086    0.6275865460596397 Nd
   0.4969914728468893    0.6668746309344691    0.3683115760254078 Nd
   0.0013278759623383    0.8347521453491519    0.3765892359415616 Nd
   0.4903015363487594    0.3413364946433612    0.1213912233561778 Nd
   0.5012659635975818    0.3305676727434402    0.3796778925261731 Nd
   0.0872391439206534    0.0948839337370800    0.4342588516913931 O
   0.0793772786010112    0.0877985149649029    0.6863693815064208 O
   0.7572285816098230    0.0790833926492618    0.1833448447444679 O
   0.0909358523965802    0.0880796919692052    0.1878461196437070 O
   0.4173843139066865    0.0987250971468017    0.9406265933861020 O
   0.9164910784941042    0.9200312235440025    0.8179265692287150 O
   0.9311478080414458    0.9290645714898308    0.5672966565387285 O
   0.9185458951934918    0.9165174018237602    0.3076956816389001 O
   0.9368869140188782    0.9103803683962143    0.0514099118268869 O
   0.9136677819516431    0.5821160279739606    0.8101352924389116 O
   0.9120880988383542    0.5878892451488087    0.5639919304126935 O
   0.9171541109822572    0.5833730030776213    0.3092867062555135 O
   0.9098188040889568    0.5790906024633323    0.0636355127846196 O
   0.9097506852989757    0.2525292303756943    0.8139049250060367 O
   0.7498058762834127    0.0809092771412907    0.4372119628771828 O
   0.4207947705481532    0.7453081611461865    0.9395628876942997 O
   0.4293131827007926    0.7528915851422576    0.4387771103709883 O
   0.0970246528005333    0.4063790716664830    0.1913955737934451 O
   0.4129098823845638    0.0736988726151366    0.6885293573655580 O
   0.4010827415113352    0.4221285098923886    0.1819989873068435 O
   0.4129849924349919    0.0801827780304906    0.4401595753320469 O
   0.4133774006910959    0.0663370224683773    0.1817162928391613 O
   0.0825144975100872    0.7463045118610043    0.9331295255739653 O
   0.9173992119823663    0.2417269255546301    0.5574654006010702 O
   0.4131221824334541    0.4209573213637038    0.4324475253490490 O
   0.0776066283218105    0.7348837435542801    0.6757812319939580 O
   0.4043411578307905    0.4141440278770386    0.6875944698213002 O
   0.0811097015132494    0.7481082515317528    0.4445683186813065 O
   0.0791395585150857    0.7444573076870987    0.1939414249643032 O
   0.0983339407725137    0.4189309228407336    0.9397899570372982 O
   0.4142150094750408    0.4065436535314619    0.9311067939701736 O
   0.1019757784830138    0.4291646541469042    0.6822588609186055 O
   0.4159155893617408    0.7581750528697232    0.1881754110185730 O
   0.0849802998819263    0.4061488719251347    0.4339207302193044 O
   0.4260425398508768    0.7613126864222647    0.6882445143623542 O
   0.0868203404751006    0.0960983737748949    0.9373569380127976 O
   0.9138787979007790    0.2492566905798110    0.3245628661031130 O
   0.4159861365449428    0.9028575214342519    0.0742351295549798 O
   0.5794607005621383    0.9123360135025017    0.8220801977187790 O
   0.2528852043947004    0.2433913173461379    0.5595755083178078 O
   0.2677242586103706    0.2475888337184893    0.3108782674631909 O
   0.2476987459205258    0.2515111799554450    0.0564820751776615 O
   0.9136462023626635    0.9183167072600558    0.9354604471434517 O
   0.9100282902376661    0.9193030713376289    0.6914317597894933 O
   0.9166860961434122    0.9245845960632825    0.4406282257617068 O
   0.9210932873906976    0.9036179044788192    0.1852799038652520 O
   0.2513377896761754    0.2522067909789266    0.8069696477245217 O
   0.9146054197431652    0.5808806208596374    0.9398944183986561 O
   0.9097648777798529    0.5769665680432624    0.4392681180789638 O
   0.9047576506128961    0.5952510950886715    0.1869273760335724 O
   0.9178741387873883    0.2502383159236198    0.9386302530650704 O
   0.9184697533000143    0.2445058319196041    0.6880706838347382 O
   0.9247037847741989    0.2503313053791089    0.4301820186840542 O
   0.9288487229617461    0.2510788364718194    0.1903361809670251 O
   0.5846752695866810    0.9177374873547093    0.9452357603531557 O
   0.9166348975631943    0.5819744199589799    0.6867535516964091 O
   0.2527955883078397    0.5942548415279343    0.0606978473528243 O
   0.2496979298327870    0.5885788235839914    0.3143234318371823 O
   0.2569883809956636    0.5821617211265119    0.5610678075459254 O
   0.5790123257674341    0.9158530392362169    0.5651809318084571 O
   0.5856213755877959    0.9413529045341286    0.3103243712901615 O
   0.5838069378442474    0.9151962536097848    0.0492997316615289 O
   0.5821035103238718    0.5663532430033412    0.8167569665973626 O
   0.5835767853978282    0.5806914941330285    0.5639699244946359 O
   0.5849689151769868    0.5745504808582114    0.2976547107492459 O
   0.5716682296193082    0.5825918658319492    0.0658222354980699 O
   0.5985395381614054    0.2619813102309836    0.8134223195469859 O
   0.5829164479776922    0.2570359395205227    0.5632954628929756 O
   0.5792560692778872    0.2527752544119307    0.3052880546189758 O
   0.5877605321114930    0.2570532384200930    0.0646588656975428 O
   0.2505362489922658    0.9213849569393018    0.8113536307972891 O
   0.2456571507346756    0.9176425740216407    0.5608234172575676 O
   0.7492953418836190    0.0826470969714825    0.6944118699118363 O
   0.2476728064549866    0.9060771927474655    0.3168963355001490 O
   0.2481562456805172    0.9072439136083299    0.0680403694127518 O
   0.2505727362911279    0.5881468828122802    0.8229130387326838 O
   0.9140388484807801    0.2480606909472045    0.0660626764169979 O
   0.7509402423675601    0.0861298229585917    0.9379784351218272 O
   0.5781219036650220    0.0814525450980526    0.4369067393172524 O
   0.7549480765005552    0.4170107662243220    0.4411403889581079 O
   0.7518377610512753    0.5841185863563694    0.5703218221551929 O
   0.0751759256940880    0.9269226741404704    0.0625174966217684 O
   0.7501505546865931    0.5666436748632618    0.8177114734640801 O
   0.7610173628885114    0.9142509747340414    0.0528193254451747 O
   0.5747335041605912    0.9088884368821081    0.6916544449156792 O
   0.7528303784842648    0.9209316599186350    0.3025430933710441 O
   0.0826714834368235    0.5906605136496567    0.8141519102255385 O
   0.0873945494360815    0.5922911510279997    0.5577714518046555 O
   0.0827825943565118    0.5846272840432906    0.3212279714952454 O
   0.0819798770074229    0.5844641623214454    0.0688784366269415 O
   0.0762335740187030    0.2494722329388940    0.8102906736787241 O
   0.0872229392511677    0.2467143489250381    0.5547981931093435 O
   0.0896379828017400    0.2465689331269534    0.3115788399843118 O
   0.0856109341625279    0.2377782483101109    0.0618401294027684 O
   0.9156040478647918    0.7449995479576351    0.9235126391906788 O
   0.0857681895179025    0.9159693017959680    0.3109169012639956 O
   0.7380360334409728    0.5840766947503108    0.3107325856358832 O
   0.7340248377027969    0.5840273347032123    0.0620394192619489 O
   0.0666060168250025    0.9023241918896963    0.5637383094522078 O
   0.4166683227437234    0.5778703832945352    0.8123453910063710 O
   0.4205765341600409    0.5877549000938762    0.5570401626224030 O
   0.4170563799065898    0.5737658058016398    0.3089609259752391 O
   0.4193600457682191    0.9206121709494142    0.3153825512271871 O
   0.4126689934588805    0.9178597206563911    0.5668375847968645 O
   0.4273605129449043    0.5902515439217917    0.0597523338067887 O
   0.4222595812834252    0.2525397549645600    0.8172640472630122 O
   0.9064705949795814    0.7500351374617032    0.6980067726236874 O
   0.4145198082855418    0.9169137038956705    0.8065559634227455 O
   0.4161270344954616    0.2469157588374327    0.5634521520395736 O
   0.7466944672185591    0.2581369348989715    0.3105145539205597 O
   0.7483868449463424    0.2520178075885714    0.5602984404728937 O
   0.7411940429598114    0.2640126351103072    0.8138698406069322 O
   0.4076944485691945    0.2383285857703189    0.3119734984582622 O
   0.4141738213915896    0.2542876343777521    0.0556770663075818 O
   0.0898888577602624    0.9200293043985476    0.8118419176951468 O
   0.7543826316770441    0.2551254889962152    0.0587625462005304 O
   0.9075530336014674    0.7514960629742797    0.4376258198865185 O
   0.9170647310968585    0.7316122425667659    0.1840032624204788 O
   0.9217091766246590    0.4160112953387585    0.9418559705904712 O
   0.2577909951419100    0.7495850370234076    0.4363427293898835 O
   0.2421693115634583    0.7424488454865308    0.1910629138600569 O
   0.2368410553750284    0.4305801746382291    0.9362739143933894 O
   0.2416512959736084    0.4287508539069125    0.6844723641618634 O
   0.2478174014716137    0.4153549512568336    0.4334046663833208 O
   0.2350454579199200    0.4213901180753262    0.1842854086612628 O
   0.2575016833963437    0.0913222336435592    0.9384972259430315 O
   0.2463698734488665    0.7489893582356837    0.6880490252075747 O
   0.2503802912303556    0.0889367738239327    0.6868974624214579 O
   0.2637265644742601    0.0827738804631496    0.1899773678356987 O
   0.7462033725299482    0.7399178467469422    0.9287024715059922 O
   0.7283045080244986    0.7537106262995296    0.7016449120609101 O
   0.7421127054114601    0.7568647038228687    0.4403259637526691 O
   0.7566394430951460    0.7498755066706296    0.1833924992314911 O
   0.7551019047078078    0.4176424818274385    0.9389843760114577 O
   0.7546209609577810    0.4253191970916633    0.6898642197019694 O
   0.2480214601091866    0.0792630093997333    0.4421260026084882 O
   0.7498201639580897    0.4157551157657096    0.1846885743080099 O
   0.2498541006128935    0.7380608906050482    0.9370100627395098 O
   0.5812891923887727    0.0732962287004302    0.6903511189646440 O
   0.9263148279450327    0.4138341005748430    0.6893544076297120 O
   0.9162406413486872    0.4100347065420850    0.4406451010975435 O
   0.9198044171430069    0.4181862703320702    0.1921811476249094 O
   0.9174048935210825    0.0916954121099920    0.9321647665511915 O
   0.9115975210123350    0.0913739034966903    0.6813582020442982 O
   0.9186095059368740    0.0950500372498796    0.4380340556615633 O
   0.9272209941137186    0.0757001279037340    0.1867202641925146 O
   0.5888823590068275    0.0841972435845668    0.1833167959714948 O
   0.5788465165102962    0.7568669410994286    0.9392732880102513 O
   0.5946554305114602    0.7480777294183227    0.4374767832593401 O
   0.5873477178673857    0.7467993434206358    0.1859610491477776 O
   0.5875991866917000    0.4123797475128970    0.9363185024688023 O
   0.5835363147790412    0.4198736531134776    0.6819885274576560 O
   0.5897752495125539    0.4159549541081626    0.4389167761995438 O
   0.5770597827386519    0.4199130125241693    0.1879469429457582 O
   0.5780831202632304    0.0759301828234948    0.9408617920177323 O
   0.5921146447108386    0.7557813194913708    0.6936278351072145 O
   0.5777241742523693    0.9065989634474143    0.4389490097235794 O
   0.9079920989207697    0.7469403886991655    0.8218956529264603 O
   0.5799193093018262    0.5861840850916133    0.9378102531738830 O
   0.7529079076511253    0.9178506788547217    0.4355663412028629 O
   0.7355726640417656    0.9111303074246997    0.6949441256119825 O
   0.7437589113093115    0.9148987810132747    0.9312472345074061 O
   0.2346748504376485    0.0842191357926775    0.0610174692623807 O
   0.2567577947468068    0.0754060155697228    0.3192093631835625 O
   0.2514264642154247    0.0838512651642416    0.5635071232457149 O
   0.2441167854022855    0.0877161754318745    0.8098892856943652 O
   0.2491082420500083    0.4229970292618971    0.0639731325649713 O
   0.2588379620978947    0.4232154506719046    0.3071281464244701 O
   0.2630421823018376    0.4155483984714921    0.5620885189747516 O
   0.2586070702202806    0.4156447778221417    0.8103097077591155 O
   0.2536223798097522    0.7339959153819362    0.0660515020606764 O
   0.2620257068722207    0.7464221625551378    0.3162915601900895 O
   0.7539039913660553    0.9143296676500630    0.1829560383717180 O
   0.2485808701458519    0.7456359152102513    0.5577360217481430 O
   0.5936556637359965    0.0860966621551223    0.0581236299335861 O
   0.5876744671921712    0.9189349042291893    0.1818159054322760 O
   0.5790876979068055    0.0890202816862007    0.5616275401692368 O
   0.5794080117814017    0.0920286818184576    0.8223419562257320 O
   0.5821319153651264    0.4198165445008459    0.0577278195490348 O
   0.5815007754279085    0.4328411291107825    0.3099590251303571 O
   0.5749589553455123    0.4197577648670157    0.5639160790265121 O
   0.5859039487170280    0.4076466457121609    0.8128093354903710 O
   0.5739578961724852    0.7444244011710542    0.0618619140529060 O
   0.5824642887021754    0.7536161198624943    0.3082079748066788 O
   0.5798174660442399    0.7503070363261349    0.5652281442395232 O
   0.5837681628631225    0.7340380732348472    0.8165574667987306 O
   0.9300264973590608    0.0845911576507633    0.0579386265210496 O
   0.2445576053107886    0.7553320470577211    0.8133361728641741 O
   0.7473744041677517    0.5801655349360669    0.9483854984617626 O
   0.7536347017684965    0.5911829998261843    0.6927791519861469 O
   0.7533844290462033    0.5875018051745664    0.4404347107110819 O
   0.0944048024079894    0.2626672967178149    0.1908055715142281 O
   0.0765337694521493    0.2635317495826764    0.4299481737190731 O
   0.0791843529227876    0.2656367877572907    0.6838116187090048 O
   0.0841969348355046    0.2599325181767107    0.9350656090402025 O
   0.0742864741668387    0.5769318151979941    0.1966690671745328 O
   0.0781068984074322    0.5729957083956674    0.4483179350828979 O
   0.0874779514666043    0.5851655570746924    0.6850942454869757 O
   0.0932271646839224    0.5797330746208254    0.9387583662621827 O
   0.0864379771728420    0.9120869336734674    0.1880120511796071 O
   0.0864415129077652    0.9258169708753794    0.4385121359123725 O
   0.0863423440159700    0.9049022198699509    0.6879189827634474 O
   0.0836300655097271    0.9197265581280085    0.9374425484036765 O
   0.4070382035225957    0.2479067605164850    0.1828391763621809 O
   0.4163916662225005    0.2442445615278143    0.4375543442017575 O
   0.4105099063148884    0.2429594461950899    0.6905798560161459 O
   0.4170566233784656    0.2394436355960144    0.9371136081782545 O
   0.4194495430983158    0.5860417495760952    0.1799892225237699 O
   0.4129609429674390    0.5874311218523139    0.4333695630149877 O
   0.4162049161561768    0.5950866769614586    0.6812906926916510 O
   0.4109967880019057    0.5783279356868147    0.9350301236587804 O
   0.4164056171191193    0.9259250238804914    0.1772250960059126 O
   0.4162818085317938    0.9176135164442200    0.4464230957888112 O
   0.4370308928951318    0.8975239616432089    0.6887637911856137 O
   0.4214680195165899    0.9199520930354972    0.9433208525182792 O
   0.7568262378925685    0.2534341725399011    0.1853339672731139 O
   0.7511756270050335    0.2500643620425873    0.4368050116640175 O
   0.7501596806969104    0.2518318948133050    0.6910938307145593 O
   0.7528265990092489    0.2528742429519233    0.9378149712115393 O
   0.7434633999269644    0.5884287875386333    0.1786562422449705 O
   0.9253582620729405    0.0811577051551720    0.3086699381710645 O
   0.9126140010281217    0.0793090938607116    0.5702548045275579 O
   0.5639261543046413    0.0765056324001260    0.3129812150361411 O
   0.9120316772229839    0.4134430091112598    0.0658966792541679 O
   0.7543958603253897    0.0833848977649639    0.5635873502640327 O
   0.7511536650305688    0.0961677817248782    0.8150860277787769 O
   0.7505471000264143    0.4168876565592259    0.0617951179350564 O
   0.7381038406702679    0.4090919319491269    0.3143736804462763 O
   0.7297796616977444    0.4183035029443549    0.5649632190738723 O
   0.7390964304075670    0.4043742858503341    0.8149131607698051 O
   0.7455441246405909    0.7463112989847847    0.0512741063505598 O
   0.7544761087687331    0.7567813964545428    0.3078577327213946 O
   0.7518856102698431    0.7494318121668165    0.5740482347806181 O
   0.7487922929710605    0.7422879043715280    0.8104055356239510 O
   0.2372964754800077    0.2555720653327071    0.1845638040168751 O
   0.2405875473816506    0.2460722620561910    0.4352920094127413 O
   0.9158497228568917    0.0884259011756522    0.8059071529328261 O
   0.2496505683022819    0.2591392517474744    0.9317705753036437 O
   0.2448671401894921    0.5698904975330660    0.1846682968135258 O
   0.2541978988940741    0.5793984480466903    0.4383799233414347 O
   0.2535864739626067    0.5707377789564964    0.6885963762700974 O
   0.2498945487079357    0.5673000215777624    0.9428804117663763 O
   0.2529023979331610    0.9086018897946613    0.1967763213594163 O
   0.2525936372412051    0.9200730736734772    0.4370521594537712 O
   0.2595506200903338    0.9189049693339697    0.6905968486203157 O
   0.2503912688642138    0.9175639730525268    0.9379039072797654 O
   0.5842062133359270    0.2537450845443079    0.1767737735870591 O
   0.5835211481680708    0.2476506685903123    0.4427310875947144 O
   0.5801545313569582    0.2463282371970531    0.6938916671692673 O
   0.5845058696039954    0.2464810647028498    0.9435021774759620 O
   0.5873315373026556    0.5859954551732949    0.1921470733362281 O
   0.5893868826991678    0.5912984029065990    0.4315048254295531 O
   0.5831110342995474    0.5945791878769205    0.6872595878607075 O
   0.7421038189495545    0.0880438177312987    0.3069073655288115 O
   0.7638766148149334    0.0877687074559233    0.0594698094073290 O
   0.2506840786596853    0.2596366680534429    0.6846367708664287 O
   0.4147264745515735    0.7488222072999833    0.5623311949245126 O
   0.4203118951921249    0.7445331676698241    0.8169654174104964 O
   0.9101795801254718    0.4150792799652359    0.5582601888284509 O
   0.9073691567789928    0.4159528451707827    0.8119292590238534 O
   0.9186610419347139    0.7554487171674978    0.0580176548295818 O
   0.9228789566794658    0.7518942510098869    0.3070371157969769 O
   0.9178194603798437    0.7535740297135659    0.5708089789248801 O
   0.7484566656839056    0.9154925566530578    0.5664248491319251 O
   0.0883681751841593    0.0673057035801045    0.0632571797987837 O
   0.0893954632251674    0.0750215114952458    0.3112740588163774 O
   0.0837839233551659    0.0806052454889756    0.5595883788814406 O
   0.0776758540098278    0.0887793586862552    0.8155526416759450 O
   0.0797415546346057    0.4152132337778108    0.0654688503139956 O
   0.0854346981769993    0.4189941223088428    0.3143488102821003 O
   0.0859321208242454    0.4182307763715510    0.5564088207991177 O
   0.9071187663838738    0.4150156804038432    0.3204806000450903 O
   0.0954269382869141    0.7508789854507236    0.0677191905875472 O
   0.0785633436475716    0.4139646853002802    0.8079412393670412 O
   0.4024270148964897    0.7511711886603729    0.3082447944286547 O
   0.4063063379824881    0.7463740344399196    0.0648676153634228 O
   0.4274671401495376    0.4079074548500939    0.8131903811948280 O
   0.4332588354254240    0.4172886885038385    0.5590649981633449 O
   0.4264153000713966    0.4035190867212432    0.3033478464440962 O
   0.4120532078176035    0.4301494554531537    0.0555665827620574 O
   0.7488435287092881    0.9186497484698646    0.8260375976606413 O
   0.4134423618710700    0.0853531877369053    0.5627283480363083 O
   0.4227063723077616    0.0887025225977083    0.3130736622594567 O
   0.4179630111200553    0.0816722654308519    0.0649327124666567 O
   0.0819736483403806    0.7545367256098443    0.8030863568640556 O
   0.0813581953259216    0.7597672370190806    0.5728755494926917 O
   0.4068338923908692    0.0843884607051123    0.8152590966723666 O
   0.0943706707818608    0.7489592006631381    0.3159184290434153 O
   0.3255716502021934    0.1696466804021295    0.1179254901896889 Sm
   0.0074845905312725    0.8364464750658003    0.8725045615404801 Sm
  -0.0054048080059746    0.5000753010978978    0.3735329096695600 Sm
  -0.0040872322310999    0.4993595528272870    0.1257608496726336 Sm
   0.3332010142676805    0.3280115619239871    0.4954888556834829 Sm
   0.3331586043511307    0.6568204353833407    0.2435525617366409 Sm
   0.3254124462850603    0.8305550227063976    0.6215027347708201 Sm
   0.3274664117489750    0.3379910919034902   -0.0010838571682877 Sm
  -0.0110168222680560    0.6705051456252040    0.5008999237233142 Sm
  -0.0055248698317651    0.3355230307069057    0.2608223475922080 Sm
  -0.0010734873026854    0.3284873006110506    0.0057551235826333 Sm
   0.6701762489066272    0.6657098944186681    0.5099274770742918 Sm
   0.6786910677274296    0.1681837321720251    0.1229467312115792 Sm
   0.1708116415722980    0.3302473967369878    0.6153536035931846 Sm
   0.1700535196292597    0.0054028288996263    0.8771209012259918 Sm
   0.1646628106806943    0.6625848253023907    0.3847639898939421 Sm
   0.4900847275606861    0.0003671553233592    0.8715109105364433 Sm
   0.4948545596920564    0.3259848870571700    0.6304848960798826 Sm
   0.8197492196631647   -0.0059917952728205    0.6333205230054276 Sm
   0.1631573835726349    0.1735615767352516    0.7454037353109151 Sm
   0.1688828524316311    0.5045750096928011    0.7627079138007811 Sm
   0.1719371639058893    0.8343254600612605    0.4947502020858989 Sm
   0.4936058626792574    0.1596053168293117    0.7503074788317043 Sm
   0.5015407193082305    0.5076910133802464    0.4911218014353641 Sm
   0.8306602254518860    0.8235612943799094   -0.0104834499868692 Sm
   0.8310312198895106    0.8407542048807821    0.7567205095242334 Sm
   0.1768398501054003   -0.0041249948705730    0.1350898324341137 Sm
   0.1772079617747701    0.1590703599746222    0.2553623169432915 Sm
