Yb14 Gd15 Y14 Er15 Tm14 Si72 O252
1.0
  -0.0048492769506816   19.7201880287879163   -0.0004208087407559
  20.0915453326475877   -0.0049411857621934   -0.0050192728782948
   0.0039670527779027   -3.9364413559113842  -12.0100112890128532
Er Gd O Si Tm Y Yb
15 15 252 72 14 14 14
direct
   0.0577597002764961    0.2252453988350382    0.3498957486674437 Er
   0.4924031112266539    0.9640005994472265    0.6370837599137688 Er
   0.1569658995519717    0.6291873787430767    0.6362762611030940 Er
   0.8437182890507304    0.4604126058903856    0.8666546133701351 Er
   0.9432208072149176    0.4447745003741122    0.6497737779977327 Er
   0.8265086581324861    0.6288443147126710    0.6343489651911783 Er
   0.8442253020697812    0.3722533915415934    0.3633135504509806 Er
   0.2742462578822981    0.4447603537238158    0.6479423698364490 Er
   0.9413314114428089    0.7197115499700018    0.1476966156565275 Er
   0.2736073778998019    0.7199618993048937    0.1485868112895770 Er
   0.8256541683494421    0.9645480303089169    0.6368468998129695 Er
   0.2755389295884669    0.0580278403721596    0.1511870351274174 Er
   0.4899647134816341    0.8694148580253493    0.1376457672395162 Er
   0.8268983322389515    0.2055031529236563    0.1339649367704826 Er
   0.3923785551060369    0.8876332748158782    0.3549325403789730 Er
   0.8233574930513321    0.8691959846854208    0.1389160505797333 Gd
   0.1740822220122294    0.7960523657401323    0.8640342297108544 Gd
   0.0579444435317827    0.8920355236740396    0.3492500660826516 Gd
   0.7231390465006627    0.6077644915690000    0.8509898718687233 Gd
   0.8421173018961813    0.7947011242387894    0.8633088771175842 Gd
   0.3898887058323496    0.6108923231651242    0.8523548002715938 Gd
   0.4923184295340621    0.5376442923784197    0.1375773602257328 Gd
   0.9462121279313436    0.7737711797157608    0.6505042124832384 Gd
   0.3893908765565889    0.5571694972855843    0.3524551860069532 Gd
   0.0579672469836997    0.2761090011761760    0.8489310776355793 Gd
   0.1550176281984425    0.5368910410501273    0.1341703448968594 Gd
   0.8421781712991635    0.0381686079903050    0.3633762639425888 Gd
   0.7243388619666484    0.2231410806862439    0.3502785303358476 Gd
   0.4898985277191532    0.2048423079630434    0.1344282028699258 Gd
   0.6108215259448193    0.7230775537183681    0.1535466733459517 Gd
   0.3929075285818394    0.4882956315027060    0.7153564697621136 O
   0.0598745149902219    0.0113143211287303    0.2103599570977217 O
   0.3926386760650837    0.1537923194336654    0.7130965672366447 O
   0.0640335296961603    0.8239595223538932    0.7115239900693311 O
   0.0607942986627582    0.4893666577236954    0.7143253908870431 O
   0.3945899874761751    0.3444710434336861    0.2128640536342056 O
   0.3905038242474045    0.6778970692846406    0.2127925839207248 O
   0.9350520440732877    0.8420066131362292    0.2864667287802584 O
   0.0649528582910520    0.3393911890786605    0.2203241161945466 O
   0.0607813936156119    0.6753693960724441    0.2165149742727851 O
   0.7298796318421048    0.6746146963901236    0.2160810601246003 O
   0.7286520955403253    0.3426887980965349    0.2165989427218541 O
   0.7275920282524404    0.0115017161679143    0.2096043957411316 O
   0.0638590194680836    0.1578482039178098    0.7163876412607169 O
   0.3925485846234909    0.0067537650695063    0.2150055589502176 O
   0.2683492661712805    0.6587648456794726    0.7845848147483085 O
   0.7278515381550034    0.1584577779476018    0.7156458556531398 O
   0.3612252268137728    0.4237383173488930    0.5343512627308142 O
   0.3625366888006497    0.0903194966354305    0.5276481257004779 O
   0.0311547313094643    0.7587645671606040    0.5277411584963506 O
   0.0318866834833680    0.4225802547151795    0.5330441777636034 O
   0.0274648757839169    0.0921446204659979    0.5292563242639313 O
   0.9703096657086663    0.9252851872709682    0.9669632812193641 O
   0.9706247314604342    0.5901867642899663    0.9666709250129472 O
   0.9703532011267586    0.2572418021781818    0.9675681706140580 O
   0.6368798559663500    0.9233601420710930    0.9700996127543832 O
   0.6360164802896249    0.5900890600991642    0.9660908328404203 O
   0.6366524403196996    0.2551602919876401    0.9641161586541838 O
   0.3009289967604615    0.9210684183876208    0.9675987206906677 O
   0.3038311628759048    0.5907255932829981    0.9676018111702501 O
   0.3034135247826757    0.2568288979153200    0.9668026965293267 O
   0.9342368445053861    0.9931885277378254    0.7811199332385451 O
   0.9320945760343298    0.6587720700916931    0.7800095419479572 O
   0.9349604831199967    0.3242236828921045    0.7815781449429513 O
   0.6038778753897409    0.9900167767085400    0.7866074946195434 O
   0.6036030620201659    0.6585069389642315    0.7850252804277028 O
   0.6068788452597612    0.3258159166940801    0.7865410108095884 O
   0.2707378788238082    0.9929866638269327    0.7893735102536092 O
   0.9375057514480021    0.5088795800309126    0.2836554719769772 O
   0.2737634370707231    0.3271673041083971    0.7850017094040099 O
   0.7271280941150619    0.8247669641680870    0.7125127518054736 O
   0.7283971068177326    0.4896489812645710    0.7157506672700972 O
   0.3938964802713651    0.8247981727839115    0.7171877220407800 O
   0.9398321669794261    0.1770429839369508    0.2837525681496656 O
   0.7077144960249490    0.8667072099991950    0.1685215514073490 O
   0.6066443486809155    0.5099827677651942    0.2895133027768791 O
   0.9560999236931947    0.4642361321015598    0.8370027438797307 O
   0.9539697449853656    0.1360377096819593    0.8386149816840712 O
   0.6202481979960497    0.7992791124054318    0.8377028208350026 O
   0.6257132005188418    0.4668231030131915    0.8328806672663304 O
   0.6252761516060018    0.1341009845993045    0.8312305094009222 O
   0.2904398835511746    0.7992642863905510    0.8310014877928569 O
   0.2861251557349971    0.4699296623215991    0.8356497811568313 O
   0.2907005904470604    0.1316583292871772    0.8353075338035881 O
   0.7113313316705892    0.9671284712118355    0.6620509450962913 O
   0.7129989842588697    0.6333531284438587    0.6632286950053856 O
   0.7137792072772172    0.3002568655014479    0.6645890097589663 O
   0.3787796919525426    0.9666463297847391    0.6649239799633865 O
   0.3770012629699816    0.6323949095477325    0.6630619012607849 O
   0.3799708626443102    0.3005313340281450    0.6604227879105776 O
   0.0453257539891563    0.9681282431922041    0.6587874161229451 O
   0.0457331555446911    0.6338634308524752    0.6587264305822194 O
   0.0420593611662931    0.3006117894157618    0.6626312853897175 O
   0.9228154918053009    0.9450000085814909    0.1375423760527676 O
   0.9223833978157279    0.6103609374701082    0.1382832065950611 O
   0.9555917490353081    0.8003695380416289    0.8398981029175089 O
   0.6043026385552847    0.8421694356203110    0.2853644114172285 O
   0.2914186657368117    0.0329790127149261    0.3317186852593473 O
   0.2889821525217371    0.7018879108468954    0.3374941511841000 O
   0.6046426748377044    0.1770776866746054    0.2875040152755712 O
   0.2757111347641484    0.8465616286694172    0.2873654871020352 O
   0.2686404606373057    0.5081355590827868    0.2858705428863427 O
   0.2672753361122839    0.1736930255612716    0.2855842535941782 O
   0.3625525403614514    0.7581125870567728    0.5354240446863714 O
   0.7130585935199663    0.5337680944151013    0.1622158984457036 O
   0.7141673591519994    0.1997598709608475    0.1605225032949881 O
   0.3775458405031693    0.8680793620677009    0.1664096208752729 O
   0.3766999167849290    0.5327451896997614    0.1630298117432163 O
   0.3778966593828387    0.1996251616039667    0.1629491651715309 O
   0.0425864692577664    0.8682489248393009    0.1631817212846383 O
   0.0415733832039346    0.5332696683302492    0.1640478264852863 O
   0.0445247905953611    0.2001188012990525    0.1646865702333343 O
   0.9590645646604361    0.7001203897437218    0.3322444736108167 O
   0.9549617227545842    0.3659848327377059    0.3398854408742017 O
   0.9576663514316204    0.0344748450827885    0.3305814043672035 O
   0.6245175884887652    0.6984959109004655    0.3370447769094887 O
   0.6245234076213643    0.3669999071312003    0.3360421610215513 O
   0.6196517669388950    0.0349746611708107    0.3365075863199437 O
   0.2884470097462265    0.3662718136544829    0.3389222736622070 O
   0.6949911421727135    0.0915716497317539    0.5323157863863748 O
   0.6382696306743467    0.2441239541828284    0.4702299210019721 O
   0.6957633039155373    0.7577009666602076    0.5314031779276517 O
   0.1666848217405238    0.4272933183131956    0.6765845160351809 O
   0.1632784768491023    0.0870110607492913    0.6677303008030270 O
   0.8348205152711353    0.9247889813389127    0.8263012113737486 O
   0.8361357206528721    0.5868883756908423    0.8272301672111831 O
   0.8360364411973880    0.2541624935316216    0.8258457116978909 O
   0.5022676271400074    0.9211284660042751    0.8267630796157103 O
   0.5014247819911284    0.5916674352131309    0.8257072018379658 O
   0.5025709680204513    0.2574725038396982    0.8185166319474034 O
   0.1681739566934995    0.9225450188158864    0.8207297665785694 O
   0.1697073617411554    0.5861577415493838    0.8253121893176593 O
   0.1700538575718117    0.2586124891044330    0.8270624118218374 O
   0.9081778734264174    0.6710671035814051    0.5518362324688137 O
   0.9067605064728012    0.3417425316973906    0.5489853386660686 O
   0.9052506843155185    0.0054899421504419    0.5488596678671732 O
   0.5755347251617963    0.6745751468912725    0.5556731572121424 O
   0.5765586267140695    0.3426901115604973    0.5540112958104476 O
   0.5743782715471993    0.0080822890595767    0.5476312012101950 O
   0.2415579869343357    0.6750038782995282    0.5500767860489220 O
   0.2425561035268012    0.3425417797565629    0.5492773086286060 O
   0.1660406923693228    0.7570298323005810    0.6654251616037786 O
   0.2417931482922205    0.0070839637446035    0.5565932804627928 O
   0.4964489168985811    0.0855882874728736    0.6674129344987647 O
   0.4974821119223428    0.7588423716371823    0.6770246523959000 O
   0.8376266208776064    0.2463390421710585    0.3231666103341429 O
   0.5016864780631702    0.9101410762150500    0.3258599738132222 O
   0.5021225503840654    0.5752126179177118    0.3291533085705351 O
   0.5043005356297869    0.2484473073856818    0.3310283226318935 O
   0.1692903153834322    0.9099752707588049    0.3293241003326629 O
   0.1681586607330028    0.5780985740117788    0.3309287057861977 O
   0.1686696676512155    0.2443205115417618    0.3309410175344947 O
   0.8319631740054058    0.7422969896777267    0.1663551184442224 O
   0.8290259265467920    0.4126617514240277    0.1751133089719764 O
   0.8324141171637062    0.0773179122881416    0.1668137852704132 O
   0.4949042040715143    0.7476523113097159    0.1711369856622345 O
   0.4985017601443750    0.4097511585222999    0.1741304175372239 O
   0.4964789382699559    0.0721249008489815    0.1754308918723780 O
   0.1662634442207344    0.7394469121819073    0.1799842400005897 O
   0.1650447970967473    0.4075899216909239    0.1774819409897485 O
   0.1651070184462068    0.0789662105409833    0.1690878146279014 O
   0.8296542072241829    0.7561830111640631    0.6710665634021679 O
   0.8324487372976190    0.4238901927288134    0.6736344524133792 O
   0.8286044799975585    0.0880315205575626    0.6759018683712994 O
   0.4986574538455748    0.4220995533220405    0.6702747412505102 O
   0.6968978246987398    0.4242160404421302    0.5322711193223391 O
   0.7560559157924149    0.8404142118172777    0.9481440357959897 O
   0.7625762100762157    0.1736611653428000    0.9490828858404884 O
   0.2428840327125148    0.1583411098974271    0.0541642972157390 O
   0.9688309557954786    0.9103730985251292    0.4674626731362290 O
   0.9700153773665225    0.5760339453611991    0.4650682716551424 O
   0.9714079035671216    0.2431576048051004    0.4677863452765416 O
   0.6376667089399236    0.9104380674278227    0.4656812812121180 O
   0.6372399674307726    0.5774999231382550    0.4694666970312614 O
   0.9221435637772819    0.2745009663346168    0.1378128221875140 O
   0.3043206469439041    0.9111906867987360    0.4696888318929526 O
   0.3026028682808118    0.5759968718678823    0.4675134028130735 O
   0.3033909028030435    0.2424522429003973    0.4699398698788779 O
   0.6966837695415277    0.7418080900445606    0.0337371090399010 O
   0.6950233561648829    0.4077403471832760    0.0308774929899423 O
   0.6964771473555157    0.0771884303053048    0.0265842188344730 O
   0.3611031918922784    0.7434568292528904    0.0288506745746622 O
   0.3637604417809567    0.4097285848658965    0.0285795169498044 O
   0.3608538421570860    0.0732178767266824    0.0317345953701771 O
   0.0306985523215910    0.7431486744586590    0.0351701623594924 O
   0.0306682408550657    0.4081344283066919    0.0342125387182483 O
   0.0297448557194329    0.0749569711993839    0.0281064132518552 O
   0.2412309321654840    0.4921615513863222    0.0477601536947670 O
   0.7609237622140899    0.5043541713666103    0.9536472379355931 O
   0.2430398054420200    0.8233501687579917    0.0548106104738262 O
   0.5770469753912919    0.4919903310399685    0.0530933540558331 O
   0.4265525647172060    0.8396830329685316    0.9502933104460539 O
   0.4247756747433792    0.5063504948358393    0.9489521643380165 O
   0.4265045575366070    0.1703456532966106    0.9527984672141275 O
   0.0926602909594318    0.8397648408011257    0.9499642954002588 O
   0.0935321988521397    0.5041699595931842    0.9494443470053620 O
   0.0919848853135571    0.1736819172821518    0.9523880496004221 O
   0.7557137012567307    0.9920636818746525    0.4488952673277323 O
   0.7597359028306266    0.6589960041086940    0.4532865680847527 O
   0.7616581816968937    0.3275679465757501    0.4528961335003635 O
   0.4276024321930874    0.9917679610321374    0.4505397574053074 O
   0.4242213274003664    0.6606320108861473    0.4535435258900182 O
   0.4271215864401465    0.3276731389722466    0.4548143849790542 O
   0.0922074804671543    0.9954116126760837    0.4520956300240221 O
   0.0950793747410440    0.6604737491320428    0.4501872505892752 O
   0.0926676758418217    0.3258835786272164    0.4458532858593324 O
   0.9081473464238629    0.8260894084340016    0.0507103515919229 O
   0.9049683814221243    0.4943408212652670    0.0468431684131426 O
   0.9095512240855275    0.1573755456987037    0.0492346385779277 O
   0.5719566031091259    0.8270731882499203    0.0478496853127059 O
   0.5774513827506792    0.1576472102087647    0.0537292382330557 O
   0.5868549933503501    0.9428656951129782    0.1398187702114740 O
   0.7410107293788535    0.7221426913868597    0.8607808751822064 O
   0.5944037052960360    0.2758148400565116    0.1391480489713446 O
   0.2199723226186981    0.6982169513807236    0.9549544821927624 O
   0.2229459913871175    0.3696362914458743    0.9497794589370934 O
   0.2169720085056767    0.0302336577875439    0.9570897456678601 O
   0.7790684325211973    0.8686278151054808    0.5482272555223927 O
   0.7792492232652731    0.5344036330757488    0.5494583990974945 O
   0.7793715581465707    0.2008596815546359    0.5508611276445355 O
   0.4449454483189678    0.8689915471997438    0.5506603767244539 O
   0.4449835665124469    0.5334573124273946    0.5524953719202081 O
   0.4478772393213807    0.2004040653965053    0.5556042935086043 O
   0.1139164911092512    0.8702230470750398    0.5477374657336013 O
   0.1108276363777112    0.5353646069922338    0.5480393364989780 O
   0.1131801695111612    0.1990406774772917    0.5470785109399485 O
   0.7773668955361892    0.9661193761335197    0.0444650037748511 O
   0.7783096062080029    0.6296328238755808    0.0492679835665663 O
   0.7786652539278660    0.2994380149159925    0.0495670741455917 O
   0.4422854827256184    0.9630492651770316    0.0471407795094986 O
   0.4455094542201418    0.6348318829486375    0.0512804974194574 O
   0.5925934050480824    0.6101094501053664    0.1391916580691919 O
   0.2209935375116899    0.1345599906080945    0.4593460021853902 O
   0.2201866816130578    0.4653018888310212    0.4543315500424757 O
   0.2244481074481797    0.7996490864461094    0.4522946881635423 O
   0.5536932812818588    0.1341377477029803    0.4508363171037294 O
   0.5562712336421232    0.4660769863874979    0.4566840862665546 O
   0.5535497553670331    0.0317844594385354    0.9552436273536272 O
   0.5555647532741564    0.8014959926452229    0.4566750464516093 O
   0.8908376703706271    0.4649728307135374    0.4553256524115771 O
   0.8898293327559403    0.7988244858934946    0.4599227609240735 O
   0.1130012433273779    0.2986026007596261    0.0495061860445945 O
   0.1114488607888857    0.6327095646589633    0.0490248395707578 O
   0.1171277130064537    0.9692506631498421    0.0464276784376605 O
   0.4464656906749503    0.3007885265997111    0.0461892682010413 O
   0.8856354136113006    0.1343930338587237    0.4460742518434235 O
   0.5530995475496350    0.3651834907610660    0.9524265051907669 O
   0.8324663580826200    0.9068972792545753    0.3314742963994408 O
   0.8890576703407035    0.0350555214531382    0.9529417076923601 O
   0.7457219495201445    0.3882461073172953    0.8629180622764323 O
   0.8343930050158114    0.5726141093424204    0.3241962771248063 O
   0.0758984590477315    0.1138009388234903    0.3590765063510644 O
   0.0770668131036082    0.4436278745940473    0.3615038225364556 O
   0.0810350034864867    0.7773968075704371    0.3610376525564627 O
   0.4084945263084215    0.4434329839460808    0.3631007822937675 O
   0.7463462363109147    0.0564618104872541    0.8596995924903890 O
   0.4091927723034137    0.7797385446940985    0.3650146137566376 O
   0.7457232292565235    0.4446810301976177    0.3628943541832741 O
   0.7419587946073631    0.7782343784003093    0.3618418030399710 O
   0.2570994338725988    0.2768076919375770    0.1377898255202000 O
   0.2577037618297563    0.6097013357071256    0.1400774008149114 O
   0.5546184426193068    0.7019867349444294    0.9519231154195883 O
   0.2554638125848457    0.9450795691243739    0.1369727254217589 O
   0.7411510175623367    0.1100817054437756    0.3609468824971215 O
   0.4121533093138149    0.7232578916293845    0.8608847785457652 O
   0.4132883662680428    0.1077543170709866    0.3591862232347371 O
   0.4078219644358019    0.0533298398231053    0.8595089059418469 O
   0.8881406529987346    0.6984656798875390    0.9541887451988442 O
   0.3969815883014374    0.3906524693136577    0.8420964807665759 O
   0.2623686056779507    0.2266834396580428    0.6501310588483924 O
   0.2564519565571033    0.5563349708383822    0.6385094165808408 O
   0.2586512718397557    0.8896656606334850    0.6425152321195585 O
   0.8870291241072451    0.3668441285918971    0.9491044730108362 O
   0.5926232722356598    0.5563344726106407    0.6415064675586316 O
   0.5911036100617242    0.2254700475034968    0.6396295715738480 O
   0.9208558072542168    0.2250087326796847    0.6369600386551542 O
   0.9255543398704916    0.5543607486330064    0.6388895749215819 O
   0.9263714240021387    0.8907725043621620    0.6449640637391476 O
   0.0723672745986564    0.0596081733944542    0.8498634964598650 O
   0.0766064988774682    0.3887491239334762    0.8598355660994731 O
   0.0726406558725494    0.7242165508421335    0.8555574132707203 O
   0.5902945111483455    0.8920629564257816    0.6383633458420116 O
   0.0943017758064753    0.4715338540038778    0.6148081410479397 Si
   0.0958340903528501    0.8054841451756239    0.6102041801637077 Si
   0.4273261830557407    0.1353745756971443    0.6143688569736253 Si
   0.4278352418742588    0.4686656835312953    0.6164119068601688 Si
   0.4266064955465941    0.8060403965489995    0.6169814821958893 Si
   0.7606283986623307    0.1374418016697537    0.6162915422810084 Si
   0.5717870695186773    0.6385791401584408    0.8857014659049451 Si
   0.7602134960487362    0.8049337183992046    0.6128116284260497 Si
   0.2400751827299243    0.3048230534290510    0.8851681917183735 Si
   0.2370354534019132    0.6361660720146999    0.8849472416064964 Si
   0.2366444109130595    0.9689187473673735    0.8859241377427152 Si
   0.5717376837681338    0.9702515269057267    0.8872878327234637 Si
   0.0939361830083541    0.1357286653224864    0.6138905294620537 Si
   0.7612771392519775    0.4709368678192524    0.6156773831097699 Si
   0.7618269240957458    0.6937496171015524    0.1154938984372747 Si
   0.2374004171912970    0.5284341053492346    0.3871169653834501 Si
   0.7606164991361563    0.0305603131725880    0.1097634972932986 Si
   0.2387351939578211    0.1957015488541538    0.3882347532488422 Si
   0.9052624105907459    0.3037140684685645    0.8845986781804417 Si
   0.2401147609793773    0.8642246111154980    0.3850981568459485 Si
   0.5722201401890971    0.1984233557629018    0.3870481763160129 Si
   0.5733487776812306    0.5292141004764668    0.3890902977626302 Si
   0.5721579247750974    0.8623854288407770    0.3858816473936847 Si
   0.9068677974691792    0.1970938878491872    0.3832910493918316 Si
   0.9058605930429608    0.5276218961606545    0.3849107153685568 Si
   0.9049460115780807    0.8606718824701047    0.3898250993685998 Si
   0.0955028880998156    0.0311665804038821    0.1139713376953351 Si
   0.0938597209405184    0.3603023120567306    0.1177668631575910 Si
   0.0942215340430022    0.6947427049662539    0.1171221040204841 Si
   0.4253382662094379    0.0258872259301695    0.1151440586173209 Si
   0.4274752641329415    0.3628184754043476    0.1128882019002149 Si
   0.4256998708527088    0.6982828966990847    0.1164418643919530 Si
   0.7611698473185318    0.3628465533393206    0.1163802531387679 Si
   0.9056971981916494    0.6363479238727500    0.8842042848063860 Si
   0.5716597178267533    0.3037984568174510    0.8833411067930351 Si
   0.2998964313935500    0.2803209759061753    0.5850741647313230 Si
   0.3674083423566529    0.3881494722017570    0.4175937670990371 Si
   0.3680423516411443    0.7241314344204319    0.4162661073099557 Si
   0.6988147935525049    0.0558673609682784    0.4144032686809749 Si
   0.7030127388106673    0.3900024693632342    0.4146975674089300 Si
   0.7026410383998025    0.7215948939619948    0.4152764332476305 Si
   0.2996437010360913    0.2219145735819945    0.0854635368014811 Si
   0.2983678486730604    0.5554484576585812    0.0844880109748989 Si
   0.2980750716557199    0.8871408595072678    0.0876797248116995 Si
   0.6343059302779138    0.2204716329346549    0.0835988521338969 Si
   0.6338445493298888    0.5549836362011051    0.0852384039537964 Si
   0.6300018980414405    0.8894797546500423    0.0872586911545538 Si
   0.9657757586398265    0.2218928319041739    0.0853497255873648 Si
   0.9635064656306986    0.5556456020127236    0.0832006338801570 Si
   0.9648221227466710    0.8901910222778268    0.0841110969315211 Si
   0.9059841486330731    0.9721974001961838    0.8843580147832113 Si
   0.3694445007605087    0.0547788435802339    0.4117553594046321 Si
   0.0366813709577799    0.7229755969244175    0.4109902124668033 Si
   0.0349263258332593    0.7780011691935514    0.9168834993777839 Si
   0.0352304569597072    0.0577114301637900    0.4130196719385994 Si
   0.0343666881707726    0.3881390669808378    0.4128941791442261 Si
   0.2979760891924277    0.6111472704649845    0.5849709604651246 Si
   0.2992767626270575    0.9449476588491765    0.5875387458514413 Si
   0.6341361376780923    0.2798225506840997    0.5876203728028312 Si
   0.6332050438902966    0.6122007935628001    0.5872866850223515 Si
   0.9641254708399987    0.2782179814242591    0.5840102386228914 Si
   0.9670503335323553    0.6096650167279440    0.5853593225005512 Si
   0.9658722581406526    0.9453946567761866    0.5861306906099938 Si
   0.6325483905714080    0.9454831424373101    0.5832145106553749 Si
   0.0349786292451668    0.4424592181394336    0.9158053723176671 Si
   0.3688310009767291    0.1092941724853943    0.9158958808117055 Si
   0.3649613668632170    0.4464870924163881    0.9115467495878445 Si
   0.3682761174641555    0.7771031153879131    0.9118856499412619 Si
   0.7031097115292462    0.1117508836249689    0.9096988441320574 Si
   0.7021707427996284    0.4423742345733995    0.9138632050245336 Si
   0.6991550329103129    0.7764893459157856    0.9145736718411898 Si
   0.0329701124752655    0.1130355181209815    0.9124233191829977 Si
   0.7246862943128956    0.8850728758568458    0.3568223247608220 Tm
   0.6075716502056507    0.4463488802004978    0.6488455032963929 Tm
   0.9421230556945853    0.0542168428325113    0.1442213203618229 Tm
   0.1564508160368507    0.9642977090389003    0.6355317591273463 Tm
   0.4916608668453254    0.2944647209846408    0.6372801720633983 Tm
   0.8260754470425791    0.2945038037421839    0.6352187061581894 Tm
   0.1732083426166360    0.4637404070870165    0.8622089651796897 Tm
   0.5090322165895416    0.7953790281528382    0.8658072932736571 Tm
   0.1770200268547545    0.7063058804567925    0.3655798855202474 Tm
   0.2747749778193173    0.7800845986709541    0.6447737762733529 Tm
   0.1740819560874605    0.3708890486765249    0.3655050079510290 Tm
   0.8257754583855486    0.5353667571211177    0.1372464195007568 Tm
   0.5084222891459313    0.0400634808070605    0.3643629257135764 Tm
   0.8440971124660805    0.1283366773449656    0.8624598482376283 Tm
   0.6074825577240232    0.7794806475575089    0.6455273783428517 Y
   0.2748877018446584    0.1100464318010288    0.6481205879129456 Y
   0.0560731746526445    0.5555316989444909    0.3518608311054498 Y
   0.6082722231651364    0.3866005060593427    0.1436830327811903 Y
   0.3902544581655611    0.9423257980309515    0.8507787143432594 Y
   0.7248041816447112    0.2775303051803906    0.8520610142170865 Y
   0.7252093856421248    0.5568996576385529    0.3513863519993741 Y
   0.1591790321821070    0.2027555836809642    0.1379914271833519 Y
   0.4910658529139891    0.6295251597869629    0.6363042024746715 Y
   0.5080716303775574    0.3697375728705543    0.3652387151814084 Y
   0.2756666063529848    0.3874702390956884    0.1501918848519125 Y
   0.6067651313166484    0.1141801840738791    0.6456726053892908 Y
   0.6072504573635878    0.0542711397732070    0.1452506280114118 Y
   0.7234435552734018    0.9456649142580463    0.8503374898935352 Y
   0.3917318208764608    0.2219866807413923    0.3553045628995807 Yb
   0.9418022615402364    0.3888198233111694    0.1482717577657512 Yb
   0.5099999864581399    0.1300465682701147    0.8636490709596839 Yb
   0.0569397981445453    0.6095011791837629    0.8501368115103062 Yb
   0.0553127389307164    0.9410894246859208    0.8467173385466544 Yb
   0.3921580131573007    0.2706697714575376    0.8493818972379135 Yb
   0.1552179529995875    0.2990170882905455    0.6348405383787413 Yb
   0.1776611765530219    0.1332400999046294    0.8644265365138178 Yb
   0.5130330551052908    0.4639729212303252    0.8644936371880424 Yb
   0.1775491235660617    0.0363183489100597    0.3647232543736818 Yb
   0.8440138962166382    0.7028712177304505    0.3654505623068519 Yb
   0.1558189334334592    0.8678890934389644    0.1372442113077202 Yb
   0.9407031058832852    0.1106090260663841    0.6469917621269956 Yb
   0.5085559140140110    0.7048214508353409    0.3659662295084187 Yb
