Yb14 Dy15 Y14 Er15 Lu14 Si72 O252
1.0
  -0.0053161224283284   19.6422738002801260   -0.0024466340508809
  20.0246057343461423   -0.0054167274779669   -0.0063844056753674
   0.0048755321360685   -3.9196588568719246  -11.9728406574286801
Dy Er Lu O Si Y Yb
15 15 14 252 72 14 14
direct
   0.0576136121286002    0.2233628860361265    0.3492495420911900 Dy
   0.4919929467470301    0.5355907081788216    0.1365110013046583 Dy
   0.8427274830676580    0.7053539478878533    0.3641491234337041 Dy
   0.5085979783398691    0.3698089732615107    0.3633137806132382 Dy
   0.1744162808854448    0.7958870451099549    0.8652950336796026 Dy
   0.8246461363343721    0.2962181171523255    0.6365373097070820 Dy
   0.4924684093058370    0.9628728185317770    0.6377251601882369 Dy
   0.6081586297925728    0.7804578140351185    0.6489527591982263 Dy
   0.2755261032402959    0.7764466351351942    0.6483267363102669 Dy
   0.2749100560819832    0.4431144363220937    0.6462292815552320 Dy
   0.6088368996753101    0.7205824412481018    0.1466326438970272 Dy
   0.1591657450764843    0.5343410208707923    0.1383748079828503 Dy
   0.0547258146471584    0.5613799810659085    0.3439167912068756 Dy
   0.2753753321777641    0.0575620292710690    0.1483713405534879 Dy
   0.7252657047779236    0.8911978713977244    0.3524054324614839 Dy
   0.8255120269168422    0.5357736307141694    0.1354324625092062 Er
   0.0588339691786937    0.8867645242779861    0.3547317842164616 Er
   0.1579676194297621    0.2036895970150282    0.1361520506947812 Er
   0.4923889580126638    0.2033640934216046    0.1371503318374331 Er
   0.8239184744938639    0.2052526745093896    0.1327610448841010 Er
   0.1764730311684342    0.4603905877112089    0.8649954450003661 Er
   0.8263127994518733    0.9628691082239856    0.6384367724774623 Er
   0.4910507349122893    0.6290737037920492    0.6369152092065010 Er
   0.4913896472895596    0.2948238905905743    0.6356187295398960 Er
   0.3915122441943480    0.6106133799836091    0.8520771299754768 Er
   0.1578689741708853    0.2955055257086269    0.6326666060745656 Er
   0.8424146800530358    0.0381573773061171    0.3621993011326476 Er
   0.9417435688159478    0.0550385349089814    0.1477265877385239 Er
   0.9408559015291569    0.1142324188840949    0.6451212334493109 Er
   0.7241570363374870    0.5550096971125782    0.3532872073480569 Er
   0.6066193273084515    0.3851068193821194    0.1425458145440811 Lu
   0.8423583992776783    0.7951925229362260    0.8700604238883389 Lu
   0.8410752422406038    0.1290087417674209    0.8633097935976047 Lu
   0.5066437975751238    0.7957924935914011    0.8667444290899671 Lu
   0.5093579827150920    0.4612615009392080    0.8640706287102311 Lu
   0.2715542376100350    0.1116840026780712    0.6426369009324379 Lu
   0.1745011983697748    0.1286277875397176    0.8626809369755314 Lu
   0.6060002519115985    0.1170153080673669    0.6479423135288683 Lu
   0.9392328259110931    0.4481714669593799    0.6454470622931145 Lu
   0.8256607894119028    0.8695338518822132    0.1377518863682101 Lu
   0.8232388335182138    0.6271138799323629    0.6351812280140539 Lu
   0.0613628881417804    0.2810136162423019    0.8546194191862329 Lu
   0.1566629153792072    0.6272646168836165    0.6317356430416101 Lu
   0.6058667033900952    0.4463954223438867    0.6469773309839220 Lu
   0.7270773818791363    0.1546201787276572    0.7157397998962506 O
   0.4004142646198219    0.3416843866545183    0.2183460091717136 O
   0.2732974405897068    0.6574044365721073    0.7833332546309029 O
   0.2703478588861854    0.3230181604648334    0.7820022463999632 O
   0.7284810164077454    0.6764204226414828    0.2176174955520477 O
   0.0598606572447673    0.1564265609477921    0.7141040450253937 O
   0.3962354492735553    0.6737283136769168    0.2161565368469802 O
   0.0620051134410036    0.8243812316634703    0.7165400141335686 O
   0.3896030501353789    0.1506581282819522    0.7133966223762757 O
   0.7292866774309550    0.8247339180594865    0.7204270730329300 O
   0.7323331243668560    0.0059304726274444    0.2206335448208441 O
   0.3950650112646673    0.4921415085360190    0.7180164393012650 O
   0.3949985632292925    0.8210297953908569    0.7187512848204048 O
   0.2683819267492911    0.9929516734505546    0.7824513400226993 O
   0.7224700988671207    0.4851776841117235    0.7104894181348475 O
   0.0584018520397177    0.4888923409471896    0.7113061198122916 O
   0.7237047720560122    0.3471375562613531    0.2114291826500718 O
   0.3047134347294164    0.5906670340005413    0.9648869792390506 O
   0.6055293241803819    0.6562845875922018    0.7844850755309010 O
   0.6946528832280823    0.4226185355164424    0.5273483266052394 O
   0.6963172536723371    0.0902678159172367    0.5310108196864108 O
   0.3637541140227293    0.7564912231859073    0.5339241014190141 O
   0.3632943299849656    0.4245519169422801    0.5351920811565658 O
   0.3624619365307989    0.0905721964328762    0.5290562163107623 O
   0.0283704298259748    0.7570601132662421    0.5343877863772158 O
   0.0299294541126173    0.4235860063000442    0.5278839634044731 O
   0.0286608895024425    0.0898696552315439    0.5320073791282739 O
   0.9715395648812482    0.9258431488378472    0.9708787748814214 O
   0.9678432621374008    0.5904682654268834    0.9632963115017051 O
   0.9729370143702254    0.2560711316849839    0.9692634851892555 O
   0.6379200393602158    0.9235223886664967    0.9752796349332711 O
   0.6378067922231486    0.5905410168868097    0.9685418817429388 O
   0.6366789133528461    0.2574305586804533    0.9642270565440265 O
   0.3060916363867828    0.9263308123297337    0.9698262678195116 O
   0.3954206658258002    0.0106081751286433    0.2107508405101342 O
   0.3034301917359785    0.2578480625337377    0.9668303604580106 O
   0.9378637147853168    0.9901971353416711    0.7851445574484668 O
   0.9391426170039290    0.6583088649934831    0.7809899937933376 O
   0.9425353322162898    0.3191921188901126    0.7859632895692841 O
   0.6043175605792809    0.9888656469710596    0.7916317155531881 O
   0.6025095325475797    0.3276840468981467    0.7803569671026898 O
   0.0637120997315219    0.6707787016697379    0.2196348352835309 O
   0.2892140750806192    0.7992392349915431    0.8380128626349070 O
   0.0576620638493163    0.0126119696637921    0.2104819795581519 O
   0.9546914574300835    0.3659096239995079    0.3344146643983732 O
   0.9542839259826473    0.0343025694057640    0.3344619611329586 O
   0.6235919665201337    0.7021725191583869    0.3367621646108526 O
   0.7137829082620062    0.3002105968786661    0.6644553451338397 O
   0.7117897625340937    0.6316640884141705    0.6647175899319127 O
   0.7150881391490088    0.9672309085104004    0.6671669088856529 O
   0.6225636392951430    0.3682717524351073    0.3288482396727506 O
   0.6233767485205399    0.0322966350607531    0.3374034754600836 O
   0.9546936746873613    0.6986059596170030    0.3403826040263231 O
   0.2916627121447790    0.6984428457995007    0.3360979071891633 O
   0.2911698084542023    0.0322411569981515    0.3324843582018334 O
   0.9533756321444198    0.8002378435482739    0.8408520332220430 O
   0.9568100356189149    0.4641980717201852    0.8275390548437888 O
   0.9541047135922950    0.1334510833294125    0.8316978030618776 O
   0.6214261262684850    0.8006514951710655    0.8375025752144168 O
   0.6208838267002058    0.4673450958426180    0.8323537844728669 O
   0.6257944326634639    0.1304938950810314    0.8324405055767142 O
   0.2863441214125891    0.1331233908640545    0.8313200991974540 O
   0.2923753978113220    0.3652721564834571    0.3383862914514466 O
   0.0624436736500565    0.3410543269358381    0.2144152453137275 O
   0.0449380513815679    0.1990490775780817    0.1632889083981097 O
   0.3804744939317605    0.9659322613851526    0.6623277176183200 O
   0.9375792824405793    0.8441615411660035    0.2841706036690965 O
   0.9360089682555458    0.5114256444104667    0.2858366917289186 O
   0.9365069842391267    0.1760947970622276    0.2831545742914002 O
   0.6075591044592153    0.8459143319513868    0.2865887195237399 O
   0.6059895397984739    0.5100357719579443    0.2870632740703861 O
   0.6056513605423307    0.1769038605917791    0.2880268094024360 O
   0.2668553586127974    0.8396826847989840    0.2832243035712818 O
   0.2713404922014470    0.5092726799148233    0.2874181568073912 O
   0.0431696446284730    0.5330737248842288    0.1590543840091305 O
   0.2690212585378077    0.1698244225985650    0.2819994893592493 O
   0.7122233259610111    0.5339185647105830    0.1661054341218726 O
   0.7113835057912860    0.2017513031178833    0.1616701509250476 O
   0.2895430620724173    0.4658559242465435    0.8357392472339211 O
   0.3759185411286323    0.8657236688802736    0.1640928996065532 O
   0.3777812592199515    0.5329944409711341    0.1618248076744309 O
   0.6962006357817355    0.7576031684800096    0.5366212485450594 O
   0.3781294257061021    0.1971484684005631    0.1579727226887128 O
   0.0419439797542756    0.8677977376846608    0.1667333460155535 O
   0.7136869634438183    0.8634586899479345    0.1667382164057336 O
   0.0281918177639413    0.0786244301860590    0.0278669611879670 O
   0.5758719282323849    0.4909194240898866    0.0492100243870728 O
   0.0281670401338725    0.7417407876572116    0.0365351550574474 O
   0.1639654245109968    0.7550188682216896    0.6754997464436433 O
   0.1639474426409646    0.4233265645921090    0.6734866637859982 O
   0.1646691067689816    0.0919599244752915    0.6734433264049975 O
   0.8364665067150152    0.9220818674879868    0.8292794844550054 O
   0.8340658416991704    0.5931426966899942    0.8177286593262183 O
   0.8391194909491485    0.2475592069994864    0.8229960089676751 O
   0.5047598550240421    0.9133707673981966    0.8270476872982094 O
   0.5024397935608160    0.5885443764544194    0.8263545262614150 O
   0.4993037195217738    0.0894703726027037    0.6704179930268882 O
   0.5014089546281221    0.2591206958788307    0.8237185300404222 O
   0.1686750682440947    0.5904324440438423    0.8217110075702632 O
   0.1679111188619062    0.2550286323861210    0.8257037290933281 O
   0.9059993013931660    0.6743953695830007    0.5529883561746328 O
   0.9101415333053430    0.3432614657733499    0.5534982533737052 O
   0.9082645359075752    0.0084581016848474    0.5512795833533886 O
   0.5749658883476109    0.6752290018372947    0.5528075452561139 O
   0.5760872494703130    0.3433326233390495    0.5539760492503654 O
   0.5788980264856453    0.0110392191242486    0.5564267432752174 O
   0.1700542990435746    0.9222103147229641    0.8310240742585902 O
   0.2394833394058920    0.6729764047440535    0.5557645174204435 O
   0.4988760466960821    0.4270770507706753    0.6768008636483824 O
   0.8317906766134039    0.0901824675783920    0.6745531553493704 O
   0.8349076128390422    0.2447042088496099    0.3257267325146683 O
   0.5049287157003007    0.9160807423552004    0.3323327449947809 O
   0.5018599437407281    0.5760149592737670    0.3266477061026667 O
   0.5031887846762223    0.2458460705864259    0.3248513955666955 O
   0.1663576518807450    0.9067728038556396    0.3280248405855148 O
   0.1662369642500453    0.5723356516648083    0.3255161201185394 O
   0.1677591815606443    0.2383863267077393    0.3220641170835163 O
   0.8287807547575156    0.7478003821679295    0.1750107270517654 O
   0.4983949391395794    0.7549348350251213    0.6774807728644111 O
   0.8281855471095524    0.4144775239134024    0.1736533196615002 O
   0.4995277920081506    0.7392646771229925    0.1744239525986508 O
   0.4997920344822526    0.4102508184291681    0.1687763075942739 O
   0.4964569189173752    0.0829545896112612    0.1746954207676827 O
   0.1631382518845216    0.7436922291135776    0.1688106549467124 O
   0.1610646138334920    0.4139933479909718    0.1659869026858618 O
   0.1631520483033661    0.0805175060417602    0.1661592915670922 O
   0.8310039807885901    0.7558892333840416    0.6780800194965905 O
   0.8312253765041930    0.4225618228434469    0.6656182913372081 O
   0.8306573081425835    0.0759215518068370    0.1724580938906152 O
   0.2411293077773063    0.3391226562479784    0.5534061512853702 O
   0.2430168263855960    0.0085578511862408    0.5556127316678355 O
   0.7591628408660439    0.8398343317348781    0.9545281618418774 O
   0.2397148387699997    0.8278199486897828    0.0486439223989245 O
   0.2397290494684043    0.4948284880060062    0.0452638833150036 O
   0.2397733753896615    0.1589942828130008    0.0429367034738655 O
   0.9716009774431604    0.9105104782767560    0.4690559451342696 O
   0.9700857843550853    0.5781559909587153    0.4692122632219577 O
   0.9703426694042667    0.2444981252695040    0.4669434587982954 O
   0.6406333287304345    0.9127384284926162    0.4689852769133246 O
   0.6369514284949573    0.5782772532488962    0.4672386849821191 O
   0.5737566988158845    0.1608692116155866    0.0512603125756490 O
   0.6366561578073109    0.2459845025098696    0.4686141152789635 O
   0.3015805415350213    0.5771710566332507    0.4687896450896430 O
   0.3022018246280474    0.2429798109876959    0.4631381059546963 O
   0.6941712018398911    0.7408154953759454    0.0320820778237129 O
   0.6950796928512790    0.4104452767159454    0.0267719427639083 O
   0.6947504391977039    0.0725027217094440    0.0309918189093650 O
   0.3632049067068331    0.7414606213232360    0.0337281586152346 O
   0.3642461394259657    0.4088104799889760    0.0305775153902472 O
   0.3625362680854432    0.0747464324891445    0.0248164127724477 O
   0.3027822755134252    0.9114622232902856    0.4656832278067633 O
   0.3775253384444380    0.6322302365697955    0.6657701647622275 O
   0.5762001635741595    0.8228323765271904    0.0495500989681399 O
   0.9076676284507393    0.1577695395276650    0.0474512766566613 O
   0.7571889641024168    0.5100914780818033    0.9493218593523852 O
   0.7624409992195218    0.1702649992879205    0.9535560076762821 O
   0.4280455454648810    0.8368989557857132    0.9495066712698498 O
   0.4279240553200523    0.5064857227197789    0.9483094681889115 O
   0.4236414551334957    0.1751699895447170    0.9484221238478882 O
   0.0904268563323046    0.8409870184976874    0.9522456933446509 O
   0.0919748087541704    0.5058902498844766    0.9469306435848023 O
   0.0919385799259949    0.1766557895051292    0.9452173408065646 O
   0.7617456881123035    0.9933605992619428    0.4524808275100123 O
   0.7591011694944791    0.6595914431608051    0.4539739181686623 O
   0.7593437673603857    0.3263258929897936    0.4459875252513542 O
   0.4292842290710563    0.9954201466962643    0.4526446629036667 O
   0.4274840033996630    0.6590636872554668    0.4537753326974265 O
   0.4299646976246212    0.3292245125653353    0.4563282140028757 O
   0.0902665791146607    0.9915888801290267    0.4494342193162739 O
   0.0912743104520450    0.6588921197674116    0.4552401324963971 O
   0.0919230293921388    0.3260247773184786    0.4490323655401166 O
   0.9036399691234270    0.8295477066629358    0.0471101453867431 O
   0.9052660122130228    0.4937954429570822    0.0483453841840698 O
   0.0258771136857214    0.4075373175016678    0.0265281347698098 O
   0.3777087692259374    0.2964367404483921    0.6625058493582852 O
   0.7434065785441833    0.7241382345371086    0.8630265937861729 O
   0.0444918004721203    0.6332505218138474    0.6649203980738312 O
   0.1109862586116325    0.5349557433291523    0.5470717588930144 O
   0.1126445869764579    0.8664045156574157    0.5488698936868325 O
   0.4455930326219121    0.2009566519717560    0.5549831985690470 O
   0.4436103425459456    0.5360060813120320    0.5482934635160260 O
   0.4480986268958012    0.8667026953902656    0.5545900643530716 O
   0.7773889626124891    0.2006453269903590    0.5478282644590101 O
   0.7762659733454145    0.5350113533867984    0.5504855575425542 O
   0.7794777290593169    0.8680366126629468    0.5523364891647043 O
   0.2203390998575037    0.0358412111876976    0.9500990330175805 O
   0.2200911797046327    0.3671120576113889    0.9483461705892988 O
   0.2210821756303561    0.7001209404614989    0.9507391957597124 O
   0.5449443783431503    0.0267395533795949    0.9529723162228334 O
   0.5553274472419488    0.3687397241414224    0.9516655134072785 O
   0.5534042345954187    0.7007711965343688    0.9496759160950630 O
   0.8882758234335825    0.0356668200034614    0.9518786754736062 O
   0.1105285324309181    0.2017251549935982    0.5471221894983812 O
   0.7789431468521273    0.9627468745877851    0.0508596316306269 O
   0.7809536615284816    0.6332107494060398    0.0523991146241131 O
   0.7802404699056438    0.3007156896596769    0.0527080683604726 O
   0.0451597940268461    0.9669230679411071    0.6667092336990811 O
   0.2232651802145674    0.1320170666326138    0.4580784685601518 O
   0.2214917714353668    0.4651241807571515    0.4571402026055744 O
   0.2237545064132894    0.7999093898020185    0.4602782692889570 O
   0.5547916748104951    0.1347996195142432    0.4557532949749758 O
   0.5563956802272030    0.4661706810234902    0.4560856584362865 O
   0.5572270875386121    0.8023699142384966    0.4520142563166512 O
   0.8809770193172988    0.3618956125609256    0.9417346320138279 O
   0.8877648505067045    0.1331493606240697    0.4513682362557810 O
   0.8892572213877562    0.8002226543106601    0.4543473233264710 O
   0.1120186194345052    0.2993647311307377    0.0473539222095823 O
   0.1109742085392709    0.6313328451336861    0.0478763883274270 O
   0.1115339760388711    0.9674291660861013    0.0493296555137639 O
   0.4462511107246933    0.2984107036339060    0.0468521820206104 O
   0.4446517766819909    0.6304305619856448    0.0457704982425238 O
   0.4541000650351741    0.9704094117797509    0.0492951977781455 O
   0.8893483751093366    0.4673850617123158    0.4561086347275667 O
   0.8861143467088572    0.7019738544718557    0.9469753867813215 O
   0.8363148690433370    0.9111855339204042    0.3277189589875207 O
   0.2553046047166443    0.5553822839137073    0.6409668839686971 O
   0.4118246401897434    0.4453496373598381    0.3639951244011789 O
   0.4119445284061979    0.7755497947868552    0.3616657960232723 O
   0.7447660493694186    0.1098436066344503    0.3601301188803741 O
   0.7459082709849210    0.4461676142984694    0.3634231852282540 O
   0.7448507585616078    0.7787436097309501    0.3667401609561827 O
   0.2589453271660316    0.6107241097450847    0.1399087298514650 O
   0.2560368269785696    0.9453288119217973    0.1388138891163535 O
   0.5905874165481905    0.2783444904142529    0.1370199138615495 O
   0.5898127777642180    0.6090645465112435    0.1378785646283588 O
   0.5942783500142835    0.9393027986800829    0.1508673076249021 O
   0.9228479801371153    0.2740132399440591    0.1386230712262607 O
   0.9252743229614606    0.6089102880069676    0.1430086434499701 O
   0.9205963676465110    0.9454929093039609    0.1387516463721089 O
   0.2560147932795099    0.2207152906500749    0.6364390221602321 O
   0.0458249725238085    0.2984108790320250    0.6672490748062717 O
   0.4082857140653666    0.1101910924508306    0.3529565737581639 O
   0.0740700380941193    0.7773809933482375    0.3616617976732355 O
   0.2579705928578930    0.2720696149448148    0.1445502820004685 O
   0.0743768106806057    0.1120888619908673    0.3607662523298477 O
   0.2595556031045765    0.8902505753871488    0.6419673509487225 O
   0.5905747150267173    0.2245376962393925    0.6394614271343357 O
   0.0720532781872393    0.4449729321028154    0.3508236053533642 O
   0.5882994406963166    0.5558869223591193    0.6361289338067427 O
   0.5935581176117928    0.8917481215974623    0.6395021238607136 O
   0.9212321478514309    0.2229183996658863    0.6324936152279305 O
   0.9207942038536114    0.5565983994209487    0.6374010812525042 O
   0.0784315613396813    0.0584354489309555    0.8611762716851016 O
   0.9232098789400373    0.8903197770355425    0.6390192721288743 O
   0.0745571819008357    0.7240081035986096    0.8630950081751672 O
   0.4082858201227774    0.0577160043170037    0.8518568673738206 O
   0.4117856881110006    0.3900097635993364    0.8586132421374847 O
   0.4099676811120255    0.7203186720741449    0.8623050817275607 O
   0.7476936943901005    0.0538396960655618    0.8648938003634066 O
   0.7440063089955409    0.3916998469663117    0.8575759383765363 O
   0.8339779831675692    0.5779492585531543    0.3307831023059175 O
   0.0794193945745166    0.3877059220085566    0.8621108527202149 O
   0.4279417234466477    0.8036934045669147    0.6180856946844492 Si
   0.0929765442634072    0.4708548277870810    0.6124768418648401 Si
   0.0939563373185910    0.8034298063555836    0.6156987096335722 Si
   0.4274825294573253    0.1354733519390219    0.6152856688205830 Si
   0.4269421278325227    0.4730561727358934    0.6167754041981718 Si
   0.7599443786804770    0.1371897668368977    0.6152464698242469 Si
   0.5702268688924041    0.9649615278277891    0.8883334330378004 Si
   0.7612862193590401    0.8048982189994933    0.6193605373552140 Si
   0.2382514298798837    0.3039733279335380    0.8833252917999199 Si
   0.2396989283995020    0.6379561830200542    0.8824153289926219 Si
   0.2403070325275307    0.9719285003523621    0.8865306895690158 Si
   0.5730018317314006    0.3058693498270986    0.8822689048230826 Si
   0.5727156696450099    0.6373115959180239    0.8850030395982955 Si
   0.0926919674865443    0.1382223139156262    0.6134504213443114 Si
   0.7590437605559882    0.4685737320239995    0.6124584139399919 Si
   0.7614504280457778    0.6968329358091157    0.1172963217505324 Si
   0.2389727341460566    0.1926086221033252    0.3848202501940008 Si
   0.7601910253096071    0.0267126310522033    0.1161255338850380 Si
   0.9064403518718842    0.2984281918615584    0.8818701591732178 Si
   0.2379178712296162    0.5275023870111820    0.3880435089980572 Si
   0.2389317818289006    0.8613177607583833    0.3879135822267753 Si
   0.5720221069044463    0.1979013142197705    0.3869777690045053 Si
   0.5729838620306275    0.5290996866767395    0.3873317277790144 Si
   0.5731991819576644    0.8674987800726794    0.3865448709151059 Si
   0.9055864213720742    0.1968331654549067    0.3849422175979754 Si
   0.9052547781058476    0.5309806361958131    0.3881416448880486 Si
   0.9068189314628360    0.8631709405975154    0.3863692473255639 Si
   0.0928044254439085    0.0321564292661029    0.1131412545231634 Si
   0.0931465077660883    0.3638588113267386    0.1124995665731195 Si
   0.0934032443414902    0.6937996825716064    0.1180371335094739 Si
   0.4295790717026954    0.0330346553790682    0.1125236138682299 Si
   0.4282033027403732    0.3616782131190157    0.1138973924138629 Si
   0.4277856944114840    0.6933661196514794    0.1143850788974496 Si
   0.7595238227177732    0.3651353352632288    0.1135818409794102 Si
   0.9050301472463040    0.6398084254150923    0.8804669741889114 Si
   0.3006979752136273    0.9454224612620136    0.5859282720142542 Si
   0.2981956843872516    0.2759607512941443    0.5829876714418701 Si
   0.3689088273017120    0.0553189080492222    0.4134399131525364 Si
   0.3691108297590746    0.7222212871801669    0.4159248977970400 Si
   0.7019474603726235    0.0554524914295629    0.4134665134460766 Si
   0.7013196335475248    0.3896973663535168    0.4092334106868841 Si
   0.7020794197368154    0.7236475208414140    0.4179219776006260 Si
   0.2991921700856960    0.2209305699645894    0.0834404395405171 Si
   0.0338118043920986    0.7217339547023645    0.4157531595242984 Si
   0.2989319225107405    0.5557760767093449    0.0828631721460411 Si
   0.6316367137481290    0.2226016283444303    0.0825470016419138 Si
   0.6332470275190041    0.5545615330097690    0.0863390948432606 Si
   0.6338983135921038    0.8845639338150477    0.0897449836654690 Si
   0.9060303095505583    0.9715839797073911    0.8869329227051893 Si
   0.9637462667403863    0.5549264762242977    0.0813619684277187 Si
   0.9634365491202780    0.8904461747733825    0.0871514432867528 Si
   0.2988123029541204    0.8902841951867564    0.0862489449490559 Si
   0.0341008373244029    0.3882306263853236    0.4098060148337092 Si
   0.9658984912230903    0.2204342073073465    0.0846637789131767 Si
   0.7001455336142022    0.7778102272227925    0.9160953868957340 Si
   0.0341164414156321    0.0554830996545363    0.4126964649610108 Si
   0.2975587791773924    0.6108055324965630    0.5885448038467139 Si
   0.6341313364561051    0.2801144176051996    0.5892267417535128 Si
   0.6321126359961952    0.6112416255435161    0.5867864169712254 Si
   0.6357695142229247    0.9472855168402101    0.5875821004187425 Si
   0.9665602376652768    0.2787734994518627    0.5870732712449280 Si
   0.9648854273565322    0.6118327913795460    0.5878547982724336 Si
   0.9663030824628105    0.9452427913589303    0.5872670261344002 Si
   0.3694649766898409    0.3896552039007869    0.4166157545149544 Si
   0.0341630460771430    0.4423981196347266    0.9101055455281870 Si
   0.0326208301644192    0.7775545922850698    0.9193684244761792 Si
   0.3663675016657008    0.1130126046283589    0.9089111242140920 Si
   0.3688656292776750    0.4438349694534628    0.9128578452193401 Si
   0.3684874575874624    0.7765182253504817    0.9150962218995958 Si
   0.7033257298976093    0.1085795964156389    0.9148542428708252 Si
   0.7006081354284438    0.4470888903665817    0.9113080007131357 Si
   0.0338289058792886    0.1134597102445208    0.9103347281419194 Si
   0.3885707615914410    0.5562665897132082    0.3499659835104633 Y
   0.7233514725666093    0.2212595496832636    0.3510457875641841 Y
   0.2763626983058455    0.7241391710131874    0.1527821835425623 Y
   0.9424390415330535    0.7778062707379889    0.6523108338673022 Y
   0.0588062405420636    0.6116867453505052    0.8539894022384513 Y
   0.0588014872395924    0.9465986910911698    0.8560163118381728 Y
   0.3919435135836959    0.2781713855257851    0.8523955977960698 Y
   0.7265486350134279    0.6130593330670531    0.8545077210880710 Y
   0.7245846547587123    0.9439958510308367    0.8543329188408887 Y
   0.1569712109834402    0.8703457170025326    0.1403047662016197 Y
   0.5112184491367378    0.0365522393520991    0.3631098900995851 Y
   0.5093084370543757    0.7063396239575970    0.3644514668775050 Y
   0.8440183296533937    0.3724519860173686    0.3620505225982573 Y
   0.1589580703815343    0.9632798499014851    0.6358081229869849 Y
   0.5133846216891615    0.1314248783891864    0.8661805221523220 Yb
   0.3878185737634351    0.2283970888189201    0.3463235769995259 Yb
   0.4875154606823742    0.8669229031306901    0.1358942226671137 Yb
   0.3916901656643281    0.8898095232627492    0.3533969365507390 Yb
   0.2749312458984676    0.3884661504468465    0.1490472859980702 Yb
   0.9395544394240913    0.3887227818580982    0.1419112161182358 Yb
   0.9432937395565550    0.7244806590845198    0.1508761685114527 Yb
   0.1755305550210174    0.7034734764341708    0.3663981312885412 Yb
   0.1747029559150169    0.0360435526831089    0.3636135417572107 Yb
   0.3908123708116032    0.9387713549828164    0.8495518092474883 Yb
   0.7256512609636675    0.2745517921870076    0.8529136587936208 Yb
   0.8446906193170697    0.4646814459062393    0.8618203322796588 Yb
   0.6088592686279816    0.0583935422786405    0.1485912059981381 Yb
   0.1787442110491798    0.3681772906766971    0.3614257491678997 Yb
