La14 Ce15 Pr14 Nd14 Gd15 Mo72 O252
1.0
  16.1446764617901941    0.0030480342187577    0.0046200524693051
   0.0030458743869298   16.1439921500912149    0.0128338860014623
   0.0061637741909030    0.0171101506387014   21.4579676660335537
Ce Gd La Mo Nd O Pr
15 15 14 72 14 252 14
direct
   0.3209956276021651    0.3305940314249946    0.5052023904095428 Ce
   0.1567920167411223    0.8344524567971934    0.7600051021589317 Ce
   0.1524438971345880    0.5209808889089558   -0.0051043499495104 Ce
   0.6763449984640613    0.3304601049208968    0.2459471786273618 Ce
   0.6517357760674062   -0.0009535023296835    0.7554625389276757 Ce
   0.3365030781040823    0.1619135926534120    0.3765742933096176 Ce
   0.1735452102245671    0.1495577536388369   -0.0046392314233017 Ce
   0.3501290922240314    0.6859745397479461    0.2519587848416094 Ce
   0.3446541897738012    0.8311516557548262    0.8710650081686245 Ce
   0.0179645934114449    0.6611834977455252    0.7513021243189735 Ce
  -0.0148060884687266    0.1422581944968878    0.1313028140605174 Ce
   0.5011037715350932   -0.0054562444515536    0.3742593211915818 Ce
   0.1647819704450509    0.3314099497512524    0.1310741672251087 Ce
   0.5033375577306523    0.6666210808999560    0.8724897856364272 Ce
  -0.0033054800065393    0.3475875577467363    0.7570230724576766 Ce
   0.8379396557968714    0.5138436402146240    0.7545357289033376 Gd
   0.8338008249463148    0.8313889163296659    0.7372775316714317 Gd
   0.0172970118950006   -0.0202460941469656    0.4947819568691820 Gd
   0.3302799722155958    0.1622196587285684    0.1217964339831504 Gd
   0.6547911045869080    0.3337345718217450   -0.0053219694490571 Gd
   0.4807109028918052    0.3355338414605711    0.6249330611621977 Gd
   0.3361958751384251    0.6589528074738263    0.4993118039030288 Gd
   0.0024067422848912    0.4932442491435067    0.1329077737312118 Gd
   0.8249424769531625    0.6568764517976335    0.1107135937512692 Gd
   0.3447968925792629    0.3395845395148924    0.2489896904726038 Gd
   0.6519633111170197    0.8242631713106363    0.6259828889242183 Gd
   0.6616015067219909    0.1760065968905823    0.3706908885957312 Gd
   0.3321245314488234    0.0039424967647640    0.4963342846242333 Gd
   0.8321819592855096    0.0038381419319237    0.6095960040041895 Gd
   0.8172908552046821    0.5012779338968033    0.2396348401095126 Gd
  -0.0043789581233286    0.1792637781220702    0.6244262471902814 La
   0.3236711493268910    0.1614285559555818    0.6326515102630588 La
   0.4910830227307105    0.3279547722402842    0.3847355556672523 La
   0.1556899366815829    0.1593032917232104    0.4924537402218343 La
  -0.0031459955178990    0.5024257433661028    0.3782255577849049 La
   0.3453389386238691    0.8376886859527082    0.1277084051204141 La
   0.3281120830532908    0.4804817743747684    0.8804451538680950 La
   0.1846611100197884    0.6736743039985419    0.3703983257783084 La
   0.4995143779159516    0.4996192879609407   -0.0054046142603497 La
  -0.0106058039655649    0.6812224026778949    0.4969737677560294 La
   0.8429568362806565    0.8449330523433330    0.0089988942820828 La
   0.0034298996604685    0.3429953788288586    0.4956267247832044 La
   0.0016221025411343    0.1650267342310099    0.3571068720408397 La
  -0.0164517050474028   -0.0006794373360951    0.7483454076021908 La
   0.8540515171614717    0.8433971986680233    0.2653364180447679 Mo
   0.8316643498801779    0.2062651589486045    0.5030289275321190 Mo
   0.8211030205646892    0.3361424217268039    0.3802296371967099 Mo
   0.8351852143674260    0.3416937914689741    0.1278941602523273 Mo
   0.8296044386458752    0.0042072643329751    0.8792899009360187 Mo
   0.8305880919343667    0.5033808971315685    0.0010045133874628 Mo
   0.8352927626969135   -0.0008646279534576    0.3807295394741474 Mo
   0.8112284383119004    0.0237115242677261    0.1361676250537901 Mo
   0.1646337908540490    0.6662623087444859    0.8773463356167517 Mo
   0.4969549126001075    0.6611606922422434    0.3784415697246705 Mo
   0.8248825010735371    0.3441035821872904    0.6362904544616613 Mo
   0.4826482065788038    0.6673752252022275    0.1174591930396721 Mo
   0.5036812918340402    0.3334249493993685    0.8705955079518666 Mo
   0.8368804336862246    0.8368502037128897    0.5087275186806963 Mo
   0.5031168431515123   -0.0052779186082585    0.8739023717449997 Mo
   0.1828581739931051    0.8221176802323240    0.5150488505968331 Mo
   0.8177508778798985    0.1654589060810336    0.2467547660767303 Mo
   0.7955676045401621    0.6770260140066261    0.3808738546965715 Mo
   0.1673061261579309    0.8401925478167933   -0.0061060122021163 Mo
   0.1606774852895645    0.6517415904250144    0.6138459854561804 Mo
   0.4870088459894661    0.1626591803265580    0.2459368331751028 Mo
   0.1730600047393223    0.5114736716186519    0.7425383254780265 Mo
   0.1809045917147683    0.4997494515435554    0.4796991400474631 Mo
   0.1646002691811507    0.5073019748039548    0.2576804705700339 Mo
   0.4849193778049234    0.1697161136946863    0.5086598112053436 Mo
   0.1462295526381335    0.1889445007256876    0.7561660526057862 Mo
   0.4935998975906661    0.1691208839146296    0.7541190810806512 Mo
   0.4837450990544703    0.5085253403741381    0.2495878163104682 Mo
   0.4979184139625548    0.5029350400233356    0.4972315174032905 Mo
   0.1571536998637460    0.1763476201372465    0.2385435002872194 Mo
   0.5031569936949104    0.4967375399284079    0.7464427499052440 Mo
   0.8358698220020274    0.6664393053187662    0.8833664829554941 Mo
   0.8267457782614962    0.6611214977079118    0.6223604072509082 Mo
   0.4921718115406115    0.8184106372507923    0.0003641939994635 Mo
   0.5153155828613317    0.8327795809288309    0.2505924307191691 Mo
   0.5026994448546359    0.8235748174658822    0.7499535652378975 Mo
  -0.0000491666074539    0.0034866733618290   -0.0018931293800916 Mo
   0.5041580446523557    0.8255503296182091    0.4970170250632051 Mo
   0.1752259623340517    0.3309416222554292    0.9017671889331258 Mo
   0.3460719459296130    0.4954266500494751    0.3785117207210471 Mo
   0.0066246860233317    0.8283226039144076    0.6427392980799804 Mo
   0.0102670738738004    0.8428169052519175    0.3752511442307290 Mo
   0.0095112684379738    0.8379819084735859    0.1251954215781937 Mo
   0.0053575230555503    0.5171434936715582    0.8754279438322842 Mo
  -0.0169297242255619    0.5201104241219341    0.6285723475595658 Mo
   0.6600937105364041    0.6640201614610977    0.4924081686763175 Mo
   0.6598880127570509    0.6657751302563663    0.0014242570405433 Mo
   0.6759762134865988    0.3300877739186333    0.7479271159063697 Mo
   0.3210062389378854    0.5075674575997791    0.6224431405690899 Mo
   0.6333787545448873   -0.0051273924784071    0.5000321567679090 Mo
   0.6763728420192595   -0.0044104198462890   -0.0037490466905186 Mo
   0.3314088484944492    0.6594278624593589    0.7529790757491840 Mo
   0.3324139758146592    0.6582382665140644   -0.0056971504589699 Mo
   0.3337402608015190    0.3195702513548688   -0.0001573115752611 Mo
   0.3395580923448183   -0.0317803649434704    0.7444555819754329 Mo
   0.3487575511507583   -0.0104835349749967    0.2531004526327713 Mo
  -0.0038827588108960    0.6798342545583346    0.0119153861581848 Mo
  -0.0082547870185692    0.3402589827155967    0.2548616267521734 Mo
   0.0015973220578625   -0.0192648210070734    0.2440383600840307 Mo
   0.6271059681001128    0.0031863217992127    0.2471350118737246 Mo
   0.3493369977432508    0.8290418943183133    0.3862889846839203 Mo
   0.6477759520639174    0.6404252736784953    0.2521397351884232 Mo
   0.1499914759592454    0.3483625783049560    0.6169311538864699 Mo
   0.6511268909024023    0.1563746103018681    0.1345929361213313 Mo
   0.1730803775624205   -0.0033666525837054    0.8762783181656822 Mo
   0.3304668939496462    0.8142166331807096    0.6283475449189297 Mo
   0.1754851154979148   -0.0182068309791721    0.3785551917911782 Mo
   0.6420488141577417    0.4921525773645136    0.6258735430792610 Mo
   0.1786526376923288    0.0029606883111057    0.1222060651334168 Mo
   0.6761592012032508    0.8317807945482398    0.3854383971686497 Mo
   0.6663703280397341    0.5026168348756975    0.8740962422330492 Mo
   0.6553926793596924    0.8390860816244622    0.1041411949244997 Mo
   0.5089530149738306   -0.0146433640750396    0.1131178968361734 Nd
   0.0008946095231819    0.6630552737991792    0.2514686286712660 Nd
   0.8329455718791416    0.1690892450429252    0.7529776004608346 Nd
   0.1552996931807948    0.6705578549605709    0.1277421097989492 Nd
   0.6819798583929176    0.8196543623501408    0.8698172088827226 Nd
   0.4991053584165050    0.6653278316748126    0.6134453089153571 Nd
   0.4956169647361822    0.3254024828199208    0.1218436759999796 Nd
   0.5124299693351662    0.1510097620017245    0.0016305934603364 Nd
   0.6431583582988440    0.5089334882547940    0.1279202606986960 Nd
   0.6649884911360907    0.4950186297239326    0.3794805381443406 Nd
  -0.0024925627596119    0.1776721291658289    0.8861866753188550 Nd
   0.6482451203031924    0.3260831365619450    0.5061501465214485 Nd
   0.6587528831281235    0.6523965428145166    0.7405354189319739 Nd
   0.1767062880325531    0.8491981743390076    0.2406799288520084 Nd
   0.0723517647264065    0.7581480036542251    0.1937091161784059 O
   0.0670905316443767    0.7418072809258235    0.3929207498932021 O
   0.4177865968094617    0.4238263858105303    0.1888310336798346 O
   0.1036281718432538    0.7367189347415259    0.6742277971990147 O
   0.0851142846994654    0.4289922426005592    0.9216466240674236 O
   0.0514906828039879    0.3726319367315633    0.1810616325182421 O
   0.0877613582789224    0.0631197296204084    0.9337134745163096 O
   0.3757808279348768    0.0717503446953230    0.1964602346364100 O
   0.4337182076108218    0.0813269848124531    0.4385700205766038 O
   0.5477323229812837    0.0871204480723119    0.6896340225522747 O
   0.0940468684354993    0.1096628985579950    0.7033142490072054 O
   0.4234278855791358    0.0809080392205470    0.9168198873316585 O
   0.0900458849518055    0.0606269147933617    0.4092287715552912 O
   0.0967461831066253    0.4245955426703244    0.4333209805190897 O
   0.7296561140452567    0.0506964285232887    0.6765406904062770 O
   0.7462962959227506    0.4484866780866729    0.9454099285144509 O
   0.4139491752286853    0.4567324162179291    0.6895938081424137 O
   0.4199965240311740    0.3712471317399315    0.9335185153732249 O
   0.7832678197689736    0.3972386647596763    0.7132903716535597 O
   0.4465154033918903    0.7556332823651849    0.1869135186841638 O
   0.4330044536406724    0.7408613828547828    0.4386234741691246 O
   0.3799761173178171    0.7196145765158083    0.6818478181207254 O
   0.7430763095160910    0.4040517859354814    0.4410797249527744 O
   0.0655928803335768    0.0936864874651668    0.2673461201357362 O
   0.7492943882257442    0.4244415355495415    0.1693478804297073 O
   0.7583659613781714    0.0789429240135843    0.9487608101482720 O
   0.4071770538704720    0.7445757083928863    0.9361516842146579 O
   0.7208151901256452    0.0766149723428967    0.2018777656448744 O
   0.7886264218142396    0.0816803069792508    0.3328557555614657 O
   0.4102536375282432    0.4231436108620420    0.4533106131739573 O
   0.8917645266723836    0.9197829527295696    0.8128211703506218 O
   0.6059449156292721    0.2920213020335782    0.3254371880205373 O
   0.9113556039013673    0.9372075783397837    0.3282719898100824 O
   0.9270405752077703    0.8868992835044393    0.1943226655305584 O
   0.9085471398564909    0.9150072713462505    0.6686609049060984 O
   0.9147460967153006    0.9421706904125939    0.9403336904405629 O
   0.2442784966075885    0.2607471881645101    0.0620540048514352 O
   0.2265758063705445    0.1943087672957816    0.3139734833508359 O
   0.2404854812489287    0.2721939105732225    0.5972974511990997 O
   0.2410544669852244    0.5949368483188293    0.0588321201018914 O
   0.2363313014261418    0.6056120801692599    0.2597741397280682 O
   0.2321691243094147    0.5671211404872165    0.5532226127184066 O
   0.2706233413657849    0.5446579556911815    0.7891402584713606 O
   0.2681638086670183    0.8996658580679542    0.5610369118697616 O
   0.2579604662181122    0.9304033194049127    0.8087022390396925 O
   0.5960257395488826    0.2379285644594777    0.0673844639917211 O
   0.7501326691581229    0.7573043226735268    0.4539400962218120 O
   0.9006718252573837    0.9348998656869270    0.5321008514778044 O
   0.5607719413792316    0.2456331527634463    0.5727215341201698 O
   0.5723002099077340    0.5820463048947272    0.3119685971807270 O
   0.6112584178337016    0.5744477891052648    0.5594601079636432 O
   0.5845317276142451    0.5532415516798803    0.8095709278860945 O
   0.5930955741758573    0.9052505056573508    0.0324544291570452 O
   0.5906286483247846    0.9083615264957025    0.3137990055431739 O
   0.5727536252884384    0.9136827697015020    0.5591332242916954 O
   0.5873972051284430    0.9243697535635799    0.8407392467043949 O
   0.9318878364924704    0.2355859423545710    0.2552326721315227 O
   0.8894346314703043    0.2816652240542106    0.5597157943096603 O
   0.9207076070210741    0.2583690187590409    0.8105925355482669 O
   0.8936284471254098    0.6025986485505638    0.0265708810551017 O
   0.9055694235542827    0.5868314047204202    0.5635399476511866 O
   0.9270529010873479    0.6101686995591256    0.8294060379652179 O
   0.9663731020542499    0.9102126968269492    0.0528808030212083 O
   0.5714065006618896    0.6056948099614468    0.0600808168803535 O
   0.7564549125758473    0.7402060928281869    0.6774460329953804 O
   0.5815446364673881    0.7502732012095417    0.9481089349955153 O
   0.2062910167731223    0.1004556242075818    0.1795251641000448 O
   0.1019619918611000    0.2565909792727571    0.8231344518407695 O
   0.0605115652108748    0.5907232250969033    0.0652946038947323 O
   0.0877210649093975    0.5891914909743895    0.3162186090232880 O
   0.0564215233346162    0.6023868526097732    0.5832000173828858 O
   0.1044627742481973    0.5798832411463352    0.8135685982525505 O
   0.2188218754957807    0.8978630133863155    0.0630194206866010 O
   0.0835508278150124    0.9102139564228745    0.3132966438514553 O
   0.0862232950596779    0.8845925931247270    0.5661937564152592 O
   0.0855989829682925    0.9275404013112851    0.8213619055632898 O
   0.4126318067025710    0.2457181670098429    0.0430928040228638 O
   0.4135482896883655    0.2434020821743940    0.3093786607198301 O
   0.4037913425812277    0.2453892576483083    0.5622107222315135 O
   0.4344208726159648    0.2475037748001301    0.8272331966227082 O
   0.4114189463537587    0.5832042875178994    0.0520992884507471 O
   0.7535239197656205    0.5894683696090502    0.8331092090388132 O
   0.4024356900385144    0.5884650523229878    0.3159233460765903 O
   0.7524246098299516    0.6587439402308736    0.5536656995130307 O
   0.4124570057519326    0.5709286115179649    0.5634575682109313 O
   0.7424264652935406    0.6048046927495441    0.3103032775537256 O
   0.9118709638294393    0.6145820667683294    0.6853768920769224 O
   0.7402833909504055    0.5702967099421460    0.0515830251383107 O
   0.7408204286333582    0.2531758680794832    0.8085555121602589 O
   0.7380449595034015    0.2207567805079195    0.5536856301091502 O
   0.4293723298230809    0.5908655661527444    0.7769058056315282 O
   0.7657837189999077    0.2484743046433384    0.3098948895990114 O
   0.7697368109167213    0.3216190942208713    0.0553989423078771 O
   0.4280242016232100    0.9189245657019671    0.8071308756922217 O
   0.4199231508162241    0.9035689797377473    0.0533427081633920 O
   0.4003974677683489    0.9105785814631070    0.3171911078782041 O
   0.0846300227828845    0.2607450932303252    0.5621672821930760 O
   0.0822870181532646    0.2644464216137035    0.2876240808484642 O
   0.9223367232648587    0.7430576221590580    0.9401198954400011 O
   0.9664621647815985    0.7830781509120212    0.7360363127552211 O
   0.2515829267939115    0.0712198101855099    0.4260820144065045 O
   0.2857263224508021    0.0296843789182589    0.6799227711594499 O
   0.2509580250930899    0.0774770120070187    0.9290541505930844 O
   0.2229129559941267    0.4381828161125707    0.1837236212276269 O
   0.2592857254267292    0.4257759904048814    0.4312203590948678 O
   0.2288696486645236    0.4307157986996749    0.6775375804085727 O
   0.2467946214255121    0.4080505399142035    0.9672712963609678 O
   0.2549490389831431    0.7488375351770560    0.1816915850107610 O
   0.2593575285614286    0.7602708104472671    0.4517008562984492 O
   0.2507681296650613    0.7251903192378206    0.8080159731110448 O
   0.2175168095509445    0.7442490403060260    0.9519897050547093 O
   0.5578207911084854    0.0840172322790810    0.1839949181195342 O
   0.6246228825017449    0.0512415900451966    0.4234605809403933 O
   0.5890293575549327    0.0450847775813740    0.9392800903960000 O
   0.7539694929541102    0.7148701694511991    0.9410343371188992 O
   0.5848810134158716    0.4314616022377058    0.2171147532809761 O
   0.5988757425676633    0.4164416704342817    0.6968541806496953 O
   0.5829985563402366    0.4199883907687080    0.9167879011164655 O
   0.6225079978081319    0.7465056353707179    0.2541225761726756 O
   0.6054206800326156    0.7296974304441156    0.4021765833921663 O
   0.5694781530729146    0.7425074936791694    0.6863840893039942 O
   0.9029198725088079    0.0727942182247371    0.2025590341483668 O
   0.9232535255808417    0.0501277051160831    0.4193954741168651 O
   0.9085559967032321    0.0894596712161394    0.6797986850069863 O
   0.9456454233668009    0.1034065205425242    0.9710388419463321 O
   0.9045059222289259    0.4019416039930451    0.1997227917850504 O
   0.9081703058440127    0.4363107263886701    0.4494543952531497 O
   0.9622995968823322    0.4652891691686725    0.7080982366608664 O
   0.9207055423501121    0.4644497322927766    0.9452545014645067 O
   0.9324823109798936    0.8135003909445321    0.4477997779443752 O
   0.5741038626415232    0.4255000010275442    0.4418995391043631 O
   0.9044829966314681    0.6280568975243392    0.3950046700021709 O
   0.9160325906813072    0.0852249801029173    0.8292956758562062 O
   0.9145244894950120    0.2689297172346504    0.9411553062846595 O
   0.7751206591755757    0.9183100523169740    0.4237102839997366 O
   0.7447829328994776    0.9174544604770877    0.9357636192407153 O
   0.2520035076103902    0.0733172057510788    0.0592389622117494 O
   0.2457799881612348   -0.0007950768870863    0.3010473163626038 O
   0.2411398288061615    0.0833303239709983    0.5581580817178858 O
   0.1783134664412319    0.1044290161457397    0.8157870363320049 O
   0.2535336280090710    0.4418835508831811    0.3103910281073245 O
   0.1965743509858832    0.4079397215779255    0.5371129053882761 O
   0.2630326653357341    0.3638670484781742    0.8353481104376339 O
   0.2685451101344252    0.7763745759412538    0.3159949440965180 O
   0.2511268035041977    0.7393242674179036    0.5836620667171621 O
   0.6114787636707785    0.0697162042323339    0.0630782964948202 O
   0.7444113017196318    0.5672344364388510    0.6692954869106543 O
   0.5783460775792114    0.0949486498809793    0.3059304558925719 O
   0.5582078130246114    0.0880369944919737    0.8175288191220222 O
   0.5807338737536037    0.4166985033322269    0.0629342481779145 O
   0.5572076717011603    0.4275483740101110    0.5698040818628090 O
   0.5889205738990072    0.3301362529765991    0.8154943223460650 O
   0.5586297420459803    0.7697953943859728    0.0852458145665675 O
   0.5897104757936080    0.7447357961013019    0.5464335857594191 O
   0.9107596357564165    0.5883682290184450    0.1861910407607540 O
   0.9008814535249313    0.0573582217481617    0.0778456733880007 O
   0.8819865028518601    0.1178688901135855    0.5407784761478345 O
   0.7467526131891313    0.9371618853426510    0.0741990072885437 O
   0.8954051521559501    0.4342662074803175    0.0714280166335723 O
   0.9271420594703539    0.3832551482670556    0.3243813322409993 O
   0.5746701185223383    0.0775489628740484    0.5464587825105647 O
   0.8866707678340628    0.4384824405310359    0.6030328635125378 O
   0.7417286855057990    0.5884181934693807    0.4389326169135219 O
   0.7389866846359312    0.2555212825088625    0.9391546785117785 O
   0.0914571179807176    0.2135054519402559    0.1583219414796955 O
   0.0723021176370685    0.2470174616724616    0.4225004266614678 O
   0.0981844861681792    0.2770479992849761    0.6937616464477606 O
   0.0939046434117858    0.2531460160418169    0.9623512298160578 O
   0.0932102679872456    0.5686243360170478    0.1914778171042333 O
   0.0993342798400738    0.5769507119054657    0.4550335213026866 O
   0.0960377679783999    0.5662881064806488    0.6853607154973974 O
   0.0683841886648056    0.6117726909136109    0.9380824062544082 O
   0.0869863353694384    0.9345546863920695    0.1716585091168264 O
   0.1067128279947603    0.8991281150311409    0.4389731816584797 O
   0.0823626241764027    0.9130518985475699    0.6950342395883785 O
   0.0772179700510918    0.9002017498345284    0.9581814058894308 O
   0.7317394084044777    0.6062710572135090    0.1896275462049128 O
   0.4145265361843724    0.2400777592805405    0.1842736840695988 O
   0.4186637127693175    0.2480792860429712    0.6964035238609554 O
   0.4014949134055464    0.5984192902177141    0.1803736295035795 O
   0.4255827037201493    0.5746114958472062    0.4312268527507360 O
   0.5629386491927781    0.5696699688068555    0.6820561022728991 O
   0.4231455672497803    0.5789876936072166    0.9208083169974470 O
   0.4352051606770513    0.9219427005601724    0.2025487317333299 O
   0.4253833177248160    0.9073545287406012    0.4478569036261127 O
   0.4110929346615544    0.8918932056650176    0.6842327137136389 O
   0.4455893442561923    0.9078513059936915    0.9297031105341034 O
   0.7760102014840877    0.2550762117098491    0.1810789767432903 O
   0.7495243077296904    0.2395797391403936    0.4380095405848131 O
   0.7468602631899425    0.2574378195126229    0.6799191444096422 O
   0.4065165983631056    0.2413257912718317    0.4447182037540686 O
   0.9268202437250024    0.4340141400243601    0.8215487880291289 O
   0.5852555038540610    0.7445636346187042    0.8104390723636772 O
   0.9482364674754944    0.7774615754092666    0.3043527033268455 O
   0.7615244507471707    0.8725616257568626    0.5752616683844527 O
   0.8092599254538018    0.7547768858335687    0.8252048533560666 O
   0.2409255634593730    0.2639351282535863    0.2001257352761953 O
   0.2466305874653456    0.2497302087897470    0.4386540333850787 O
   0.2561404473086422    0.2167027574415834    0.7413322026687885 O
   0.9252339911709142    0.7490626190435234    0.0840238512232476 O
   0.2603230631735680    0.5772698442947141    0.4287824760800900 O
   0.2512016971269331    0.6037756091608377    0.6810732381649343 O
   0.2451579938097594    0.5847895976338794    0.9285605900304590 O
   0.2650367149518050    0.9367131370282662    0.1869700179605692 O
   0.2662341371564474    0.9147057074640661    0.4125307122788281 O
   0.2557938763515362    0.8641108395799719    0.6931064099853057 O
   0.7749353686897236    0.7789578229097219    0.3294812181792368 O
   0.2451355354479421    0.9069151102474267    0.9326666016963285 O
   0.5723461589273451    0.2245764925558561    0.4463484820847211 O
   0.5959232966218394    0.2432877740078007    0.7196593773575104 O
   0.5582455913322145    0.2503908268009715    0.9289590773895329 O
   0.5630893802554741    0.6028762786471530    0.1903828642295252 O
   0.5715398964223275    0.5977356185502412    0.4476578119691801 O
   0.6097718044541308    0.5848865440661795    0.9334716093308293 O
   0.6073287369813132    0.9018094197555923    0.1781576947032331 O
   0.5959301100180922    0.8983423326994052    0.4446169676533160 O
   0.5825417158095733    0.9085538568587376    0.6952859525868708 O
   0.9258865973017184    0.2544843287941301    0.0883141584702195 O
   0.9033082977541800    0.2506353591263820    0.4341552368567616 O
   0.9164687741846502    0.2807785365258920    0.6852955880497955 O
   0.5887501575817029    0.2384744342942766    0.1953235786145806 O
   0.7304505158928171    0.7524213123251072    0.0666218777390793 O
   0.2708837112370825    0.2448718477108799    0.9353201647184544 O
   0.7260998497282842    0.4100086351379024    0.5843402267854940 O
   0.9030474238624008    0.7592814242915751    0.5774672086977169 O
   0.0817388221690640    0.0659047532921286    0.0659616478823409 O
   0.0638946875594351    0.0701923671582419    0.5622404543169818 O
   0.0982932053498587    0.4215051168283355    0.0646264313750594 O
   0.0762671430281611    0.4277353058787637    0.2939167213533695 O
   0.7210095444971113    0.4278744262510288    0.8154579623433722 O
   0.1157442813657328    0.4253979308469334    0.7753731647659848 O
   0.0911757113136165    0.7689137261486100    0.0543611238797026 O
   0.1153868634841427    0.7252816171471201    0.5332288862198750 O
   0.0838689588769540    0.7483076072790098    0.8279750678574400 O
   0.4223230055170364    0.0787635815831181    0.0642986002885934 O
   0.4131286496611746    0.0734854113945697    0.3096621371928291 O
   0.4116830241251473    0.0795277428131682    0.5659688470869656 O
   0.0541453292336411    0.4210098254063412    0.5965543943608621 O
   0.3869507968441349    0.4042214355287481    0.0570074339046305 O
   0.3897454576274601    0.0785096598015501    0.7671723714225722 O
   0.7509199660182101    0.4198587221554533    0.3113276101775874 O
   0.7466551984523491    0.0683187732582594    0.8140663793111484 O
   0.7307913844363332    0.0266583237502764    0.5290992022026288 O
   0.7556524702261839    0.1274528545195464    0.0933990294546000 O
   0.4139045741483954    0.7463267889624891    0.8051981731767622 O
   0.7203988604572897    0.8882882011418537    0.7732469622407433 O
   0.4537189741219260    0.7506766574223572    0.3172403955911402 O
   0.4012626370013178    0.7368944747883686    0.0578575546703292 O
   0.4434730337341479    0.4192298715673612    0.8107953009306190 O
   0.3684745842280233    0.4038271226135106    0.5817458235073996 O
   0.4264601757801729    0.4270097713498958    0.3170057804796483 O
   0.4178299851788287    0.7786226840219874    0.5647764426469523 O
  -0.0067877078536965    0.3549817502017739   -0.0005431301844418 Pr
   0.3452531318887745   -0.0013733200574887   -0.0094991188337122 Pr
   0.3327406540168295    0.3502364854563687    0.7449843212908517 Pr
  -0.0161072955397651    0.8440062628587965    0.8729248044769504 Pr
   0.3233286249407923    0.1545362216654561    0.8523237983073979 Pr
   0.3299304646598542    0.5034748144336630    0.1217105188637218 Pr
   0.1671522272824133   -0.0117738840222125    0.6214448631079850 Pr
   0.6680639706246659    0.1600684754362001    0.8780937230859568 Pr
   0.1702939414210041    0.3313070080800629    0.3657425666448924 Pr
   0.4914600824735735   -0.0084201453198490    0.6277493075114662 Pr
   0.8249024316909201    0.3422295696976712    0.8738164855924906 Pr
   0.8108428609114393    0.4940869493433874    0.5143920512480757 Pr
   0.6508166728619319    0.1642868771102685    0.6330074898112605 Pr
   0.8302389742716356    0.1839806314451072    0.0075354763569611 Pr
