Hf28 Zr28 Nb28 B250 Mo28 W13
1.0
   7.7847259993366702  -13.4890960950025427    0.0011293673352688
   7.7891134020318606   13.4916290205278919   -0.0008172192038058
   0.0003413675484776   -0.0012305480549831   17.0257543790209418
B Hf Mo Nb W Zr
250 28 28 28 13 28
direct
   0.5323153848221680    0.4654128253136583    0.5004603509357782 B
   0.0660478463945921    0.1303343728244507    0.9031061064477015 B
   0.0684904368750913    0.1361481676428201    0.6975990275005990 B
   0.0679953159087163    0.1366505842587917    0.5030693741416993 B
   0.0662819520697858    0.1345765016857778    0.3002398739011131 B
   0.0654893447802174    0.1315526813257910    0.0969640703060187 B
   0.9335511654876459    0.8691496967767015    0.9005432487444138 B
   0.9346081182522530    0.8668462910354299    0.7032582225691382 B
   0.9355104444456531    0.8657417442832653    0.4991585524495486 B
   0.9347672873934748    0.8651622882670468    0.2994179509639510 B
   0.9316570178731369    0.8673981297430776    0.0967133204742097 B
   0.9339270607753777    0.6679613120637770    0.9001889309765585 B
   0.9356019942194435    0.6672325332872512    0.7002544257073567 B
   0.9342825304925403    0.6659640559222024    0.4979363062645846 B
   0.9345148164656387    0.6651393590537401    0.3025667091582442 B
   0.9338712127901769    0.6665270923684466    0.1005366345669452 B
   0.9338041513183627    0.4638326858456243    0.9001464194396600 B
   0.9343746243510598    0.4654646751242141    0.6997506922504008 B
   0.9351692807143716    0.4685302153238830    0.5010038324880819 B
   0.9350750743760434    0.4680178769790347    0.2972968447671206 B
   0.0678011185406546    0.3355503674199145    0.0987673829267188 B
   0.0658891875210263    0.3344905145218725    0.2990029057384396 B
   0.0673972945704640    0.3343808033465888    0.5021023958182009 B
   0.0657144287100207    0.3321739909982910    0.6973800476457875 B
   0.2711063480524379    0.1346345181823492    0.6957740074912194 B
   0.2676693325817034    0.1329624718677857    0.5013936577295675 B
   0.2670770362785777    0.1322681208056367    0.3006208735335686 B
   0.2679093702221794    0.1343249060745730    0.0973971320773496 B
   0.0669243925440240    0.9357844220249166    0.9013065118364046 B
   0.0697850910422671    0.9340066331646095    0.7014379517652737 B
   0.0693993916532958    0.9329105111901559    0.4987374403337848 B
   0.0682004130220515    0.9323299147066778    0.3007387783951718 B
   0.0670551274265863    0.9342632084373418    0.0970109892406510 B
   0.9338294602505476    0.4669476934239110    0.1017629773721571 B
   0.0696735523413669    0.7359725097670613    0.9002319450525641 B
   0.0661727400639232    0.7316149690897686    0.4980000332622668 B
   0.0659538662004878    0.7311800459625061    0.3013136223967499 B
   0.0674516949628515    0.7329786676629688    0.1001277459280675 B
   0.0661018585720362    0.5299872020733073    0.9012295705460344 B
   0.0656628567707300    0.5318006219660554    0.6998360304028689 B
   0.0657704558320546    0.5334838979404876    0.5011351281618857 B
   0.0653104989699222    0.5333580081259548    0.2978545798120525 B
   0.0660351781330728    0.5328235813681352    0.0986934816844731 B
   0.0662846374609573    0.3347700662775153    0.9019239251296662 B
   0.0709567936125222    0.7364259236720369    0.7023765240969873 B
   0.2700180969003345    0.1329987159696040    0.9047394858377051 B
   0.9319812937909893    0.2679649004782247    0.9009691850269337 B
   0.9347351285779480    0.2681325949898017    0.5037535364786185 B
   0.7323993313321286    0.2654442710790177    0.4998382232044015 B
   0.7336693448927412    0.2681990716465155    0.3004335692804501 B
   0.7324757179382958    0.2664768794656315    0.1004084054935863 B
   0.7321457610245568    0.0674015384817656    0.9045900357176669 B
   0.7342579180340240    0.0704601911358488    0.6996157506938394 B
   0.7343623180840458    0.0690903283143528    0.5019255081419373 B
   0.7348293750494868    0.0677759854179697    0.2988673125704845 B
   0.7329627741120029    0.0641386571847262    0.0961322796588352 B
   0.5322641649658501    0.8672295792626622    0.9018106272995546 B
   0.5305949196586826    0.8671818391559246    0.7017123700782364 B
   0.5318844541657575    0.8653386069876473    0.4998778042557433 B
   0.5332384993868043    0.8649378734555226    0.2995126882082842 B
   0.5343342647279690    0.8668811702087406    0.0968339822541035 B
   0.5330522861338790    0.6676749649368645    0.9005119302824631 B
   0.5304836262303316    0.6651396020856538    0.7028259381412318 B
   0.5322788740657193    0.6666856884416492    0.5006569776201640 B
   0.5347926887825798    0.6687512207226787    0.2973736334835292 B
   0.5343095884325086    0.6669570341102919    0.0986841951328840 B
   0.5319851200246266    0.4625348277939671    0.9007208484690448 B
   0.7302379015718899    0.2637600966157472    0.7013428893185061 B
   0.7319873970393201    0.2639768784341675    0.8987372767013009 B
   0.7294805976357214    0.4640869679345676    0.1018297710441789 B
   0.7338749537664397    0.4671362855799028    0.2999288465940900 B
   0.9348303562328278    0.2683995604310188    0.2984638446931241 B
   0.9316034857057988    0.2670320796649646    0.0976052476894154 B
   0.9330610475361681    0.0642403944052492    0.9043725746944835 B
   0.9358737162964723    0.0700165155497320    0.6985447608161295 B
   0.9359756021519650    0.0706101061502653    0.5022202233975773 B
   0.9331273821694048    0.0680235148390293    0.2990571607339292 B
   0.9296007296198384    0.0638151188867277    0.0973975813287512 B
   0.7343128867762206    0.8675668657401497    0.9027682717153476 B
   0.7330314133623305    0.8667268791712909    0.7022909911038036 B
   0.9335100451900253    0.2669831433071854    0.6988694277169816 B
   0.7321978141262214    0.8658910836170740    0.4996646992408760 B
   0.7327078826910101    0.8684265368435982    0.0977338412216116 B
   0.7312798517006187    0.6667098589988038    0.9014077440855498 B
   0.7326603215719669    0.6655794436900765    0.7007142357773456 B
   0.7349246003116593    0.6659369573210493    0.5007601498491179 B
   0.7333481778847423    0.6652406816075208    0.2985526279555801 B
   0.7307796637705768    0.6662629361567909    0.0990080465047780 B
   0.7281709920152417    0.4628267299471399    0.8999632800024921 B
   0.7307764871724071    0.4646104108679474    0.7010214577669360 B
   0.7356054194030403    0.4677683981393646    0.4973813257135359 B
   0.7311666575403559    0.8658622669619352    0.2981395983875863 B
   0.5321683460861819    0.4641070084463178    0.7028631600609928 B
   0.2709560996539179    0.3367950522824613    0.0983057912699719 B
   0.2647334388300729    0.3327427921439609    0.5029546350356108 B
   0.6661042397569578    0.9341050959845349    0.7011149666721220 B
   0.6657356918021048    0.9324571869727405    0.4997872308891891 B
   0.6665721637432758    0.9314265976394458    0.2991934763611098 B
   0.6676979930706431    0.9333638193936498    0.0964352687428243 B
   0.6676778363441480    0.7349928360458314    0.9011417468563261 B
   0.6661741674831033    0.7331137948246554    0.7031838799382116 B
   0.6659612356673580    0.7332208369511223    0.4999678288944225 B
   0.6652525597964959    0.7329393342286189    0.2978204762703475 B
   0.6660410141486952    0.7345317331602685    0.0977774834185462 B
   0.6629301470716816    0.5291156335469031    0.9023742595297364 B
   0.6652458348625012    0.5307674739427471    0.7006203283974202 B
   0.6684787097268573    0.5335473203794402    0.5003503217714328 B
   0.6666055945144235    0.5322084938159308    0.2972996530754934 B
   0.6622933010051015    0.5291680520765226    0.0995719136921620 B
   0.6617767530449108    0.3310058854554642    0.8984986435703021 B
   0.6634038657940093    0.3303409117370446    0.7027067205464219 B
   0.6670220165975178    0.3313676859144337    0.4978747958883653 B
   0.6674505924994409    0.3342259196342142    0.3009191876039259 B
   0.6647700229712580    0.3345953169416730    0.1005247623515474 B
   0.6656507178890914    0.9342001715558221    0.9046609831749499 B
   0.8629551512087318    0.1297993516902589    0.0972233706968297 B
   0.8681094598186033    0.1345464915038150    0.2993186690383505 B
   0.8697931508010877    0.1376359968087412    0.5025346634782253 B
   0.8675699136290376    0.9333195811148770    0.5015311634199999 B
   0.8667341997325451    0.9336603904921903    0.2975763999507308 B
   0.8637019368758195    0.9336394952616873    0.0976172586844038 B
   0.8665759658189621    0.7361073655730548    0.9000137295367543 B
   0.8670768923212324    0.7328184187614182    0.7013448637181401 B
   0.8686726493538067    0.7316908478195557    0.4984852768894492 B
   0.8678083560067679    0.7312628627973655    0.3011189176878926 B
   0.8656057093756503    0.7336359090728622    0.0989582974661320 B
   0.8657009298807649    0.5316278022693955    0.9006225871232407 B
   0.6673687729762305    0.1331195099981330    0.9033000358321428 B
   0.8661360593123828    0.5331617231172430    0.6990522709635110 B
   0.8692086755665085    0.5341443027241789    0.3008428618113619 B
   0.8661524023338412    0.5325134441019846    0.1026699231754466 B
   0.8665030162179622    0.3313377696341630    0.8988072078622268 B
   0.8665887898849103    0.3315259665767283    0.7010253011843619 B
   0.8667626962645690    0.3335958904828380    0.5009362009805295 B
   0.8687589474781421    0.3351706861625838    0.2973877136341987 B
   0.8664349604458689    0.3333141145637665    0.1009228172774510 B
   0.8641359765819888    0.1333089641562913    0.9036702157784084 B
   0.8681532334449464    0.1361205694914586    0.6979719054483476 B
   0.8688672915500428    0.5351985432459058    0.4986154877911472 B
   0.2662271530910057    0.3345508309444197    0.2990809685166720 B
   0.6647607344518209    0.1348795752757310    0.6995732039059790 B
   0.6661237677712681    0.1353423022016830    0.3008149760335990 B
   0.4663818661442030    0.1328779349003889    0.3030379201394546 B
   0.4660522466475371    0.1334706598509950    0.0957483494021061 B
   0.2700356882424088    0.9365081608338083    0.9021773740299533 B
   0.2709760814351679    0.9353003872014398    0.7006217788204703 B
   0.2671352367883047    0.9349222438497832    0.4993015073722566 B
   0.2668797881554313    0.9336073542913357    0.3017124785163091 B
   0.2681320411884793    0.9344157710914583    0.0961223870102738 B
   0.2694188853758653    0.7356401675300348    0.9011043005514335 B
   0.2675358377003336    0.7382103151651127    0.7014132419562484 B
   0.2651306656658143    0.7318972645828878    0.5000227049872980 B
   0.2655356319201827    0.7333055382824578    0.2989089894348676 B
   0.2689210685958716    0.7359020819146690    0.0979796322377250 B
   0.2670638281158778    0.5328137831234314    0.9029812472547715 B
   0.2674758530764650    0.5318658243269327    0.6995962140336137 B
   0.2644550416565199    0.5322308941433590    0.5000462509516895 B
   0.2640447863350333    0.5324536790933998    0.2993885990215654 B
   0.2683043155210466    0.5323186941001281    0.0976400987069709 B
   0.2687326963623763    0.3336730322702467    0.9022927090371078 B
   0.2665897102532496    0.3325385150683652    0.6976368584273718 B
   0.4661652141031257    0.1322347192227082    0.4981393107202778 B
   0.4659611973901417    0.1315541140622354    0.7008982798042084 B
   0.4659307924509232    0.1350091295633733    0.9000578352218355 B
   0.4665244276195556    0.3353117868207363    0.0970292592378728 B
   0.6671345782354914    0.1320532763296637    0.0959596415614603 B
   0.4665625853764149    0.9346875722818448    0.9009106121586826 B
   0.4629950955371954    0.9356596573986379    0.7016749881476511 B
   0.4643555470375730    0.9330868512590405    0.5006656067003123 B
   0.4650019614468626    0.9328984289530932    0.3003942915406090 B
   0.4673130156077072    0.9323462871090135    0.0956515125677059 B
   0.4661897477177325    0.7345874016932089    0.8990622105653093 B
   0.4646289659929949    0.7326998512228443    0.7028951514917458 B
   0.4655515803227749    0.7331027661300550    0.5003679544784857 B
   0.6667858099283144    0.1354223509658158    0.5018987874341320 B
   0.4684314146412513    0.7345273343213684    0.2984356054218675 B
   0.4659700609436573    0.5318807177637519    0.9006063822110626 B
   0.4634514646766855    0.5306288825709464    0.7014496771344242 B
   0.4647061462488423    0.5320313505559253    0.5025426840668796 B
   0.4664735491480632    0.5328882710541283    0.2973540728425627 B
   0.4662266559404588    0.5297266527382447    0.0980802233282502 B
   0.4664732473518237    0.3305396774288073    0.8993078752239895 B
   0.4660996219493652    0.3309137999538551    0.7015053973556268 B
   0.4641140232583686    0.3305521448737879    0.4996336226815543 B
   0.4675719077723869    0.3347386413115531    0.3000574105653460 B
   0.4692365302073070    0.7360467891667479    0.0986596677502117 B
   0.8677777819535846    0.9343596832317176    0.7018820887319851 B
   0.8677039172204269    0.9331493680307190    0.9018088054946061 B
   0.5311705613659373    0.4640231561315115    0.0974533246068471 B
   0.3339360794333399    0.0668300626645251    0.4984365992413453 B
   0.3326657592933757    0.0652574045362360    0.3028214402619983 B
   0.3338023712914849    0.0679916099045188    0.0956284105723710 B
   0.1353390702693137    0.8686042464511304    0.9010413441855445 B
   0.1384099282334316    0.8672670367359147    0.7018056414649563 B
   0.1338554404893764    0.8670127880866524    0.4975850518817680 B
   0.1351696838101302    0.8675830660637787    0.0983340077318077 B
   0.1355372596888804    0.6680006798277195    0.9018501338520333 B
   0.1345167866677235    0.6698182774747250    0.7004966374065383 B
   0.1314939138885506    0.6645374330868160    0.4993100661651065 B
   0.1305477004722149    0.6644622159237505    0.2998167576989663 B
   0.1342163576711368    0.6681505013220417    0.0990034792702416 B
   0.1324309029308297    0.4650246321703997    0.9025024329133220 B
   0.3368965694216706    0.0663753785975516    0.6985085325635101 B
   0.1307172951940649    0.4630566295381885    0.7001343122123814 B
   0.1314146367764411    0.4660798982360588    0.2985645949344139 B
   0.1333280624215990    0.4657252221095213    0.0982398130631770 B
   0.1336106906420284    0.2673637028037407    0.9029262400228810 B
   0.1328601859853848    0.2668522577407197    0.6957020078030592 B
   0.1323176781383322    0.2677230678429204    0.5015342732480090 B
   0.1319686106378259    0.2683329443732250    0.2999501666063245 B
   0.1368455774158187    0.2697216060940638    0.0991153195439129 B
   0.1335428690529377    0.0653291864244836    0.9040406345015045 B
   0.1360063635445004    0.0687752680933144    0.6983211317029095 B
   0.1356887583711948    0.0668664628876506    0.5022166660232752 B
   0.1340489049696742    0.0663265845879851    0.2996729273828898 B
   0.1325559033994179    0.0649002919407481    0.0966826320651000 B
   0.5333572546396753    0.4662192438792244    0.2974337404794690 B
   0.1339651138372004    0.4675750300575753    0.4991305417276148 B
   0.3369737374897365    0.0702686715279112    0.9016417394803063 B
   0.1336813194263227    0.8662737496029560    0.3009776667059424 B
   0.3341198851723777    0.2675724738046742    0.2999963428660037 B
   0.5308174026700255    0.2659184648875357    0.8998308504636087 B
   0.5319177292477570    0.2634218116917184    0.7013190483674775 B
   0.5321866309374587    0.2638014596836525    0.4986183182445771 B
   0.5341848099564643    0.2671669975933285    0.3012757920477113 B
   0.5324894368480401    0.2693037039058336    0.0977946523350255 B
   0.5320988389485106    0.0668910063607048    0.9022070958272695 B
   0.3361198305212740    0.2706549185850710    0.0966620043984434 B
   0.5317574955846915    0.0674602371712070    0.5011132909317354 B
   0.5318952085076888    0.0677319190385640    0.3019036072910444 B
   0.5321386618400927    0.0643168288029980    0.0945289123936599 B
   0.3356871289765471    0.8690517284856561    0.9009937992006486 B
   0.3337779727621825    0.8702545298335462    0.7011832537878669 B
   0.3326955176225059    0.8670559810402606    0.5009730773071738 B
   0.3328553205286724    0.8669714257834410    0.3000027283570308 B
   0.5295240971031239    0.0669085375504661    0.7003380600293697 B
   0.3360033752311608    0.6680823491845670    0.9004760747237013 B
   0.3322372849545877    0.2644665700632830    0.5029036416360499 B
   0.3351541212885684    0.8674166952195546    0.0965191913090646 B
   0.3344741972432312    0.2653655568299598    0.6977560672140466 B
   0.3365325556882127    0.2650397408198403    0.9017569555631584 B
   0.3317283449744302    0.4657454482455938    0.2986587586790588 B
   0.3299535880634675    0.4653191297169134    0.5026295893859687 B
   0.3353523393337557    0.4647876599898065    0.0979164995561143 B
   0.3324732638664777    0.4650022622397377    0.6982544085695013 B
   0.3342428766480382    0.4659338790567070    0.9018913760820163 B
   0.3356589273018133    0.6695103883203224    0.0971494545960540 B
   0.3327249111715753    0.6672426423189869    0.2987396750205360 B
   0.3320696360165883    0.6661012050881977    0.5010489121745068 B
   0.3340202874481509    0.6675021685014644    0.7009896149775289 B
   0.6029301247497835    0.3990908606594339    0.3990704087266452 Hf
   0.2005062585040876    0.1994867007959924    0.0001133922505386 Hf
   0.5960802973698754    0.5974820184384253    0.8015493478561295 Hf
   0.5971476464552136    0.5966550161234579    0.6012563704431469 Hf
   0.0029980069145919    0.6011287022466855    0.0011230923158508 Hf
   0.1974844092275055    0.7989422650887297    0.4001321341508649 Hf
   0.6024219772537914    0.2061338659103502    0.2017502321253841 Hf
   0.4039038163924575    0.2084588033793633    0.2000802723549999 Hf
   0.5988237840432284    0.0031052953122986    0.6010522898582188 Hf
   0.0013078575610811    0.8058651505439022   -0.0009556427568034 Hf
   0.0000577541403563    0.7951706294719593    0.2009267126948855 Hf
   0.1992228236914956   -0.0011492472848391    0.1992969111678895 Hf
   0.3969520950025408    0.7992224234882209    0.3997531070552284 Hf
   0.4034656163875585    0.6002980431202016    0.1976553877644327 Hf
   0.4007069759158192    0.6004321189608789   -0.0015643316509123 Hf
   0.8027877750687780    0.0058456087807384    0.6009046718605856 Hf
   0.5983347765364430    0.1977605512630396   -0.0005110480991366 Hf
   0.2032203137491636    0.2044941417616083    0.1995048437290206 Hf
   0.8009399270651095    0.7996582143877535    0.6022734440614375 Hf
   0.8018928527795484    0.2013383313765933    0.1982747403074127 Hf
   0.7996747622753034    0.2032207822148420    0.4010122661242357 Hf
   0.7979167521512713    0.5963456653978373    0.2002595701407863 Hf
   0.3984749680974609    0.3980482423695539    0.4001905150903126 Hf
   0.7956205272714426    0.3959300130145233    0.8007743834142467 Hf
  -0.0012683838566663    0.1988837356306226    0.0002832644680239 Hf
  -0.0029317604406712   -0.0004123754549901    0.1979640323938043 Hf
   0.7950469597903377    0.7990787204197808    0.1971632597123153 Hf
   0.0054212836586513    0.0057160032169464    0.6016421601649634 Hf
   0.2019244605988871    0.4015500458757836    0.0031268459110133 Mo
   0.3985405754513789    0.0020112250976058    0.5892294139948578 Mo
   0.8080744928179003    0.6007524345510173    0.4001925258478526 Mo
   0.3985233103118975    0.0044245959747740    0.4012648533263788 Mo
   0.2018943550628361   -0.0024904810608011    0.3976966693253451 Mo
   0.5970852283002175    0.1997863946053979    0.3998421035456463 Mo
   0.4036422907158996    0.8057393651124333   -0.0008897555421613 Mo
   0.4021265736361389    0.6025154040000857    0.7961564978623852 Mo
   0.3967773888526994    0.1950648790174087    0.5965000612972375 Mo
   0.4052436555369587    0.1999342397681166    0.7878228995403753 Mo
   0.2035481617418543    0.0030825668816631    0.0028219810051679 Mo
   0.0010519322217979    0.7966751173430684    0.3961318248409159 Mo
   0.7993690681386049    0.8060615034207744    0.0007314666227489 Mo
   0.4019362414239497    0.4012754623884732    0.2082316593116705 Mo
  -0.0012705939714568    0.6021534164016272    0.4006979085146850 Mo
   0.0001095162899007    0.3935061301752845    0.6041610064292339 Mo
   0.7983167330610585   -0.0013310549288023    0.0010759476055323 Mo
   0.8050397827255885    0.2021107427553856    0.6002522911961717 Mo
   0.5991532480038371    0.8005780255959840    0.3988670999487786 Mo
   0.5926307423047993    0.1996085838791110    0.8016565130814339 Mo
   0.2015401238542859    0.2020288693395300    0.6026514468589856 Mo
   0.0027283985710298    0.2043742030611249    0.4062290808702556 Mo
   0.6013471782101927    0.8007724507752292    0.2058915940055791 Mo
   0.1959995845420069    0.5990391091440178    0.3916424149734775 Mo
   0.4000524727212726    0.0014702164745569   -0.0054316677295217 Mo
  -0.0013126591107808    0.5959064725422930    0.2027521166453971 Mo
   0.5986617615351854    0.4026748267453987    0.2006063981390046 Mo
   0.1953042889680843    0.3937975510025447    0.5975682853899547 Mo
   0.2026485119161677    0.5997298825497257   -0.0005047117578761 Nb
   0.2053300235761431    0.8051707715954161    0.6007713728810270 Nb
   0.4005057200098196    0.1938642835721757    0.3998445232346663 Nb
   0.2077688253933182    0.0056999724906445    0.5985792602034957 Nb
   0.2023312161559009    0.4003513337624010    0.1970212519528369 Nb
   0.1974533339978405    0.7959533917499155    0.1983760131027925 Nb
   0.2071533303737210    0.8054863461491648   -0.0000615300146139 Nb
   0.8036503408451573    0.4032112010714211    0.2012136849174196 Nb
   0.4048078709713765    0.3985529734589233    0.8009634920689752 Nb
   0.8010685226712663    0.8003305766376505    0.8006944004489243 Nb
   0.8006409051105566    0.5997098204831672    0.5993880604082811 Nb
  -0.0003972241554239   -0.0034958572370918    0.7992457686651883 Nb
   0.7999052456772585    0.4035601503748490    0.3975324958255085 Nb
   0.7992222749474343    0.2041635466830764    0.7987672129893367 Nb
   0.0022663770677368    0.3983255935088939   -0.0002103907006062 Nb
   0.5950466811169913    0.7954897558012356    0.8005001467693537 Nb
   0.3924324475376328    0.3947782814581153    0.5993737171662095 Nb
   0.6036276245538467    0.8037471194036783   -0.0006346431341133 Nb
   0.1959891605441467    0.4011637551242576    0.3973953754575387 Nb
   0.5998532517147263    0.5990464557153450    0.0011543003791617 Nb
   0.5955832275050769    0.1951298592736982    0.5990191362733782 Nb
   0.0010840443598770    0.5988091226275926    0.6009245415162007 Nb
   0.3982009915298186    0.8004183822935945    0.7977989471449236 Nb
   0.3978448208706597    0.8035485601159319    0.6013303672122889 Nb
   0.4021658287298913    0.7984942818692673    0.1987240614275373 Nb
   0.3956832855217022    0.5953568208635744    0.6023689007815227 Nb
   0.0021847976474310    0.8017496321583526    0.8013481744590655 Nb
   0.5958503317749485    0.5945964539131019    0.1977414502491338 Nb
  -0.0008210336619788    0.4021394578404088    0.1883646764559610 W
   0.0038129427770866    0.2066846040538645    0.5935032107275453 W
  -0.0034569682216534    0.3972179382706887    0.7901285537770442 W
  -0.0043887902865265   -0.0017395346824001    0.0063118247481009 W
   0.5886886236886653    0.3961863217986383   -0.0007506566382215 W
   0.7972994031402129   -0.0034359351030137    0.2087646412035830 W
   0.6010102397292801   -0.0017268246706420    0.0066355558619381 W
   0.7964782715170612    0.1908859887205018    0.0012654187926668 W
   0.3999023722436022    0.2012994614289908    0.0103303281140490 W
   0.4011368616984051    0.0029486942036244    0.8147093243431959 W
   0.4012640078233657    0.3978470693289650   -0.0128230511101461 W
   0.2060319405406084    0.8054200119753036    0.8126989608734740 W
   0.5914823426882174    0.3872040377941352    0.7999640324020493 W
  -0.0000447035718602    0.2018874139427863    0.1988170104170833 Zr
   0.7971753045382233    0.6002700287946964    0.0002255931431402 Zr
   0.5969585718926488    0.7993577432927161    0.6007352995193777 Zr
   0.7976945408165892    0.3964352577368155    0.0002148716197279 Zr
   0.7971941409795906    0.5981504999710391    0.8006500669799929 Zr
   0.0030323741993017   -0.0004147226680656    0.4001142317073462 Zr
  -0.0005547502162352    0.2004250715203265    0.8015705912452469 Zr
   0.7989066664076434   -0.0007456292023691    0.8018799399323520 Zr
   0.8009527996989931    0.0015245957956963    0.4009013716179664 Zr
   0.0009993957012574    0.4036695345713411    0.4004864539543595 Zr
   0.8012178816155200    0.7979154850999851    0.3997375504705966 Zr
   0.8014879257542701    0.3975607358702263    0.6000648843195475 Zr
   0.1986607305963559    0.5994332289942889    0.1983833984499856 Zr
   0.2031575049034793    0.4023498882490642    0.8016955406954662 Zr
   0.5977585029666589    0.0022392028180383    0.8006800196501257 Zr
   0.0019022615945621    0.6009470889710076    0.8010565322338555 Zr
   0.5971102083538096    0.0006741568615786    0.4007701955442648 Zr
   0.6013737502697755   -0.0019024302562711    0.1995614945671317 Zr
   0.0042778117270771    0.8004530390702270    0.6001505403835021 Zr
   0.3974192290416083    0.6007071322468929    0.4000460474591889 Zr
   0.3989944610937123   -0.0016432388947604    0.1987634664225460 Zr
   0.2040999858134301    0.0006771005213044    0.8010014198301278 Zr
   0.2021353497940573    0.6015294598183878    0.8011651325311226 Zr
   0.1994230930973591    0.1990679071353516    0.4010260588590911 Zr
   0.1983818023847912    0.5975981485053065    0.6003104260471072 Zr
   0.2039219671228183    0.1997261164938254    0.8002826704677335 Zr
   0.5962736125752587    0.3956951567653119    0.5997839549584989 Zr
   0.6018305934524163    0.6010003245591601    0.3998303830094638 Zr
