Zr31 Ta31 Ti31 Nb32 B250
1.0
   7.7455298317125427  -13.4153960820491100   -0.0013388578750217
   7.7464072331959448   13.4159026410207662    0.0014594817598541
   0.0001313540015104    0.0017635522623858   16.8554349263884795
B Nb Ta Ti Zr
250 32 31 31 31
direct
   0.5329551655216505    0.4651303102129711    0.5034512701959235 B
   0.0631366814760485    0.1321570583266904    0.9003128981612710 B
   0.0654276044564869    0.1345878742740712    0.6976576256086174 B
   0.0665467069787002    0.1327173950995206    0.5000740716795455 B
   0.0670358444575521    0.1327150627086706    0.3043183208662243 B
   0.0640055577038081    0.1321365055822127    0.0974305554610071 B
   0.9341633044225067    0.8673370415042613    0.8981478722332865 B
   0.9318649494760605    0.8653761036496417    0.7034601737503753 B
   0.9331664284516915    0.8682735626425004    0.4998234514267393 B
   0.9341354368286766    0.8667250085361544    0.2992491187846300 B
   0.9340041510745695    0.8659628906711145    0.0978797703748649 B
   0.9364775357405193    0.6682554129668956    0.8979915804253560 B
   0.9341267543912585    0.6658300584881559    0.6995623444394338 B
   0.9311407419713834    0.6637930333717127    0.5017119984759560 B
   0.9319288771225123    0.6661102675855515    0.2966734982323915 B
   0.9365775038421665    0.6688125397326405    0.1030705658563359 B
   0.9344517002609420    0.4667804919417102    0.8959541326978238 B
   0.9325714554367340    0.4665796777396893    0.7015747167368450 B
   0.9327430852941944    0.4666519713900129    0.5014513235568540 B
   0.9312241066795025    0.4639940814868724    0.3001044129922863 B
   0.0649847338245346    0.3323386051051524    0.1018905058098660 B
   0.0638340624284649    0.3316239399429115    0.3002613700731219 B
   0.0653809011672513    0.3318042553884554    0.4994918892148922 B
   0.0657699370309270    0.3316392602787681    0.7036874998617036 B
   0.2706410537575590    0.1340584556932314    0.7000042876132997 B
   0.2671010413728155    0.1335204649324278    0.4998040166217119 B
   0.2643054658651605    0.1308892974463773    0.3032237181262198 B
   0.2655288111858869    0.1321001967118760    0.1014294172250455 B
   0.0656343859209082    0.9318353786265073    0.8998673008132247 B
   0.0649137488507874    0.9325029970510558    0.7030392761239024 B
   0.0673087602882554    0.9363395194449550    0.4969408132865905 B
   0.0677680961841661    0.9337539645088282    0.3010822286707168 B
   0.0659317645980317    0.9309524952344426    0.0979163207241084 B
   0.9317778759735236    0.4665631292823892    0.1012831515626639 B
   0.0668829893286753    0.7333834127887470    0.9017346915176385 B
   0.0673474987826420    0.7325927515701627    0.5023434257123962 B
   0.0666053340865611    0.7349487345869733    0.2953187224749023 B
   0.0675875387482815    0.7343195151909558    0.0994772061958449 B
   0.0666211672213212    0.5336474039835115    0.8966140470798866 B
   0.0655729408546217    0.5331730521519308    0.7019428340005731 B
   0.0652209874511677    0.5327370474514075    0.5017906435501720 B
   0.0648943338343467    0.5310792838070373    0.2984838949539029 B
   0.0665686499828015    0.5359728757129626    0.1001870736371576 B
   0.0639675002807873    0.3320891218744133    0.8942503909209687 B
   0.0650008069164506    0.7315662401462696    0.7005199640390267 B
   0.2684749624386703    0.1325136021922314    0.8973878177675919 B
   0.9326419467142522    0.2651209799409001    0.8974796255063497 B
   0.9349512408893511    0.2678235024130746    0.4971305465220046 B
   0.7300181908665557    0.2666286567764863    0.4998109786556960 B
   0.7328408902231410    0.2657912034053090    0.3000367839991893 B
   0.7329011768705419    0.2647921128219191    0.1003497324262963 B
   0.7339702258232313    0.0679311868695519    0.9031508909964112 B
   0.7318662872254242    0.0670271030777483    0.7039009903985219 B
   0.7326025465902624    0.0684918065579721    0.4982956411471763 B
   0.7334197354403246    0.0694474844337958    0.2957092590875989 B
   0.7347373810430378    0.0697357854134096    0.0981860011760828 B
   0.5346707283103224    0.8689016249467758    0.8957219447784665 B
   0.5326285534252380    0.8671892070392875    0.7057531491623650 B
   0.5298636363995848    0.8654492871162580    0.4971459606867265 B
   0.5326182360298756    0.8686792578358417    0.3011391686954094 B
   0.5329857032216287    0.8696467062876192    0.0992042889833275 B
   0.5317078156703542    0.6675171551487898    0.8964665711158757 B
   0.5325085149697554    0.6667015529827385    0.7014256295690013 B
   0.5319062192543763    0.6649213316488904    0.5007277160936964 B
   0.5319530345586321    0.6658450009714896    0.3015427459322317 B
   0.5314632640738735    0.6645249699541722    0.0999978023610075 B
   0.5320852529373638    0.4639339144123160    0.8974206354620602 B
   0.7318303513585805    0.2682628096905758    0.6992560577628242 B
   0.7336228425498658    0.2655739271593027    0.9008212551107120 B
   0.7347073332380559    0.4652799745401656    0.1043023726334455 B
   0.7337524503454241    0.4666695623046684    0.3019461554194870 B
   0.9318886014686637    0.2667974015905353    0.3004946517541373 B
   0.9293276687622273    0.2636401190923999    0.1001998532238835 B
   0.9330191236690645    0.0669170204990357    0.9039045314947944 B
   0.9357865975702143    0.0687839535752884    0.6997691106743772 B
   0.9366727402038802    0.0686009519496238    0.5005781004774220 B
   0.9353167036236537    0.0682047003341449    0.3013959020078854 B
   0.9314752209882421    0.0656239222341460    0.0943285312009293 B
   0.7346085050698180    0.8673421603684625    0.8986185392781481 B
   0.7328297907799848    0.8640415155119798    0.7037008230027685 B
   0.9350981550027528    0.2667631512376913    0.7041812519515744 B
   0.7333841960655918    0.8645508710934844    0.4991650286413493 B
   0.7371397710787934    0.8693155145219345    0.0990914290282626 B
   0.7354893941320338    0.6690811615898613    0.8977330366809961 B
   0.7327848459365535    0.6666601126808968    0.6958222055440197 B
   0.7326536333708190    0.6645517228471433    0.5028064281883109 B
   0.7358353319846501    0.6658948021222991    0.3002149174381057 B
   0.7361740428379636    0.6681448651236296    0.1036106902566728 B
   0.7329054311045513    0.4639368562618782    0.8968732484166770 B
   0.7312180120909609    0.4638889001478728    0.6970234241831845 B
   0.7319993302991341    0.4664676159196930    0.5015688748437662 B
   0.7342067890276702    0.8671760190193250    0.2991482731826258 B
   0.5345676003763976    0.4646607446044531    0.6964529107254828 B
   0.2687235014585820    0.3349535259895398    0.1036413930873566 B
   0.2686317674524873    0.3330893653929504    0.4995212590967715 B
   0.6645945286369127    0.9323331416430017    0.7054637329826857 B
   0.6646047079817311    0.9325844818992612    0.4979230597724891 B
   0.6660219903088278    0.9349002446132922    0.2991607794360038 B
   0.6695375322032300    0.9375510274563919    0.0987093921437534 B
   0.6685399693301911    0.7360199504190902    0.8956628892925708 B
   0.6676287582222640    0.7334530668350434    0.7003768310344621 B
   0.6665046385042460    0.7314019136464160    0.5023485472433278 B
   0.6679714735354070    0.7337861779661815    0.3001165544690518 B
   0.6693619351733028    0.7345089594105426    0.1014267522015622 B
   0.6663895190993026    0.5312265856293392    0.8972680902815640 B
   0.6652813764678946    0.5307335406852152    0.6944624649883283 B
   0.6664027140422069    0.5321606847943656    0.5039076873102897 B
   0.6679868555316396    0.5321046899836469    0.3013715057461182 B
   0.6666340740691471    0.5322598062996990    0.1043320589120965 B
   0.6655363684185178    0.3313446254525015    0.8962139160282948 B
   0.6644102491020992    0.3333249410489458    0.6973166942290167 B
   0.6636482665201763    0.3313086064864982    0.5029660947468516 B
   0.6672327225945365    0.3323909705768697    0.3017389037580638 B
   0.6675005819066012    0.3312652297251325    0.1022467688560500 B
   0.6669952007000748    0.9348875021857861    0.8984860809905547 B
   0.8649737592075106    0.1332457686134499    0.0971706224238630 B
   0.8668149832097469    0.1356229298891622    0.2971401046098050 B
   0.8697060435687433    0.1361971056159749    0.4998423137878069 B
   0.8691740016755785    0.9338954886763280    0.4996981564077465 B
   0.8684239622780666    0.9332216985403288    0.3010233214810977 B
   0.8679970385657620    0.9336611646647919    0.0956014034707816 B
   0.8698471878761781    0.7364290532937937    0.8970400972418764 B
   0.8664946684404996    0.7342937897941536    0.7014465362672233 B
   0.8638388778475987    0.7311784097448917    0.4998310778897448 B
   0.8672300551588815    0.7326656869865744    0.2976796947339854 B
   0.8702658808134657    0.7351550573348808    0.1037619865696621 B
   0.8687521808276573    0.5324593013136992    0.8987574414293336 B
   0.6670406537952212    0.1330768596300365    0.8996784756498822 B
   0.8669619981959512    0.5316890889807993    0.6965193640526082 B
   0.8644066858331766    0.5324971673706498    0.2996536251618931 B
   0.8681451641079896    0.5339168182784563    0.1028289183678927 B
   0.8664999115685175    0.3322502381347104    0.8979906785874183 B
   0.8667788568610247    0.3342707184803380    0.7034932180192965 B
   0.8666174001682673    0.3342933836758635    0.4973026532022418 B
   0.8658200315859347    0.3322042586023297    0.3001571789534647 B
   0.8636731491330391    0.3303898096911790    0.1013180018125349 B
   0.8664341330759595    0.1341755781840504    0.9041106306270208 B
   0.8694589130595760    0.1359096400288167    0.7017726101438534 B
   0.8653255427907320    0.5328322228528380    0.5020586890229928 B
   0.2687405491838147    0.3339014740064938    0.2995684540614773 B
   0.6641988559136817    0.1329482483663301    0.7019119605487689 B
   0.6663833278686739    0.1344097997074277    0.2991144034009198 B
   0.4681241023176170    0.1313662949800440    0.3015335774811864 B
   0.4686504829950039    0.1325535860442412    0.1030774790827921 B
   0.2670715043416247    0.9335269516763225    0.8996403933198125 B
   0.2700513559500302    0.9360209901543229    0.7004932823772126 B
   0.2695186669711031    0.9359037159748498    0.4991748214876609 B
   0.2672395004787378    0.9339567131980079    0.3005202081002991 B
   0.2654519134485591    0.9313089860761177    0.1019769369889156 B
   0.2649248872042599    0.7322612070776834    0.9032459113094643 B
   0.2662908283406511    0.7329688740503890    0.6991802570817013 B
   0.2695572778320081    0.7356959040046190    0.5022220933591117 B
   0.2678912764295880    0.7362123258162820    0.2982731480262741 B
   0.2651357060344326    0.7346294703729773    0.0971843536518732 B
   0.2673838671876945    0.5345926639593186    0.8962434849175638 B
   0.2673726705411791    0.5336742121093860    0.7028152563892599 B
   0.2682634532096079    0.5345547989862189    0.5017413909314744 B
   0.2676065137787916    0.5332414124035590    0.2983481712129273 B
   0.2675547608131619    0.5332590670900857    0.1002452065027442 B
   0.2679312806208916    0.3354776174702955    0.8980573792731269 B
   0.2663001791240628    0.3327207344018037    0.6986070147728587 B
   0.4676360683382638    0.1341879081134426    0.5053153092894467 B
   0.4667589125562276    0.1343131466346245    0.6979918733964623 B
   0.4673192340455685    0.1334828143921604    0.8940763680470868 B
   0.4671448186504392    0.3349595676449147    0.1028978905906673 B
   0.6685260670923933    0.1348626513826506    0.0993471933265253 B
   0.4683682110927858    0.9356397457908843    0.8952373407065490 B
   0.4662406514732795    0.9353711299475760    0.7031524586644392 B
   0.4650853632774161    0.9339582999106142    0.5003801330025021 B
   0.4662811877839316    0.9353894587039163    0.2975855824104196 B
   0.4661670733335733    0.9351322133118313    0.1029224158780047 B
   0.4659342039281094    0.7328121154689639    0.8964172453338112 B
   0.4662165667363337    0.7323067576206946    0.7045292680475026 B
   0.4654939366944538    0.7333320017431593    0.4972281858268331 B
   0.6635915713923917    0.1355708911258185    0.4987727621925253 B
   0.4661815638216512    0.7339835681451001    0.3028114324627361 B
   0.4647687033298260    0.5331769416772115    0.8985961113377310 B
   0.4673465978318543    0.5338668069796588    0.6980876588137174 B
   0.4664823951315837    0.5311850987435154    0.5010169098611471 B
   0.4644153218548134    0.5302821849136020    0.3004313196212134 B
   0.4646891071476515    0.5306292961040338    0.1012109283384720 B
   0.4674725398332525    0.3322288040629234    0.8942137444630062 B
   0.4688447958833858    0.3320422330211695    0.6988615431342798 B
   0.4680035888698028    0.3337997874548885    0.5039681194043114 B
   0.4668937730134581    0.3349954367421280    0.3018140980197880 B
   0.4642808571019554    0.7324929226935999    0.0983850124461355 B
   0.8674223694966302    0.9317340660359483    0.7007981989158071 B
   0.8679458363607335    0.9340914172523046    0.9020557811794385 B
   0.5310221773584626    0.4651923260371008    0.1037317076654959 B
   0.3356233192030406    0.0674643551517449    0.5019285497522136 B
   0.3332862121223031    0.0638082967685629    0.3017698483401986 B
   0.3331214151798939    0.0640198623369182    0.1027253002471004 B
   0.1323876441524852    0.8651935990557499    0.9013763216999718 B
   0.1329378747044704    0.8662816952938257    0.7024249892846333 B
   0.1356951007699669    0.8693643661223248    0.4976223221352366 B
   0.1342449785890648    0.8677272448285307    0.2988142565278790 B
   0.1325552295414556    0.8647704233311651    0.0997056392150730 B
   0.5312670559348553    0.4644939514470464    0.3002181016953281 B
   0.1309387003750096    0.6647318737893673    0.6980478890958712 B
   0.1329719625379600    0.6665054388005660    0.5039144221947965 B
   0.1334023306232449    0.6677278863651407    0.2971706063825515 B
   0.1334713378122494    0.6690889696342568    0.0978871155786541 B
   0.3374228140405741    0.0684514139026440    0.7010451692491518 B
   0.1324056457539964    0.4672961607101128    0.8949562817336840 B
   0.1319044489067958    0.4657633061778770    0.4998414219235476 B
   0.1312875210887863    0.4648451195831145    0.2987556360429990 B
   0.1331579408221649    0.4677546664173194    0.1022640770215946 B
   0.1299625339465192    0.2664120009167682    0.8972271921489652 B
   0.1302790007168544    0.2662642458349544    0.6988453189893714 B
   0.1318258284578083    0.2648489917670295    0.5019722463364967 B
   0.1328827752061680    0.2655973367631204    0.2992543158171742 B
   0.1329330279447669    0.2664751996804379    0.1022791079494283 B
   0.1315495633166281    0.0643384927128407    0.9007741806168379 B
   0.1329306857236038    0.0670554642687335    0.6992809321986827 B
   0.1331053510300482    0.0665994266922868    0.4958485107751669 B
   0.1328839908237615    0.0649996257929193    0.3055624076829750 B
   0.1316625064935569    0.0643519028531865    0.0981440071577118 B
   0.1327682710041883    0.4657613122263910    0.7035628227407438 B
   0.3353569799977756    0.0670256068208863    0.8942707409015481 B
   0.1326879480011908    0.6661215552054988    0.9031692541469205 B
   0.3327443548187112    0.2681830881137167    0.3021611060433425 B
   0.5331476280297741    0.2659504662515891    0.8939787791248689 B
   0.5327660133837906    0.2662451891901771    0.6974323979090676 B
   0.5336159921031312    0.2655854873456279    0.5057118644108802 B
   0.3345086460931972    0.2694393309322246    0.1022752993940204 B
   0.5355107295050128    0.2663458349554427    0.1024415671178283 B
   0.5341776293462048    0.0674369753076711    0.8952561205008489 B
   0.5304771996304976    0.0667964485172580    0.7009712599349656 B
   0.5315882498317495    0.0691347552593450    0.5004348194093803 B
   0.5332680855208931    0.0668693044150228    0.2994627309165663 B
   0.5350681846404906    0.0684150157021409    0.1029067196266547 B
   0.3333475114050353    0.8667936180321822    0.8996633762730637 B
   0.3354825051823221    0.8699511294956357    0.6992366391840401 B
   0.3351680867970257    0.8685653214620724    0.5027104247749655 B
   0.3346149355921264    0.8701448821858419    0.2984003740277483 B
   0.5361816584729271    0.2667217461177894    0.3023822286359685 B
   0.3326289171136191    0.6656651124807227    0.8989766327746097 B
   0.3315981466854998    0.8663860052127638    0.1012190458514197 B
   0.3350520483974810    0.2679500595718226    0.5013105354890617 B
   0.3358560053964282    0.2679705907346355    0.8969973814620218 B
   0.3346633153686041    0.4659735637383926    0.1013213448129224 B
   0.3349561779333040    0.4653344273563074    0.2995772915731609 B
   0.3357100790086604    0.4664854398971498    0.4998414105404340 B
   0.3362408808856355    0.2654355161123224    0.6986036971075857 B
   0.3342814610642169    0.4688701427026383    0.8972721756240705 B
   0.3319596614233175    0.6664521549173602    0.0976122887168876 B
   0.3351217856883743    0.6679839941343315    0.2998830199002331 B
   0.3355524830211185    0.6693254759388340    0.5011154913873210 B
   0.3344588913244475    0.6660867196218305    0.7023445796196890 B
   0.3338202528987195    0.4680455433129910    0.7014168199149089 B
   0.5989365369712938    0.0037892806706668    0.4003471957977854 Nb
   0.5982085677504401    0.5974076984135621    0.2016972618210737 Nb
   0.1968138241205493   -0.0041032807896039   -0.0007997027053052 Nb
   0.1993558635394593   -0.0018631581682691    0.2001606505017112 Nb
   0.6008638043201504    0.3982710307956627    0.4036853808150375 Nb
   0.5984799449711025    0.1995746401887690    0.7960749358425032 Nb
   0.2007537351578538    0.0001234593257995    0.8002042185536131 Nb
   0.2000888983303263    0.2012422530160163    0.2018416919013883 Nb
   0.2019948056453821    0.2021506855398958    0.5986475055237879 Nb
   0.6021585635544752    0.0017929837849132   -0.0018188150331323 Nb
   0.4007121091367827    0.3991203910158765    0.6017410423855847 Nb
   0.3963842421326139    0.7994580979469943    0.1964437537689225 Nb
   0.4001913836962807    0.8004563392429174   -0.0028215272482666 Nb
   0.3986645094674126    0.5966956770289960    0.6011715341855358 Nb
   0.3975147804358959    0.5967763089644748    0.2005785604824575 Nb
   0.4010659110887489    0.3991286735007115    0.7962553913100990 Nb
   0.2024533667096073    0.3999155731155657    0.5998493581535845 Nb
   0.1990037196792042    0.5989321486328604    0.2004167900088589 Nb
   0.2012739502905282    0.6000334301981736    0.6003544360929876 Nb
   0.2047745843076899    0.8054282647765173    0.4021783854171005 Nb
   0.4010000137787881    0.8010167187534997    0.8013360227369190 Nb
   0.8008942200985983    0.0037876760557079    0.1973253527960284 Nb
   0.2011966620014570    0.7992239115113285    0.5993198402882650 Nb
   0.7964929518715500    0.3975444910197540    0.4021877696712951 Nb
   0.7999980155054124    0.7999179273644066    0.3998312470665343 Nb
   0.0000873198681865   -0.0011478849631997    0.8008526189875353 Nb
   0.8010611977313506    0.3972398121126052   -0.0019418721247846 Nb
  -0.0012904528868698    0.3987825985520055    0.2010598398082672 Nb
   0.7989954172743445    0.2004434024531460    0.8004575508734307 Nb
   0.8042006720782369    0.8038330011464279   -0.0034125170769414 Nb
  -0.0010317162315853    0.2009635337261819    0.1988655331713782 Nb
   0.7985897908045725    0.2018957851304176    0.3999549692109790 Nb
   0.6016207617456562    0.0041660478028722    0.1975663748205946 Ta
  -0.0054398353990120    0.1952504974186576   -0.0010232122629999 Ta
   0.7991813736316943    0.5993283082337219    0.2022388539738382 Ta
   0.1979580030909575    0.3990734198145823    0.2010096729774836 Ta
   0.4035134318220295    0.6021503267159788    0.4004874850767537 Ta
   0.3991577637390628    0.6021666563833247   -0.0016265252030158 Ta
   0.4027451251335633    0.8053418248137462    0.3961777309919947 Ta
   0.0008093464597729    0.0031714735706586    0.6008172028622988 Ta
   0.7996243204126945    0.7974858568725300    0.2017305920503322 Ta
   0.1986642944916279    0.4003037684637105    0.7982749824576866 Ta
   0.3997306862341135    0.4017907541302404   -0.0042003845690036 Ta
   0.2018506612590409    0.6056471205861004    0.0011142013026881 Ta
   0.7984134345039821    0.7967952606144137    0.6008062676319427 Ta
   0.1989813279221933    0.5967424627744374    0.7977747206088348 Ta
   0.1985804595275221    0.8003976322517788    0.2017232933102752 Ta
   0.4011147974541456    0.0011831495313073    0.4035482939615578 Ta
   0.3952253064062956    0.7980393126855992    0.6072896854657409 Ta
   0.7978632460831467    0.5980349215748814    0.5992867726369796 Ta
   0.7968422557961503    0.4016481291640872    0.5971829398477970 Ta
   0.8006108455099766    0.3979928511881380    0.2006517752599857 Ta
   0.1990680503851024    0.1971230041345940    0.4008514548827664 Ta
   0.6050142900300238    0.1986297845264906   -0.0030005220246106 Ta
   0.6019124049021084    0.2006590747766347    0.2031934053269343 Ta
   0.0033230667785933    0.6042383676266230   -0.0014736754689815 Ta
   0.6009170517868924    0.4024488298470386    0.2040231959208294 Ta
  -0.0005621568397544    0.1999207323030657    0.4010068609307447 Ta
  -0.0009888879290683    0.5988784567068600    0.2021605359144006 Ta
   0.7988623761402126    0.3956548773250557    0.8005876188988436 Ta
   0.5984831802765485    0.8017898209775423    0.4005937395253562 Ta
   0.0026037531542070    0.8032445536734893   -0.0021399762857683 Ta
  -0.0005028700648988    0.5971378477320225    0.7967177693370807 Ta
   0.0013171669521649    0.0012699594138451    0.4008443766398636 Ti
   0.1988977946398505    0.7996031654237827    0.0000608447722195 Ti
  -0.0008178257541187    0.2009227861865722    0.7998103840840134 Ti
   0.0005430263300695    0.7984693428886706    0.1992322408612195 Ti
   0.0010651445463775    0.8017608363528433    0.8005199796722176 Ti
   0.0044242489647711    0.2006877875171224    0.6006003941554044 Ti
   0.2010819039395291    0.0001899127279519    0.3990936920844429 Ti
  -0.0042737784183198    0.3959363531663570    0.3990959776993366 Ti
  -0.0000951117638648    0.6000291798714020    0.6006826892790414 Ti
  -0.0010884298824790    0.3987765191926070    0.7993840014977108 Ti
  -0.0012645650149592   -0.0016608930223661   -0.0019565146649735 Ti
   0.8001565514484761    0.2005006961617581    0.1994503853974185 Ti
   0.5986674228729696    0.3963536163911280    0.7967809778078713 Ti
   0.6014273839273506    0.1998468742191670    0.4008558256825072 Ti
   0.5992478263911026    0.0012248375462635    0.8011776822903219 Ti
   0.7980432222574638    0.1982653325515356   -0.0006286667642759 Ti
   0.3991108748130131    0.6001338981391022    0.7993771603300833 Ti
   0.8011414011814070    0.0015236261184736    0.0005824001208223 Ti
   0.4001033968835832    0.3991668738866683    0.4007803562960771 Ti
   0.5974109353902759    0.2016850073309915    0.6016361764043170 Ti
   0.3995778190403473    0.4002169635321838    0.2019477982697253 Ti
   0.4015345355228059    0.2017170050305328    0.6014234738568105 Ti
   0.7974099310239920    0.5970339149164547    0.4021463836134573 Ti
   0.5985358484098492    0.5966967554630599    0.6001262873695127 Ti
   0.8015934652186728    0.8015045690854763    0.8006626782247399 Ti
   0.5985589780816934    0.8003139740085075    0.8003849316359475 Ti
   0.4013873540353319    0.0016984426877249    0.7982136375784034 Ti
   0.3998692147727809    0.0009693908250350    0.6013298464785862 Ti
   0.3995508681495111   -0.0014502015319827    0.2006944261784819 Ti
   0.4015404411219785    0.1997644466274055    0.7970450155538360 Ti
   0.5990551171120020    0.3993951361697402    0.5996866926807850 Ti
   0.0017731854803187    0.4006694006827894    0.6015642118061321 Zr
   0.8004276433165306    0.0015278889082831    0.3988131705854477 Zr
   0.2004848403321124    0.8000672732505788    0.8001221273975072 Zr
  -0.0024606712704371    0.3991222244712042   -0.0003336088266271 Zr
   0.8015526062871059    0.0015738501982351    0.8020485899251274 Zr
   0.5970186715687953    0.7969785902500068    0.6018266732126368 Zr
   0.7999807830540893    0.2021373296887251    0.6008059352293857 Zr
   0.8040909642811820    0.6019701697603020   -0.0000382152772706 Zr
   0.8005452879974151    0.5990714515739750    0.7975485947669535 Zr
   0.0003539120264320    0.0002001107368795    0.1993752351164272 Zr
   0.8011472349381239    0.0003076849768763    0.6009283087157331 Zr
  -0.0019067413071532    0.5986249496436344    0.3999105702464105 Zr
   0.6007636307712750    0.6012156459046499   -0.0004422868305665 Zr
   0.6015035159223778    0.8032674026934575   -0.0018617860422944 Zr
   0.4005507083093338    0.1987957277002100   -0.0004399315367304 Zr
   0.3990596503737440    0.1989412719861864    0.2027779409088648 Zr
   0.4022133722106328    0.2007988232273129    0.4025498168278216 Zr
   0.2005110764306530    0.6016107172926036    0.3999946761381417 Zr
   0.2002508993500719    0.3988856341548453    0.4003243011879756 Zr
   0.1991951759928171    0.4013754606212578   -0.0011051413674600 Zr
   0.1995116085775246    0.1992520172154666    0.7987223263588157 Zr
   0.5961499359051631    0.0002454706781361    0.6010068619233412 Zr
   0.1986042803345287    0.1984996340541206   -0.0000707483640757 Zr
   0.2026415679342349    0.0020893711485397    0.6005360116817018 Zr
   0.6014092514756594    0.3984641059754875   -0.0002490564120572 Zr
   0.4004712440629046   -0.0015156481462545   -0.0007627829516445 Zr
  -0.0002902501808394    0.7995007794523756    0.6003227793148375 Zr
  -0.0002425671590703    0.8002025598603639    0.3992001638264142 Zr
   0.5989872281819453    0.5991153295583054    0.7976956823257986 Zr
   0.5988052401932957    0.8001322992478263    0.1994398365867862 Zr
   0.6007019203238698    0.5982503458558135    0.4007503578710776 Zr
