Mg14 Mn14 Fe15 Co15 Ni14 P72 S216
1.0
   0.0005422803683600   18.1237603467743540    0.0006242754583111
  20.9053526647103851    0.0006255985102420   -0.0001586404470416
  -0.0000249316257858   -5.9682323336474266  -20.3343982860104440
Co Fe Mg Mn Ni P S
15 15 14 14 14 72 216
direct
   0.0031211906537381    0.8288776440042034    0.6689667348244781 Co
   0.0045929008755209    0.6686633785869823    0.3319525570667820 Co
   0.0005295303473509    0.6677716759373759    0.0006127562498792 Co
   0.8330671490943631    0.5789892105981151    0.6674613646640389 Co
   0.6664481858649264    0.6659026778437284    0.0002600804435524 Co
   0.8335102490355418    0.0800662398181620   -0.0019785687319915 Co
   0.5031736945285422    0.5876346911196738    0.0008716019312540 Co
   0.3302362983854901    0.1687260942611807    0.6649767586738381 Co
   0.8373026274632381    0.9171616651360954    0.3336492602976038 Co
   0.8353051890345324    0.9149579821718801   -0.0014196564743017 Co
   0.8333076420568805    0.4142593093547496    0.0006933109758242 Co
   0.3346374857545708    0.8351928466262378   -0.0015635819848895 Co
   0.1622874568575738    0.4149035547093752    0.3326389967952090 Co
  -0.0013214460127172    0.8341904848860046    0.0009775674661152 Co
   0.1667040774112999    0.9161508020740243    0.3320873511391935 Co
   0.4927953400897992    0.5860193667524214    0.3324607382714064 Fe
   0.3347064686083122    0.6676347999275279    0.6672090314883924 Fe
   0.3346239476646646    0.8343843967265967    0.3332521721680461 Fe
  -0.0013000036295929    0.1643766198172929   -0.0001804584125970 Fe
   0.8330631946316837    0.5830895427488524   -0.0013658764482559 Fe
   0.8337179051712876    0.0769254524173871    0.3327498778306538 Fe
   0.0040152441724133    0.8326806889613870    0.3318148047012503 Fe
   0.0054551930335673    0.3352429349036011    0.3331055635421095 Fe
   0.5019895027187552    0.0796133942917479    0.0013507160928763 Fe
   0.1645001508267895    0.5850867326516496    0.3319800894580414 Fe
   0.1627906301188109    0.5870004700384336    0.0010354267258308 Fe
   0.8368786990457445    0.4205306814739595    0.6685658261175901 Fe
   0.5008596649024236    0.4221653971344920    0.6705634688287639 Fe
   0.6687390250577020    0.3329314965229179   -0.0006301664876939 Fe
   0.6653329402758420    0.3347543991808079    0.3344103788612706 Fe
   0.4995279097089931    0.0807764926171976    0.3303579409339962 Mg
   0.8332278010292409    0.4147702959897821    0.3317746921299981 Mg
   0.3308349526659088    0.1646381793904440   -0.0022428799718232 Mg
   0.6685096980930840    0.1674837868935029    0.3351526590023927 Mg
   0.6639208881656011    0.1667745561208950    0.6644465800083806 Mg
   0.8338937677012457    0.9126580486180135    0.6662964066865854 Mg
   0.6668472146396515    0.8322301118496525    0.3361272271872776 Mg
   0.8332117745473930    0.0829344066691286    0.6607573843016993 Mg
   0.1647664364433923    0.0847192277568584    0.6664831661939701 Mg
   0.0062990649822471    0.3339136692116146    0.6719641769161222 Mg
   0.3321253959067705    0.3340381926935510    0.0005317994113459 Mg
   0.4948290158865898    0.0851877619839091    0.6632979539507240 Mg
   0.1676636975543185    0.5815773372775730    0.6685314330739789 Mg
   0.6679374658511340    0.3349620343024660    0.6697653375239362 Mg
   0.3271444873970544    0.3362493941173771    0.3319004618344179 Mn
   0.6638627365128693    0.6654696709770433    0.3331297886785887 Mn
   0.1637717499877743    0.4206131059755798    0.0007060158272764 Mn
   0.3294189140885156    0.1659075575462454    0.3329260723021246 Mn
  -0.0000054525689933    0.6689245870476230    0.6697383336955268 Mn
  -0.0015588073142778    0.1663011136637003    0.3351543170323640 Mn
   0.8383481993268042    0.5870151307265530    0.3340052710907351 Mn
   0.4977763741965973    0.9145794748377996    0.6688132205808814 Mn
   0.6709543431917552    0.8331382839734565    0.0004027331355862 Mn
   0.5002699680880947    0.4187928844624741    0.3334244862028052 Mn
   0.5022795374694927    0.4183097492671081    0.0003183451963145 Mn
   0.1659662645002870    0.9146691984844999    0.6673584494164072 Mn
   0.6638838260474507    0.8286265957971969    0.6662174199903194 Mn
   0.3320923054651166    0.6734647450790289    0.0003334839982913 Mn
   0.3321724091556127    0.3377678137339437    0.6687182236470347 Ni
   0.3355247760639893    0.8296052043408610    0.6665092417445098 Ni
   0.6673148341588380    0.6613833314440714    0.6683003469002154 Ni
   0.4981256365320088    0.9189384725466815    0.0002794448115312 Ni
   0.6727103521795441    0.1633449237807236   -0.0003607685699971 Ni
   0.3295000559293910    0.6688053782141784    0.3317843613115535 Ni
  -0.0017723057180013    0.1750559179594648    0.6699065752050744 Ni
   0.5034897370839805    0.5836911528190050    0.6700232851027419 Ni
   0.1664882001488186    0.0776867671050843    0.3334580676771979 Ni
   0.1612749774440012    0.0819179589855910    0.0007175271450196 Ni
   0.4992046824576542    0.9149093538499653    0.3320012459906508 Ni
   0.1671866346609244    0.9178633963514424    0.0013045253004469 Ni
   0.1767151691226004    0.4171634415630200    0.6701440591377711 Ni
  -0.0076513033802168    0.3325968572929235   -0.0008711559256292 Ni
   0.8182506571116931    0.2467903513095207    0.2804162669548098 P
   0.8181942192295456    0.2515283400442471    0.6135147780737442 P
   0.1488032382719476    0.2504971908182831    0.6175323035427991 P
   0.8202334139993824    0.7518580631732212    0.2779514551308912 P
   0.4824767505844131    0.7521663524351370    0.9440004869023653 P
   0.8164701951028290    0.2474912769615743    0.9461042307003590 P
   0.4788651829626153    0.7489339009039525    0.6126710330850427 P
   0.1490290501186989    0.7454409408042736    0.6108903492298801 P
   0.4910402654035692    0.2476092762865203    0.9504810924992082 P
   0.4745353750587615    0.2561093792059326    0.6118249637473538 P
   0.4792375357151134    0.2527819410207879    0.2807045592706069 P
   0.1428781655268940    0.7547085413346792    0.9387940466102448 P
   0.8123401630589246    0.7445257549161021    0.6107361198354675 P
   0.1528750370391246    0.7510676734587383    0.2786000108602369 P
   0.1417297092724105    0.2515377641883738    0.9443821159351047 P
   0.4794032134495635    0.7517303980971060    0.2796506728462018 P
   0.1774345649266054    0.2490828537389884    0.0514066125954213 P
   0.5232788427305425    0.2461785929400493    0.0568737442345593 P
   0.1924290098922165    0.2524338543122427    0.7250120666048157 P
   0.8506952127182900    0.7446051159026015    0.7175572747296700 P
   0.8554871490521914    0.7504204803520769    0.3844145234271534 P
   0.8522087927352942    0.7482853646049141    0.0522344493182378 P
   0.8524613024451193    0.2543395065519685    0.7204648034313919 P
   0.8543329152067671    0.2492043591859615    0.3873777142349454 P
   0.8496493650189324    0.2467391903292704    0.0525564320700140 P
   0.1825397747465523    0.2491625448596233    0.3868041006493810 P
   0.5188044500922757    0.7459685000997209    0.7193685007220033 P
   0.5192378229971273    0.7549609990257551    0.0498841527896803 P
   0.5117795397853964    0.2538030495701296    0.7186152060235531 P
   0.5168596593234945    0.2493755078682638    0.3881919947298522 P
   0.1885087447053795    0.7519752489112552    0.7174206745836343 P
   0.1868691249882243    0.7496913173444847    0.3840999491912239 P
   0.1827093515882780    0.7519762497834186    0.0447761217793423 P
   0.5143980293106639    0.7500018657963858    0.3869626163958290 P
   0.1477673750764042    0.2459874243490598    0.2797529012897026 P
   0.8181460453158840    0.7472592691482552    0.9463170734291843 P
   0.6824693685172353    0.5024185291039508    0.3867691993540854 P
   0.9854158572777670   -0.0014993479166676    0.9472178767196772 P
   0.9818658908794873   -0.0073765888691459    0.6098894704990750 P
   0.9826916585666411   -0.0046201108356650    0.2763786341704451 P
   0.6521610999384471    0.5012259470562425    0.9472334642256678 P
   0.6439066845997254    0.5034326605854180    0.6036462809483201 P
   0.6492116089482526    0.5022111603760971    0.2798005093712528 P
   0.6504671435452789   -0.0044892775462702    0.9521300035034163 P
   0.6456817696680046   -0.0018556578351738    0.6116632713253907 P
   0.3123813098551925    0.5062670797938448    0.9457567766982256 P
   0.3190852747045635    0.5009227246851253    0.6074250325091178 P
   0.3084852587353781    0.5029724319276389    0.2803217162074094 P
   0.3145989653003822    0.0014434493100990    0.9449558327724530 P
   0.3171681685503366   -0.0023705136328373    0.6131709323588165 P
   0.3131089942670573    0.0011510191274306    0.2793982425893069 P
   0.6830206479110049    0.4967109306188801    0.7112732460620238 P
   0.9841411395640121    0.5016987747313523    0.2884071012525202 P
   0.9815836119276959    0.4993188832186178    0.6129280406438998 P
   0.6475387570310634   -0.0016579945932711    0.2765781137744898 P
   0.3503914497166081    0.5024866654108527    0.7144565255396503 P
   0.6825996103043021   -0.0019612135951240    0.7198171203144815 P
   0.6851091177448537   -0.0056146508929728    0.3833408357430325 P
   0.6856906030858265   -0.0003220638739724    0.0585922463181878 P
   0.3449399285053831    0.5022564977257244    0.3868504042820450 P
   0.3525266948954707    0.5047502008473079    0.0518846754208652 P
   0.3475515866355970    0.0007707428955460    0.7208520901995398 P
   0.3506271806155452   -0.0018951229238378    0.3869729791356008 P
   0.6859442290266456    0.5006729515085048    0.0530071217929983 P
   0.0226288680394282    0.5020356659321668    0.7200294055673264 P
   0.0268945527775573    0.5021995048458171    0.3953396290117964 P
   0.0144924480204919    0.4987989858419269    0.0458575435616891 P
   0.0122344644279296    0.0021395812941097    0.7173741771027893 P
   0.0195358190177373   -0.0005255928986176    0.3824726509850659 P
   0.0157617787342264   -0.0003266974223812    0.0535435684389175 P
   0.3483349860575110   -0.0025962314601226    0.0517830423830157 P
   0.9759035212697948    0.5018923656994574    0.9395797377273128 P
   0.7550527847257748    0.6723812250540352    0.2507860506540058 S
   0.2425716161855167   -0.0018371525135183    0.0704174175516569 S
   0.7533069118222949    0.6573497271891389    0.9425514954119366 S
   0.7534391610840145    0.6559085506123120    0.6045466317704110 S
   0.9147947516845142   -0.0002524679614051    0.7456224865672877 S
   0.7517543756344504    0.1733173155539859    0.5834159726112814 S
   0.7642289841681946    0.1589147823014842    0.2622035407297402 S
   0.2361911005961542   -0.0022713833067747    0.3946216908236345 S
   0.4295664900113214    0.6626149046896326    0.9369106776943490 S
   0.7601300011001827    0.1585306677320485    0.9346775482526525 S
   0.2490671254637387    0.0001749105700641    0.7483162090450742 S
   0.5769126525586226    0.5063338557657464    0.4062743948961899 S
   0.2282416804660511    0.5015003946534330    0.3927504823450273 S
   0.2524488252067938    0.4946117163388705    0.7432133305285776 S
   0.5649058526107472   -0.0024732391646116    0.0589409164919830 S
   0.5809478047895342   -0.0107014637961943    0.4043136984015005 S
   0.5812852973226252   -0.0000625173080398    0.7444990797641181 S
   0.5756410840289274    0.5102340456205733    0.0648252946806417 S
   0.5855519792273360    0.4916740031355605    0.7423658345052203 S
   0.8985796388067457   -0.0026751913805139    0.0584169626625705 S
   0.9050213096605915   -0.0026022101446723    0.3932009937035473 S
   0.4113813706068119    0.6677873710930774    0.5970731915623172 S
   0.2445099860922591    0.5139546819951771    0.0688329692403301 S
   0.4186184658339708    0.6651210310129826    0.2684605434274929 S
   0.5792217769594072    0.6643588585169056    0.0612363368197245 S
   0.4068641440763587    0.1751111945996481    0.5911675226088311 S
   0.2437784180392955    0.1668156880334000    0.4107312370407850 S
   0.2583908396985437    0.1696521215121972    0.7411955236469064 S
   0.2355576532136445    0.6655545252003061    0.0697305983587390 S
   0.2437572950596681    0.6599445767535801    0.3884848898641169 S
   0.2557313572727772    0.6705041573113226    0.7390995049862308 S
   0.5782434873024035    0.1570233082162829    0.0667388353397202 S
   0.5783208495413565    0.1676987197001316    0.4133547662777184 S
   0.5750409752961536    0.1734756572901006    0.7459198920207557 S
   0.9032006343631920    0.5001167212542972    0.0605058208986865 S
   0.5665718193052707    0.6599840877011425    0.4040424830872469 S
   0.5826262600405044    0.6622961062149114    0.7361536424933565 S
   0.4341922288974892    0.1603756277858909    0.9313704216397565 S
   0.9118283925281334    0.1554101341583509    0.0588410030055107 S
   0.9208032480373027    0.1723849271367162    0.7349241457473346 S
   0.9120424063880137    0.6608476160029600    0.0609255664025751 S
   0.9272902999205616    0.6706062503223830    0.4032957829184562 S
   0.9033462380889735    0.6560587596559572    0.7389624155995701 S
   0.0883361239193120    0.1616687194464337    0.2609114491542672 S
   0.0744023901098296    0.1729123212478737    0.5997436455137101 S
   0.0804847436294866    0.1643831652502697    0.9336650454881964 S
   0.0872511118376229    0.6617607624599663    0.2716052651949402 S
   0.0844957795626620    0.6659550079488981    0.5846219556585007 S
   0.0836114731119361    0.6606496685036224    0.9405148019556392 S
   0.4172377572002171    0.1706549466199702    0.2536210570931457 S
   0.9085887880465031    0.1605890002124749    0.4068168508622136 S
   0.9217453618368423    0.5002769325180758    0.4122091881643497 S
   0.7721226413051896    0.5007405255679945    0.6054988739586297 S
   0.0970222169153347   -0.0029527906093768    0.2696022523319947 S
   0.7382864760568928    0.2516575038170244    0.0606506830899360 S
   0.7527478964373552    0.2554431333979424    0.4111296816878307 S
   0.7539679701434541    0.2487658785084344    0.7480598452940984 S
   0.7435631474342261    0.7403055780871941    0.0671832366338322 S
   0.7593417536053713    0.7479788469452858    0.4146259458964455 S
   0.7484292980293620    0.7427363056255283    0.7414314493558937 S
   0.2435387093805216    0.2500154479006118    0.2486528913400494 S
   0.2480595124627020    0.2385809110559441    0.5909559358534429 S
   0.2432706171491487    0.2503759206648829    0.9208783338710722 S
   0.2674327457240831    0.7531190101414919    0.2732183837068310 S
   0.2617749757163053    0.7467173658990195    0.6015394873935008 S
   0.2608651131972970    0.7606882844128068    0.9330589117809461 S
   0.5826629999604624    0.2544087776113716    0.2587728913025143 S
   0.5749898333861330    0.2540113541229514    0.5870725704414190 S
   0.6005361437939143    0.2496290401544625    0.9370606592070219 S
   0.5779804042319940    0.7507629999357188    0.2527151138857854 S
   0.5798220218466096    0.7471789523500290    0.5881694938254980 S
   0.5986740426741618    0.7461989679653681    0.9366851973196725 S
   0.9213861797141057    0.2546647741633539    0.2579491467069694 S
   0.9265309190045224    0.2437112737463441    0.5985681524327267 S
   0.9277436128612528    0.2444454861767072    0.9377170066617490 S
   0.9351377779495043    0.7513372460912027    0.2698890441747438 S
   0.2349064136967206    0.1637669395879303    0.0714420719339187 S
   0.4073287159067778    0.7464912177303508    0.7305061263895284 S
   0.4070922846549189    0.7581747711694645    0.4041799167612651 S
   0.4075415754647910    0.7603747970996090    0.0653024989004032 S
   0.3998604670596157    0.2520341606071362    0.7291556806027788 S
   0.0850082118167969   -0.0049795058455334    0.5874216089845025 S
   0.1006739318596917    0.0002338679274894    0.9440655766373836 S
   0.0949287843381451    0.4997429214880277    0.2738554918390120 S
   0.0804491815967895    0.4991093725022547    0.5863828425355022 S
   0.0920158239084844    0.5101091928949004    0.9355982592833518 S
   0.4043434853171866    0.0054052937847283    0.2440073003656588 S
   0.4142532150404432   -0.0017929435689053    0.5837027028025210 S
   0.4268386258709462    0.0022938066014876    0.9352710910147171 S
   0.4112451542657408    0.5054034902885663    0.2574088444200041 S
   0.4390617936049841    0.5037822596278649    0.6109122612250180 S
   0.4217706030014977    0.5127161502126788    0.9314470531353430 S
   0.9089963717575069    0.5013071451003709    0.7308449487461260 S
   0.7642883842825340   -0.0046822282568556    0.2695168498217460 S
   0.7632752642519298   -0.0025861455778182    0.9375013681105664 S
   0.7492559963730192    0.5034525841347075    0.2542631490702615 S
   0.7694022016754491    0.4983709772000759    0.9431318367236463 S
   0.0655448673762941    0.2487593333950649    0.0617393171075535 S
   0.0787752216921767    0.2572114419259640    0.4081636185551972 S
   0.0996411269938152    0.2573416645433202    0.7592351839130638 S
   0.0712053894978094    0.7511462841729809    0.0605373052639793 S
   0.0684116688897991    0.7511866237409102    0.3885734612096149 S
   0.0860087976439821    0.7579579293980010    0.7424549263973224 S
   0.4221380513313669    0.2488619557123747    0.0795716378439373 S
   0.4149066389957947    0.2516771099099235    0.4120806503635576 S
   0.7451956359174059   -0.0042759387220091    0.5854052708366246 S
   0.9199474979064259    0.8233841090839942    0.7409359029115989 S
   0.7492200211118671    0.5803674611576436    0.7306245719806131 S
   0.9126153427980356    0.8383244439720751    0.0602681213368441 S
   0.4208281856282126    0.5867712253617864    0.0685837631087076 S
   0.4078477137293939    0.5880189585156037    0.3950840523285841 S
   0.4104329151855073    0.5898472928210066    0.7302481933546465 S
   0.7477988420221544    0.0873945838177624    0.0575380276699446 S
   0.7504897711626052    0.0764502252033430    0.4063346062865189 S
   0.7460109196020994    0.0797168077459469    0.7429797849627274 S
   0.7451976702450339    0.5885898798538427    0.0609100361311396 S
   0.7482211997378747    0.5825095210037552    0.4142806425217180 S
   0.9257303236811110    0.7513589321303373    0.5999407198447088 S
   0.0742506580240735    0.4180069873094001    0.0770738276651307 S
   0.0836132913960192    0.4101154385022149    0.3961061865521252 S
   0.0914449343995871    0.4233906826296708    0.7429684833637239 S
   0.0712710979144862    0.9111309792908183    0.0676643340655258 S
   0.0806004755974625    0.9102338919521930    0.3935743785836986 S
   0.0724803379212069    0.9154611296978814    0.7391023456779838 S
   0.4111801957147257    0.4225708884173125    0.0803820658570052 S
   0.4098838440000352    0.4231629663012538    0.4149466585042447 S
   0.4261495691822115    0.4282284685885201    0.7431442128389139 S
   0.4081477313578812    0.9108774423329552    0.0646947265557743 S
   0.4156400266396554    0.9117315629180415    0.3901506990000868 S
   0.4100857653462037    0.9174997507186252    0.7443337090124915 S
   0.7462841139653977    0.4097135148195593    0.0604159096198860 S
   0.7417964131480332    0.4183010109233605    0.4094558113505358 S
   0.4047924510084261    0.0875308261612118    0.7391135041915736 S
   0.7581440896277308    0.4219186677316408    0.7393488222406146 S
   0.4142885014449350    0.0782946680627153    0.4134692096324029 S
   0.0794390385644256    0.5862894568330662    0.7485385334252396 S
   0.2415896076902176    0.0807313850807994    0.2608268836858505 S
   0.2588525521005320    0.0835349032391663    0.5932442343291524 S
   0.2475232855524965    0.0792912193910947    0.9169696182817363 S
   0.2381970144331942    0.5819036896733151    0.2585623896108590 S
   0.2651540032127518    0.5900802364585565    0.5993887815791535 S
   0.2450400290264366    0.5891098443573146    0.9333065170041535 S
   0.5880015858159608    0.0806491349420722    0.2509640418591398 S
   0.5833507309120161    0.0800139264906923    0.5850098768320012 S
   0.5866181157221626    0.0801069018017971    0.9377744269650681 S
   0.5795222087498254    0.5821430005547439    0.2584052426818331 S
   0.5852851492902604    0.5897042829203538    0.6094709542704148 S
   0.5876279927176684    0.5915616520983850    0.9411625581306956 S
   0.9137774587624291    0.0775917341067335    0.2652574930655046 S
   0.9097002324725122    0.0645568771436862    0.5733504612119443 S
   0.9206645402512725    0.0860889176723423    0.9386040075854187 S
   0.9316621196918277    0.5897650074572961    0.2624746246297640 S
   0.9131383314126187    0.5815971152375055    0.5978605107207480 S
   0.9204336763876373    0.5929230763269807    0.9431394371355041 S
   0.0755257021900521    0.0870908527253560    0.0629710174110634 S
   0.0861024323799970    0.0778266342478840    0.4096132783091346 S
   0.0675307519765032    0.0892570733554526    0.7360689898343135 S
   0.0758141761043739    0.5870645822653268    0.0612669999258359 S
   0.0827369451339063    0.5938149108156686    0.3952978710797472 S
   0.4184197833372651    0.0777325280560674    0.0702700166083557 S
   0.7545028264668645    0.9129227067306013    0.0633926240228913 S
   0.7591023984148189    0.9172744736077755    0.4058070712357317 S
   0.7438472292499536    0.9150290748338156    0.7443866429383912 S
   0.4120778168704143    0.8313889519969793    0.5971506395101429 S
   0.4204078921123794    0.8400998252900456    0.9379929351755688 S
   0.7497830860335677    0.3261689221709751    0.2564895799930252 S
   0.7640221424808974    0.3405469657721525    0.5972934918407359 S
   0.7550776099808505    0.3383397499113207    0.9402048622057323 S
   0.7645885071869631    0.8391431404004790    0.2638439360461964 S
   0.7519154704939098    0.8258844582074577    0.5839874991551134 S
   0.7654678642297403    0.8372998651647076    0.9321408642888602 S
   0.2405830832170280    0.3304448115370168    0.0787449276036058 S
   0.2381167110197476    0.3373694111920539    0.4044761646817890 S
   0.2564790465468891    0.3373812192574508    0.7345798703438121 S
   0.2481944556765469    0.8355535866674342    0.0613835302861683 S
   0.2470371157896716    0.8423895771653594    0.3900963655394794 S
   0.2558731644911896    0.8322572514378737    0.7384453436962409 S
   0.5904220178672205    0.3295513979588884    0.0695410418530605 S
   0.5811391577190612    0.3320698103771806    0.4108828046237767 S
   0.5685968330962075    0.3404257119442137    0.7394308841507402 S
   0.5797341180414658    0.8366537782433366    0.0759370623288716 S
   0.5870966661959953    0.8221728115948470    0.4219131702421558 S
   0.5798390365729039    0.8268624712411771    0.7514249358413682 S
   0.9062410678622522    0.3359629334811898    0.0633996265427968 S
   0.9218146099684932    0.3297793013712929    0.4074928150393469 S
   0.9088693787769044    0.3413113280900092    0.7412676759481907 S
   0.4214330070244061    0.8411380160304343    0.2737150644994204 S
   0.4246402916348417    0.3264898926936186    0.9217161554652155 S
   0.4194747209757348    0.3460802982161839    0.6065308757376831 S
   0.4159628992898677    0.3339879494507905    0.2526789591955683 S
   0.2405020577882031    0.4206230260552191    0.2612161524248552 S
   0.2560525846641026    0.4105541529108889    0.6089845511579949 S
   0.2538979310962313    0.4237002827825423    0.9191507047334311 S
   0.2530647725432659    0.9124584907162662    0.2694852480726061 S
   0.2572495223481938    0.9130574837654100    0.5919446440108976 S
   0.2617910927386988    0.9116842286602875    0.9308585733492980 S
   0.5897047175296467    0.4177616794056833    0.2562859216164073 S
   0.5762917778864125    0.4211658486498691    0.5990752854505967 S
   0.5982356659681194    0.4118194939064397    0.9354806309767481 S
   0.5787866919414739    0.9173925268242177    0.2620123058703869 S
   0.5827412073668308    0.9151031559540713    0.5877254367032793 S
   0.9178559227189710    0.8371902971214940    0.3942799168321386 S
   0.5855639970686188    0.9162957973712889    0.9234068098351943 S
   0.9146345464894252    0.4178071475806772    0.5962793377687248 S
   0.9161862969135900    0.4065016567798945    0.9405495800456609 S
   0.9228544182108257    0.9066072805440716    0.2759680659945699 S
   0.9297869551759397    0.9026548180427341    0.5957754274918046 S
   0.9213322942361585    0.9094968293063486    0.9396225183313923 S
   0.0875595385332074    0.3348076647723530    0.2691903450508999 S
   0.0968497054167076    0.3376778071128294    0.5949606785871824 S
   0.0771936477481513    0.3331935767604751    0.9235319710775600 S
   0.0891307870748347    0.8403835551995539    0.2731033880000500 S
   0.0809046199529792    0.8279185773970547    0.5978342940454207 S
   0.0873894599195654    0.8442792499437831    0.9418943660553422 S
   0.9260165682677948    0.4194989867275014    0.2564710082323446 S
   0.9353569193575590    0.7511026785448912    0.9415640350982145 S
