Yb10 Sm11 Gd11 Dy11 Y10 Er11 Ta64 O256
1.0
  15.1582067580632849   -0.0053720930871676   -0.0038634919060168
  -0.0056795109229309   15.4608490956364211    0.0005025665476094
  -0.0055241534287317    0.0007069529268758   21.9211494720441884
Dy Er Gd O Sm Ta Y Yb
11 11 11 256 11 64 10 10
direct
   0.1059468787538412    0.0758249519600479    0.9839529416571022 Dy
   0.6029802992347744    0.5796478189984767    0.9839619061834488 Dy
   0.1444572040403832    0.3277391830073102    0.4835666205642765 Dy
   0.3956886754633009    0.8259625948019956    0.2654616241483922 Dy
   0.8963281968121477    0.4220307031074348    0.0161330088307903 Dy
   0.3942903389627464    0.4245896326237799    0.5158227492357720 Dy
   0.1479867779557350    0.4217826809133196    0.2322800141846506 Dy
   0.8546390309626346    0.0777287595289183    0.7664398799746849 Dy
   0.6420780127071701    0.9229037350686783    0.2337487172912018 Dy
   0.1042223696598243    0.1722466384617458    0.7350508921509614 Dy
   0.1040680489386568    0.5757036038606987    0.4844609669051970 Dy
   0.3556172394879729    0.0788418414908825    0.2652554602159077 Er
   0.3536172411715932    0.5765636989437898    0.7668634282862143 Er
   0.3521367648332465    0.1751757060638461    0.0172776774775185 Er
   0.6012194484326616    0.1748282992676129    0.2337195428296342 Er
   0.6029506157997543    0.1717211221136910    0.7337731049297543 Er
   0.8563611203926730    0.1704360079411865    0.5147299196047492 Er
   0.8578365951903233    0.1713484053970292    0.0158062008607856 Er
   0.8950662045968943    0.4235912763964965    0.5163562152137789 Er
   0.3550999571154228    0.6723942874032171    0.0144658042197109 Er
   0.1027193838610424    0.6750901051921369    0.7347960402850773 Er
   0.6415278580770222    0.4193076273807388    0.2345830064109103 Er
   0.8551393145232685    0.0788613838835443    0.2654308410217228 Gd
   0.1415815346101956    0.8255030354220846    0.4860246486891693 Gd
   0.8956304194274763    0.9251960531261225    0.0140287238184529 Gd
   0.6046951081525670    0.0772334213836706    0.9842705885213916 Gd
   0.3945075539544066    0.9221388148105506    0.5159112215299542 Gd
   0.1483981555403590    0.9233718858442314    0.2325354173643410 Gd
   0.6431328853882522    0.9225841573615639    0.7358553082926215 Gd
   0.8945005070504525    0.3293576472956669    0.2648155585153941 Gd
   0.8552297104683155    0.6696850120267152    0.0145836917464568 Gd
   0.3929667921124489    0.8291516162563135    0.7651479369664898 Gd
   0.1440265871863003    0.4225347266983453    0.7354674034635701 Gd
   0.2327426021343274    0.3184113716227133    0.3954110029310570 O
   0.9858304053113213    0.9312651633819575    0.6067235976238332 O
   0.9863538217383532    0.9315645528228871    0.1027949983095372 O
   0.9809991621287373    0.4305093609596374    0.6046340600226566 O
   0.9832962768669681    0.4305246893637490    0.1023796730948627 O
   0.4859544863032538    0.9311567298861867    0.6046420454616478 O
   0.4860684448747155    0.9315163119136950    0.1046452777812239 O
   0.8099049608481064    0.2174186416507321    0.8003234733273918 O
   0.5135050698086776    0.6805108863546795    0.6456531552307025 O
   0.5171947228732504    0.6811802820509042    0.1458900288695307 O
   0.5149058238112904    0.1816611779584389    0.6464661487379045 O
   0.5161893588802886    0.1810210883416218    0.1483765373358160 O
   0.0180524810269767    0.6798286129632379    0.6448005300269447 O
   0.0141851723813467    0.6809585768460477    0.1432877265806881 O
   0.0167331428994469    0.1819314170947490    0.6459067710870072 O
   0.0144854893160553    0.1809947183049905    0.1456576528188242 O
   0.6927790072196870    0.7849997718578047    0.7033621927298485 O
   0.4869880182818024    0.4306655792901730    0.1031340066227628 O
   0.4813346226985741    0.4310517225748549    0.6044129041438925 O
   0.2317527322474288    0.8183383726093028    0.3975151062482162 O
   0.6951118780725331    0.7878675117458053    0.2013041921216230 O
   0.9846337955645105    0.3187892602251378    0.8552009381114123 O
   0.9834225144678800    0.3181346597357130    0.3562155837981459 O
   0.4846670716996586    0.8188258787247763    0.8535056582985462 O
   0.4801564787003043    0.8181015399332583    0.3539427641405377 O
   0.4833202016022749    0.3191566105704745    0.8528663105593085 O
   0.4828547043661213    0.3175198773370025    0.3553164324859329 O
   0.7672195063776859    0.5680176717288242    0.8537470331904143 O
   0.7644054490888662    0.5687423724737392    0.3542188566898381 O
   0.7679504699824662    0.0701970651718322    0.8555079051243024 O
   0.7644221026358333    0.0694772530782381    0.3546939219491848 O
   0.2684475899228826    0.5685930585686110    0.8534893069540020 O
   0.2637257065013044    0.5690285101107627    0.3560188029345229 O
   0.2690703056083437    0.0695803332761034    0.8539300029754361 O
   0.2675038929958553    0.0669268052749127    0.3531510205065733 O
   0.7339134646267678    0.8191700541004926    0.8949410326986129 O
   0.7365090256125469    0.8186612984391967    0.3939170607206036 O
   0.7341528729943141    0.3190883656261396    0.8976011832622874 O
   0.7355416238832683    0.3194147579864770    0.3942660806322513 O
   0.2339936675488131    0.8184281199244179    0.8942030605794945 O
   0.2345281206552654    0.3187151441235690    0.8952403386479963 O
   0.6910488075065611    0.2788788260649507    0.7012027253336695 O
   0.1916973588229343    0.2819422026871037    0.7009526583041217 O
   0.1946323308926151    0.7782991932723501    0.7025218140558634 O
   0.0545693935634260    0.7139936024754843    0.4534867097641385 O
   0.0608288319081169    0.2144323359093433    0.9517217528059904 O
   0.0582666667970468    0.2174767576908970    0.4528810084601654 O
   0.6947607721288549    0.9673122872012017    0.9521687389196613 O
   0.3082951726102778    0.2130770715862072    0.2979170297170993 O
   0.9445273674336983    0.9713310741528479    0.7977406973203637 O
   0.9436036918572608    0.9669030981789518    0.2980798186257102 O
   0.9421039039772510    0.4664276358484607    0.7987511273156048 O
   0.6922515326161048    0.9659696544813763    0.4506542937220657 O
   0.9394407936317567    0.4664369785784718    0.3008541145508189 O
   0.4399660982917691    0.9665733802827698    0.2972770269405176 O
   0.4426523940844408    0.4689340411805102    0.7977933657786364 O
   0.4437736662010380    0.4660330168364966    0.2975695486979474 O
   0.3108530709414766    0.2177601744303609    0.7994759507427373 O
   0.3051499776111264    0.7180949937642918    0.2995193231556851 O
   0.8084169958846747    0.7147937734356226    0.7977685438443743 O
   0.3082644728975370    0.7153625869284068    0.7976829928196105 O
   0.8009001123470003    0.7175150164281414    0.2963207298276348 O
   0.4452448745639035    0.9689595796835551    0.7969840970644667 O
   0.6943090039685452    0.2815679858338550    0.2039089012332834 O
   0.0597872215630448    0.7168485547661139    0.9506959053489230 O
   0.5559878863177121    0.2162083886533626    0.4508863541919024 O
   0.1943152146115185    0.7829331579148403    0.1989897894131368 O
   0.8099769364757676    0.2175914383014688    0.3001020528260861 O
   0.1934423261372302    0.2864657355676836    0.2018960125465613 O
   0.8075225651731791    0.5305970821357708    0.5497942910913588 O
   0.8081930124128841    0.5311239120261400    0.0487108219257752 O
   0.8062344868373595    0.0368311361661920    0.5477822220260448 O
   0.8074853842542982    0.0359919386444999    0.0474522615050163 O
   0.3061730150390563    0.5327843987431713    0.5492687198925008 O
   0.6931698198213109    0.4705396568595221    0.9529314806317636 O
   0.3085411248386934    0.5358645157055628    0.0453822260473319 O
   0.3105786910065166    0.0368967122299659    0.0491740423216186 O
   0.1913598143892243    0.9685833114065254    0.4517042262144031 O
   0.1950336484543413    0.9671107937434125    0.9518995003945085 O
   0.9844170251869506    0.8187865263399101    0.3562257812214489 O
   0.5583499530053063    0.7180989942151458    0.9512982818360446 O
   0.6924110110973455    0.4660258518902892    0.4498133908145307 O
   0.5522959170086760    0.7151937133376711    0.4523259490147921 O
   0.5602885123064733    0.2166753681844991    0.9489033893184393 O
   0.3061324935417387    0.0340432111982776    0.5478965355573038 O
   0.9858312608677505    0.8189621899403653    0.8539261612851012 O
   0.7640926417022041    0.6801391550886310    0.6066943587392597 O
   0.0174394778802026    0.0686365255024468    0.8959723802016945 O
   0.7236143489004279    0.5754061980799586    0.7135569131827326 O
   0.7229005756409146    0.5834909585920302    0.2100873656731697 O
   0.7235493853906926    0.0866227821374453    0.7119170662391643 O
   0.7229291970701839    0.0887405440018268    0.2103066513823306 O
   0.2214203783441306    0.5839638778905992    0.7129492455566908 O
   0.2223025908409374    0.5787958920290217    0.2100636012509399 O
   0.2250076429446883    0.0881271765398269    0.7109025103441463 O
   0.2260299687343545    0.0733285432906216    0.2135163894376388 O
   0.2801449256805448    0.3220141195672137    0.0378275268649072 O
   0.5256258211352864    0.8328677048106992    0.7120103987794941 O
   0.5243549873073758    0.3286745227095505    0.7132113627338671 O
   0.5313695011626954    0.3285270723929768    0.2133782107484927 O
   0.0300228308682107    0.8229982347086869    0.7135839137503762 O
   0.0281113683496642    0.8292909163459063    0.2102496443040308 O
   0.0268074622046978    0.3296666328803727    0.7125665671936577 O
   0.0272032933672824    0.3359960120820914    0.2103992278016393 O
   0.9731858786920160    0.5771366116761391    0.5372379374464976 O
   0.9731008716371512    0.5783397154687800    0.0357045660614638 O
   0.5278507361575127    0.8303882812637976    0.2128763014151968 O
   0.9725818354655844    0.0808045937286420    0.5380304508659254 O
   0.2752651981839551    0.3349094544617091    0.5375994489281415 O
   0.2769305263558344    0.8281598762905030    0.5373956279712330 O
   0.9731597788234597    0.1692818452157221    0.7880896752839169 O
   0.9733800056545632    0.1680309670081392    0.2891390515183510 O
   0.4695313972050488    0.6651345361261373    0.7892875625969885 O
   0.4704537540659912    0.6712512273050738    0.2873602064684322 O
   0.4745824597677569    0.1664024202270016    0.7873032089681866 O
   0.4743770504951322    0.1640994320857517    0.2874956479012337 O
   0.5294928836712338    0.9211727451342763    0.9621561129957857 O
   0.5243669818946478    0.9157408762564845    0.4605543650516224 O
   0.2766220578791874    0.8265401586011160    0.0353220441565108 O
   0.5270829624051331    0.4230713512085634    0.9625135152531351 O
   0.0294101397195415    0.9207128619052244    0.9619821016580613 O
   0.0268296754874700    0.9186707503501755    0.4621241383923710 O
   0.0269669660475981    0.4216713763524673    0.9624693879867512 O
   0.0254996108332970    0.4178425731905375    0.4639741155256854 O
   0.7780202218389703    0.8277520429308934    0.5386832404212981 O
   0.7753693738627282    0.8339254319172705    0.0364015481521204 O
   0.7780696236571176    0.3362584027923222    0.5398938436493325 O
   0.7767558893129970    0.3361226591800860    0.0401196063918581 O
   0.5252537142331262    0.4222909719000441    0.4633164357012042 O
   0.0185498743672039    0.0681344797669319    0.3970030056684958 O
   0.9730180548186582    0.0816679463893799    0.0364598362347457 O
   0.4739415605118492    0.5872324537169684    0.0381693441946912 O
   0.2343487910596656    0.9318675254479052    0.6457610575789952 O
   0.2349092600719813    0.9299337750718611    0.1417863514141363 O
   0.2324787040284674    0.4316281592500494    0.6461160394431561 O
   0.2346803674081325    0.4316947418721725    0.1429633695100401 O
   0.1937776648125873    0.4703619953291268    0.9516589529971288 O
   0.7647983045574787    0.6821497605050645    0.1038314604444052 O
   0.7701179052290588    0.1827116106196855    0.6019941643804518 O
   0.7699778326738917    0.1826124715868592    0.1025771538407416 O
   0.7298686732844711    0.4312219397747817    0.1480037181048433 O
   0.2668991322845727    0.6810700448406773    0.6048704578818357 O
   0.2677196958108590    0.1824111061836259    0.6025925875413608 O
   0.2686783227288739    0.1803855803306833    0.1070704225011799 O
   0.5157254814625590    0.5695759209882693    0.8961929778802222 O
   0.5112187439940841    0.5681253789044131    0.3939978973254002 O
   0.5154265865913005    0.0693655739984954    0.8947051055301970 O
   0.5162410766114311    0.0675254620284957    0.3946735318098741 O
   0.0176728784679035    0.5692986388373956    0.8952744130680235 O
   0.0168269260004930    0.5683646564198687    0.3965980651666983 O
   0.2699781187367196    0.6809638753351286    0.1031466253867978 O
   0.4689803713120244    0.5803615404820065    0.5392923890133430 O
   0.7353245238742137    0.4298669763005568    0.6467986068945141 O
   0.7350517406624879    0.9329411001185510    0.6450560540812799 O
   0.4708901878195014    0.0809811643535010    0.5387649655979808 O
   0.4729187949648342    0.0878286280065166    0.0398582598496168 O
   0.7230293084100966    0.6674578761321115    0.9612581861977625 O
   0.7204337441300713    0.6715951822664949    0.4623369292448821 O
   0.7257957695845629    0.1684887153825154    0.9634409281741770 O
   0.7257578885087839    0.1747188124981550    0.4634127989615756 O
   0.2242331672078013    0.6678567838691073    0.9616014989902164 O
   0.2209039765880904    0.6675325234626229    0.4639036800146394 O
   0.7321924836074970    0.9333250812536646    0.1452817173505131 O
   0.2255340994723315    0.1634622068485299    0.9614376047679175 O
   0.7773054236447356    0.9254570566274312    0.7873351991991100 O
   0.7747401430436670    0.9237734697099520    0.2853840920047618 O
   0.7777925133653769    0.4149040774511345    0.7902939245746301 O
   0.7734600622973218    0.4171542910989556    0.2868220595231080 O
   0.2795478706578165    0.9229479410168503    0.7868052201442118 O
   0.2773756465538036    0.9131272074537706    0.2892156012993485 O
   0.2773419085614922    0.4211524433231925    0.7867782198445592 O
   0.2760284233408362    0.4227704362671168    0.2878852955753968 O
   0.2241247682382682    0.1689449048494510    0.4626895123061814 O
   0.1896361460325325    0.4664312448285865    0.4509909316546991 O
   0.8709336081766107    0.8098546358516929    0.6606275564818614 O
   0.9423333700376375    0.7832244637615404    0.0459629955889171 O
   0.8691338422636442    0.4409461937037888    0.4142309614961330 O
   0.8700203287354487    0.4405399952922140    0.9126104838120295 O
   0.8697309659875652    0.9419470057757875    0.4097564204257012 O
   0.8707302620535571    0.9389570285344987    0.9096945726243534 O
   0.1306444003522205    0.1884829298213567    0.3405105652188237 O
   0.1319915886160514    0.1898962014847095    0.8375322739025663 O
   0.1288322916262479    0.6905284795249095    0.3403473115730742 O
   0.3708068080518789    0.9382619658214123    0.9087740527944936 O
   0.1316617198607125    0.6897877114274906    0.8365524146041066 O
   0.6320922822247683    0.1907224644121884    0.8362661436025726 O
   0.6269390752976242    0.6907975500690798    0.3412468836145436 O
   0.6297440567420287    0.6894867126129554    0.8392899606558131 O
   0.1180855775102988    0.4392713251936870    0.3372267048484757 O
   0.1199643613279555    0.4399003418961950    0.8395947785229154 O
   0.1200912002502857    0.9400554922306752    0.3382530239709038 O
   0.1217523341947670    0.9407146229760948    0.8395209812095022 O
   0.6309695176493709    0.1909142606676084    0.3374627732071718 O
   0.3686990783449280    0.9398809972053204    0.4111496872268850 O
   0.3703029999800793    0.4387503952774310    0.9097663578636093 O
   0.3679677976492555    0.4395033224351010    0.4119561152112036 O
   0.9464583271205946    0.7831280311257128    0.5488568638614445 O
   0.3820730284022270    0.0584875375623508    0.1640814126953744 O
   0.3806461637305285    0.0586336185721040    0.6611332271559361 O
   0.3812659391387360    0.5581057130051444    0.1589835045557330 O
   0.3779603055747435    0.5581378045251740    0.6642678010750104 O
   0.8804966296197444    0.0573758178115949    0.1605585904646252 O
   0.8809644014227428    0.0603084306996679    0.6625880291005420 O
   0.8798582682022240    0.5592977074810374    0.1593526974908333 O
   0.8808998746825860    0.5612293308362338    0.6618948193842584 O
   0.1199362011079915    0.3096460149311013    0.0896267914912422 O
   0.1179288600608679    0.3103708475868605    0.5876179119504231 O
   0.1203615888588104    0.8079928507967019    0.0862865691696902 O
   0.1205205595001774    0.8108859841693000    0.5911650218316314 O
   0.6203144764290188    0.3068666221778036    0.0919083434348356 O
   0.6188191888150073    0.3101831381151638    0.5905368861265755 O
   0.6196515303071312    0.8094414049886608    0.0872474366619532 O
   0.6202556399211940    0.8089892192433146    0.5904675009958549 O
   0.6187212313112930    0.4395478672155201    0.3376312655141847 O
   0.6192476234980261    0.4400360391582170    0.8417034916225790 O
   0.9755194747416549    0.6645648050356386    0.7877408360068889 O
   0.6196041079670319    0.9400533445985263    0.8403787678526091 O
   0.8698725209724882    0.3085748607639907    0.6639405219593446 O
   0.8699375567749913    0.8119491750051219    0.1576789946256472 O
   0.9712158364685044    0.6722165946957037    0.2884981843042753 O
   0.0572774162923266    0.0307924670871384    0.2007073822157165 O
   0.0597809731367625    0.0359800383364282    0.7022019424442658 O
   0.0564791889163902    0.5307201855669021    0.2003683309504260 O
   0.0578100712197618    0.5338257707689669    0.7018169418423614 O
   0.5606864002435554    0.0347184829482311    0.2018703276582836 O
   0.5584163501975693    0.0357832729535604    0.7022929233309843 O
   0.5592648202471013    0.5304734875879550    0.2007194305228554 O
   0.5545602796540289    0.5311217131817689    0.7024729329036850 O
   0.4469557184200639    0.2776810828792745    0.0479031219381907 O
   0.4406816017746275    0.2835047965026339    0.5483642238550950 O
   0.4410359955144190    0.7793744917755128    0.0490789665379886 O
   0.4435270906457547    0.7825079807910561    0.5482711274285823 O
   0.9389551981943625    0.2818947663321257    0.5489914913190014 O
   0.6181157520778950    0.9373495286491690    0.3374529165440937 O
   0.8693677211578287    0.3115508794488306    0.1612315928508409 O
   0.3697149062771743    0.8109437640700725    0.6602275686886306 O
   0.9408466647907157    0.2817609846366408    0.0477451257932296 O
   0.3681719836391236    0.3108032220137597    0.6618050035149584 O
   0.3817070299520450    0.1916779703497990    0.9136759551166297 O
   0.3706957506809413    0.8107626591697249    0.1618282680676014 O
   0.3800389107980416    0.1881713355048279    0.4116299550076276 O
   0.3770632813364264    0.6907841680282558    0.4131632720458305 O
   0.3808522053189982    0.6913618031473977    0.9122964567914014 O
   0.8823028197274936    0.1866980087616432    0.4127974212588919 O
   0.8818711925856217    0.1908549505202033    0.9138884829770545 O
   0.8814518106743077    0.6903520754150920    0.9104360414417473 O
   0.8784089411296204    0.6890777380568449    0.4095562770506560 O
   0.1305559525333406    0.0612655016635184    0.5885009992994157 O
   0.1304920330194942    0.5615016416102097    0.0869213502667527 O
   0.1297493129723078    0.5588750850002512    0.5881835941757214 O
   0.6305759058962911    0.0618801071753953    0.0886874208134743 O
   0.6301763630754108    0.0629430094816335    0.5904684428508100 O
   0.6310806292682667    0.5596804634998545    0.0866677203946485 O
   0.6288147712474438    0.5578065528074885    0.5907265536058068 O
   0.3715095555322311    0.3120429712405150    0.1596559949628192 O
   0.1312421723767955    0.0611430059163168    0.0878583332314044 O
   0.3544439007249757    0.5747047339424017    0.2639878248937301 Sm
   0.8938043643411219    0.9229344965127042    0.5162028367621428 Sm
   0.1051135222143383    0.6728017213696553    0.2334399395346738 Sm
   0.6441114896010838    0.8258087815330261    0.4846119820596265 Sm
   0.6073359453758430    0.6744811878183550    0.2344107634121697 Sm
   0.6447841450127406    0.3262304452682352    0.4844851403135719 Sm
   0.6023999962175209    0.5749636792425949    0.4845196449965727 Sm
   0.8917137452874356    0.8265635418324603    0.2637766416160627 Sm
   0.6435787002676436    0.4221692414163459    0.7367758841834718 Sm
   0.8553771884566828    0.6739666631814349    0.5160554474681825 Sm
   0.6409434991973738    0.3301237449709885    0.9877448028214424 Sm
   0.5017023576101717    0.8036150160186704    0.1222698173807047 Ta
   0.5033240944504381    0.8022066468730237    0.6250193299028943 Ta
   0.2524144380241663    0.4449253853652752    0.3751806214355516 Ta
   0.7536791244210581    0.9468841036050302    0.8750870339188563 Ta
   0.2537338538036407    0.9471055366351928    0.8746269041336286 Ta
   0.2519522165194873    0.9461378470568966    0.3762948115110273 Ta
   0.7550928729650958    0.4466286927349194    0.3745103860174247 Ta
   0.7529389582628345    0.4471967774496121    0.8778134976679159 Ta
   0.7513388885610957    0.9467475963761505    0.3759502428541611 Ta
   0.2527373576188349    0.4455644545198120    0.8779020437156412 Ta
   0.5013526618179188    0.3037885484983700    0.6243187906838223 Ta
   0.0040340547351510    0.8041966330015484    0.1213095259187499 Ta
   0.0029796120781553    0.8043266701021220    0.6277832913491646 Ta
   0.0016362353254911    0.3032347607485054    0.6237378554838590 Ta
   0.0046635700574504    0.3026651479337559    0.1234838470048343 Ta
   0.9969066072578173    0.5535489939044452    0.6263620833494401 Ta
   0.9953710954001873    0.5521165704107718    0.1255073249797004 Ta
   0.9980947592740780    0.0536713806390301    0.6281478251119852 Ta
   0.9988704647211897    0.0552677237191324    0.1266258304170555 Ta
   0.4947242272141851    0.5540367371698249    0.6288115481519857 Ta
   0.4983345231222844    0.5522992208172582    0.1241037101039703 Ta
   0.4976086534261192    0.0538206763028151    0.6250136551986832 Ta
   0.4965385079428943    0.0535909735991863    0.1258454740181817 Ta
   0.4996750794393177    0.3036247864510392    0.1252284952060833 Ta
   0.2476263113766775    0.1957224952396613    0.3723452831058497 Ta
   0.0035902279323395    0.9469287617159863    0.3736870631703189 Ta
   0.2459047372152722    0.6961471208086518    0.3752393970657755 Ta
   0.2487044602616768    0.0543583233992155    0.1235457541126059 Ta
   0.2466969627945827    0.0530951837317622    0.6249535211068339 Ta
   0.2483627203997291    0.5531842835080042    0.1199904470057380 Ta
   0.2456924066912809    0.5545048884253834    0.6251624263882338 Ta
   0.7471192715137778    0.0550333811637299    0.1237511668213673 Ta
   0.2470371695530801    0.1970458420339879    0.8750677692431106 Ta
   0.7459246307503545    0.0558029826240391    0.6239892356719325 Ta
   0.9976464224704747    0.6975562621196043    0.8748814869639174 Ta
   0.7464798090161214    0.5518621212851657    0.1249293116432116 Ta
   0.2521573595488916    0.3033128976023940    0.6254143937696389 Ta
   0.2560405053273201    0.8038676052958483    0.1230377054222796 Ta
   0.2508753730421885    0.8043765483334155    0.6277577231514914 Ta
   0.7521421800038739    0.3029741858296948    0.1270831800937494 Ta
   0.7542016134466526    0.3031719506790388    0.6270410923690986 Ta
   0.7522694833686564    0.8045373758510773    0.1239183508987247 Ta
   0.7530354007332363    0.8034134921173007    0.6293108459068026 Ta
   0.2539072526863435    0.3041311193465999    0.1254476224310523 Ta
   0.9958355108544031    0.6954900378748861    0.3754775701315973 Ta
   0.7456567803421104    0.5531687382587519    0.6259300704928178 Ta
   0.9980935433155234    0.1955508707894544    0.3751906207722944 Ta
   0.2478749678735348    0.6955614339863735    0.8734285583346574 Ta
   0.7464271508599287    0.1962781380765328    0.3747829185325384 Ta
   0.7463403612038287    0.1973217268545659    0.8748814266214863 Ta
   0.7462630328219932    0.6946772746381689    0.3724508354075211 Ta
   0.7465099552810806    0.6970248718416420    0.8718517813822662 Ta
   0.9983393844069004    0.1959735743037699    0.8783539973176369 Ta
   0.0035557423440344    0.4464962473320841    0.8757641293094480 Ta
   0.0046655844469946    0.9459585331658114    0.8714208994138953 Ta
   0.5017496763211104    0.4433838391118759    0.3720785648502538 Ta
   0.0025043943395347    0.4461676037124723    0.3738129448430779 Ta
   0.4953807712696935    0.1965816863696309    0.8752331778582477 Ta
   0.5018619967719895    0.9477804990190988    0.3734993977907798 Ta
   0.5004349043577466    0.4472256626546479    0.8758855434375492 Ta
   0.4933979541660217    0.6960653823380748    0.3761459957347540 Ta
   0.4965022961697393    0.1950476533812949    0.3756811126227197 Ta
   0.4971058036355117    0.6961020730967287    0.8743540246139065 Ta
   0.5008059571913004    0.9462453024498110    0.8752908303664125 Ta
   0.1050152495830484    0.5770329128968671    0.9838236314249917 Y
   0.1059540762234997    0.0802512248066900    0.4852942594758223 Y
   0.1468413458675048    0.8285424980006801    0.9826013064990454 Y
   0.3531226348118838    0.6736342146401124    0.5169508439369744 Y
   0.6435962625772375    0.8292575475563387    0.9830742820143655 Y
   0.3542999949726208    0.0769928424747976    0.7652689123984087 Y
   0.3560784502348213    0.1708813574028129    0.5145902566471856 Y
   0.8556644614302390    0.5781445434618780    0.7662298152906148 Y
   0.8970638909608333    0.3268498731434359    0.7677168004921636 Y
   0.3929339017104542    0.3305392582620610    0.7659248240174868 Y
   0.1432185682284081    0.9205082674456748    0.7357847980517732 Yb
   0.3944132049896223    0.3264556638653021    0.2643319503817168 Yb
   0.1091067268734575    0.1711309280879051    0.2348651149669836 Yb
   0.6058080747601836    0.0793985971964063    0.4844524448351135 Yb
   0.1463744869470469    0.3280511144434158    0.9856769635434598 Yb
   0.3932476635613559    0.9221774980001781    0.0144299099738221 Yb
   0.3928862257782405    0.4193027237084477    0.0151287371828645 Yb
   0.8535907243102198    0.5784965673919845    0.2643071151783932 Yb
   0.8948944515199899    0.8291707727166741    0.7657341488306690 Yb
   0.6048087492416694    0.6703574268861044    0.7353806556284382 Yb
