Hf27 Zr27 Ta27 Ti27 Nb27 Al72 V27 Cr27 W27 C144
1.0
   9.3007590720146318  -16.1169061271888481    0.0029153106461799
   9.3037243729671566   16.1186180325692021    0.0048067013459102
   0.0078041666694720    0.0011040209850891   18.7447589354353923
Al C Cr Hf Nb Ta Ti V W Zr
72 144 27 27 27 27 27 27 27 27
direct
   0.6933431027870456    0.3518600957929005    0.7455042513923784 Al
   0.3474519287410579    0.6746384036825225    0.2516668146956306 Al
   0.3489381939650842    0.5232883842054438    0.2418846070325669 Al
   0.3357745068453900    0.3283354096386756    0.2473501450438436 Al
   0.3652818773341974    0.1942655676110536    0.2446679292189985 Al
   0.3329050143947488   -0.0136604439258969    0.2455598077243007 Al
   0.1728648136337837    0.8269503568627863    0.2430902650213776 Al
   0.3404881416056471    0.8418006256294088    0.2503666533168819 Al
   0.1494347407704751    0.6699886022720836    0.2517467171450110 Al
   0.1199320010935033    0.3094195733157107    0.2442029975410439 Al
   0.1676390548407815    0.1902456672874549    0.2425171157769266 Al
   0.1494364479296587   -0.0196854504202944    0.2492330548097567 Al
  -0.0147021047712444    0.8245385342066915    0.2517223531026301 Al
   0.0093253813828123    0.6808354626059806    0.2552548474234145 Al
  -0.0192604489623959    0.5022302990979405    0.2441808801155880 Al
   0.1808480196871894    0.4948008143097083    0.2400121830546635 Al
   0.4938879724494059   -0.0136952954461703    0.2520282434067766 Al
   0.5052197993478946    0.1772468022688161    0.2447732700961656 Al
   0.5173565711011234    0.3304758843353009    0.2496989033273983 Al
   0.6995738382230857    0.1858525018469851    0.7491731196508042 Al
   0.8371218395257645    0.8497164241190679    0.2540576547341102 Al
   0.8454439375375834    0.6567494118976949    0.2556945657589730 Al
   0.8361277788623808    0.5114543107982485    0.2456380441467909 Al
   0.8446345047623866    0.3285456815033991    0.2436000503250414 Al
   0.7992220815893007    0.1525637081119916    0.2436915066069271 Al
   0.8351199155329297   -0.0029132030112676    0.2601279569549168 Al
   0.6773912003421562    0.8323416348996880    0.2618398161764890 Al
   0.6430496675097640    0.6614246933365060    0.2640784616223527 Al
   0.6729691440963005    0.4982394610686371    0.2558986655449205 Al
   0.6600067245924631    0.3276422468260382    0.2531881432251032 Al
   0.6577212247012386    0.1820202177016113    0.2488212981933285 Al
   0.6687252382992506   -0.0135380610470995    0.2537370905453451 Al
   0.4969528885919262    0.8339958150034524    0.2544063530355429 Al
   0.5039793777137532    0.6867693103274045    0.2586459459638626 Al
   0.0107155743717169    0.3707792903767795    0.2468011910292922 Al
   0.0009922940220521    0.1421757765048458    0.2590039107788639 Al
   0.5017096687102683    0.5094403766073869    0.2482992258982715 Al
   0.8421080397406526    0.8266411943074613    0.7479203911664025 Al
   0.6701927303183829    0.0286685939710467    0.7450049956215047 Al
   0.1784478425079253    0.6827537997545573    0.7428016226527381 Al
   0.1516191405038121    0.8255114050755693    0.7468838554151739 Al
   0.3324207750540407    0.0063471724920515    0.7499504136718242 Al
   0.3303959450755796    0.1615741851316339    0.7503573868941242 Al
   0.3299981020315282    0.3248878266254578    0.7312070969189719 Al
   0.3322449392526328    0.4715166507377085    0.7556737914334669 Al
   0.3144416061005650    0.8462172518849309    0.7449068400539822 Al
   0.4843589049455734   -0.0119372191683095    0.7468228311465323 Al
   0.4779985660044768    0.1605763543488504    0.7494525681941100 Al
   0.4974723933614006    0.3365815852566595    0.7414962847038949 Al
   0.4860843751326587    0.4771789936944472    0.7494043458532720 Al
   0.4862136776356276    0.6766003734751187    0.7404290109552839 Al
   0.5264408135916799    0.8385423637945227    0.7488159357679484 Al
  -0.0065789557841616   -0.0123032852717726    0.2514755099793416 Al
   0.1513581006128758    0.4791193817048969    0.7553776899652381 Al
   0.1586823771953206    0.3245853761403892    0.7476811431786782 Al
   0.3149613238619428    0.6150507693075069    0.7385660444151187 Al
   0.1581467332139908   -0.0036372450970878    0.7527348090834581 Al
   0.8377423682220407    0.6658565619191046    0.7484928290315678 Al
   0.1751259369020333    0.1731872097170999    0.7455612093314625 Al
   0.8446517900207862    0.5140300134154530    0.7482822312739013 Al
   0.8406435290610100    0.3421909234176912    0.7582089586724872 Al
   0.8375495839522527    0.1644108964146271    0.7587736716245661 Al
   0.6515874306596887    0.8025387786573218    0.7433339844565313 Al
   0.6857740689903215    0.6671052822430702    0.7431843832216153 Al
   0.6595884923330205    0.4937794809155192    0.7445863753045208 Al
   0.8656328915382676    0.0211143799917135    0.7534412582484412 Al
   0.0010164552117502   -0.0143238676678353    0.7474683134745215 Al
  -0.0041667126519793    0.1814152708793954    0.7498495298297385 Al
  -0.0109028463962721    0.3315530993752780    0.7576821876221390 Al
  -0.0037882443943531    0.4954510446814301    0.7598728269771589 Al
  -0.0004638393406526    0.6782927085614656    0.7590051134559891 Al
  -0.0006352058686418    0.8319852433628495    0.7508959075362648 Al
   0.5539594871947331    0.9386355447903555    0.4289438466228610 C
   0.8896118474950238    0.1116020874696212    0.4359090281619573 C
   0.7173961347058596    0.2797832407613732    0.4311201363652836 C
   0.7259528042800713    0.4492073942572984    0.4304212343025107 C
   0.7267305937373467    0.6149980181380882    0.4318089247585395 C
   0.7215405073403042    0.7814984832714335    0.4330206623966346 C
   0.7229519802653988    0.9388639869735788    0.4323806279861339 C
   0.7238858665418499    0.1116884785989355    0.4325544390298998 C
   0.8859330772533721    0.2786106326551708    0.4292584392774502 C
   0.1114506480870047    0.3873682727539061    0.9272553566257444 C
   0.8820351713496940    0.6099165669329372    0.4369676349118181 C
   0.8898097502140616    0.7749105917379375    0.4384701559876775 C
   0.8830933006489089    0.9429124948444949    0.4331413410884977 C
   0.1124261866893050    0.0510417643206427    0.9200887871458964 C
   0.1057777782080637    0.2238152134385981    0.9315322039261971 C
   0.1041640812159443    0.5583805628314873    0.9284802125096608 C
   0.5565980705646973    0.7780018666472239    0.4345130256774706 C
   0.1042799026921286    0.7182530868073866    0.9348707614891572 C
   0.8849284829475257    0.4471938583274180    0.4322606105095680 C
   0.5636080430982342    0.6136709546961467    0.4347976377941231 C
   0.0555361385391455    0.7753514245401668    0.4343628042758377 C
   0.5546363507932828    0.2789129436517643    0.4298441236148872 C
   0.9411709066384969    0.7227086622923076    0.5711541035078395 C
   0.1116918532618321    0.8821455574549049    0.9249010302089034 C
   0.0475433537197707    0.1090826992701085    0.4357603002794725 C
   0.0559238622474888    0.2771719188139112    0.4335621322000863 C
   0.0501864612117350    0.4470773744532314    0.4267560021800655 C
   0.0505986672235631    0.6131049409579735    0.4289435151785588 C
   0.0480139657799777    0.9364841635518388    0.4330507676695533 C
   0.2211117332416190    0.1121254894104397    0.4312604303974172 C
   0.2176750588071010    0.2781952601525192    0.4310202690808989 C
   0.5581967165256465    0.4464971206821528    0.4324947027791611 C
   0.2183497616510426    0.4384314013242702    0.4322134673443975 C
   0.2167109913676796    0.7785372577586946    0.4313661189231930 C
   0.2181591806797205    0.9378057733609800    0.4300582417340761 C
   0.3908795048899107    0.1160212619048110    0.4314690658662551 C
   0.3926463838792441    0.2724590254689143    0.4297506640876141 C
   0.3938184766850349    0.4492293542154037    0.4282125555907704 C
   0.3928054083218896    0.6184270378697906    0.4323268497522550 C
   0.3927399176519060    0.7811641451112398    0.4348245749389844 C
   0.3889583539940460    0.9430038927072775    0.4286214571875867 C
   0.5620016663765427    0.1193365825241720    0.4295541625723983 C
   0.2195931348096755    0.6146563145428775    0.4263210011618835 C
   0.2822943279198339    0.0559903902132696    0.9259084644766555 C
   0.9429203880376873    0.8840034626862887    0.5685761269163345 C
   0.3879839936685535    0.9441426216545210    0.0682965920965672 C
   0.7247805786293540    0.4478491025762231    0.0672838809263123 C
   0.7219542690480092    0.2774553606510036    0.0717410943761845 C
   0.7267548136879930    0.1170197232021203    0.0753257325338774 C
   0.5520315518041015    0.9425895255427450    0.0705734835914036 C
   0.5575631566454258    0.7794450380608364    0.0647985645840489 C
   0.5503129361462082    0.6043976438233717    0.0664921854964966 C
   0.5611139821508603    0.4431108201908128    0.0636738368540039 C
   0.5569746903768747    0.2775652493792657    0.0675436570098570 C
   0.6151316595135871    0.0602236420771497    0.5758808486931227 C
   0.5566624801500413    0.1136222507099299    0.0681105462855952 C
   0.2792544572370013    0.2189530273335437    0.9275233350881431 C
   0.3883552672518495    0.7806786226342501    0.0682400775943690 C
   0.6080284841526320    0.2225738669850704    0.5742782242041418 C
   0.3877263988534401    0.6098074831411622    0.0693507470226081 C
   0.3908074357944609    0.4420783770907412    0.0680042683678084 C
   0.3905672938445912    0.2723713795651686    0.0642175454919058 C
   0.3912143251062002    0.1138713503522396    0.0671026513757950 C
   0.6110883600985391    0.3907762605761692    0.5800216396130149 C
   0.6096112181339304    0.5577443782756334    0.5761932392347311 C
   0.6141657870096199    0.7237909172914034    0.5760023116435056 C
   0.2216359437190366    0.9391691314152537    0.0692573813644957 C
   0.4445517781186615    0.8858117580159977    0.5709956567181437 C
   0.2163327829115403    0.7744428228136634    0.0643511944899441 C
   0.7284978109621343    0.6048633941506202    0.0721083096743535 C
   0.7221736170612547    0.9411359484340580    0.0680307053349276 C
   0.4451547886246505    0.0600122822947079    0.5701905527993887 C
   0.2708203408233494    0.8842454227534146    0.5649544781834983 C
   0.2751567615076620    0.7257491735812818    0.5760456439272602 C
   0.2836825099869997    0.5607909474314436    0.5735965906135497 C
   0.4437646962636205    0.5510199960196197    0.5734988792148490 C
   0.2789331637798132    0.3851597585447986    0.5709510979645716 C
   0.2790440240534753    0.2229520183120723    0.5673127990477497 C
   0.2805418105079593    0.0561255392231862    0.5697393336594372 C
   0.1024522855531795    0.8812701473874738    0.5684465611183689 C
   0.1120362186179430    0.7327314795287027    0.5735249778324446 C
   0.1051720433680363    0.5528043923701957    0.5777862371054401 C
   0.1129362402082924    0.3848074225279890    0.5731802329187897 C
   0.1138311556194463    0.2262831463104663    0.5669532017604541 C
   0.1043036683494823    0.0533756539921530    0.5726738276236881 C
   0.4464056428062332    0.7219181448018079    0.5734688221897523 C
   0.8889295983589437    0.9388228928478666    0.0692666864151529 C
   0.8915573036038902    0.7777270033773236    0.0734471703216827 C
   0.8917513108754476    0.6065083186477205    0.0698943264015020 C
   0.8931183658998529    0.4495434505666615    0.0695454161614072 C
   0.8886595842094078    0.2833555049477103    0.0765990281509019 C
   0.8942616486200252    0.1121926291462586    0.0700477924550488 C
   0.7251947745386087    0.7787261916975613    0.0679416151080984 C
   0.4428417888544637    0.2248699135011958    0.5690479002291582 C
   0.2214878970322649    0.6095674805594364    0.0745298097492729 C
   0.2204016539770235    0.2786923617079030    0.0644299569583027 C
   0.9438825499737267    0.0565073284605475    0.5716593729099039 C
   0.7831904685144903    0.0599958121884993    0.9216736221162860 C
   0.6127267458363461    0.8843886043991520    0.9267858221006919 C
   0.9418003509232582    0.2186527914443678    0.5703560169229159 C
   0.6108058541833357    0.7223358559593244    0.9277091839585246 C
   0.9374305954129140    0.3892512637140353    0.5770098927084100 C
   0.6147473399146286    0.5512290516704185    0.9269813894342358 C
   0.6165571114838101    0.3940799957229541    0.9270552098920964 C
   0.6200059107038244    0.2289014081750145    0.9239720223212727 C
   0.6169502402906488    0.0606195980615879    0.9249211903012345 C
   0.4409590115799856    0.8860990271794915    0.9290020528018447 C
   0.4441033402565798    0.7228976203434360    0.9266159301040580 C
   0.4489441515871482    0.5527072639002617    0.9320651813765456 C
   0.4462356134758620    0.3921207801561749    0.9296986331756554 C
   0.4451590656624467    0.2193091471794996    0.9243318655816322 C
   0.4439958224446064    0.0579793623774070    0.9273407533443907 C
   0.2740474961238141    0.8909375142419153    0.9346187869277655 C
   0.9358882103198133    0.5558538492837368    0.5725015087136921 C
   0.2745066063727460    0.7218948925842892    0.9324598284142943 C
   0.2764205763454043    0.5524058642287852    0.9252476304859732 C
   0.2782021499552254    0.3884963821799366    0.9315091785627975 C
   0.2205652913895875    0.4451771848495308    0.0699046940806756 C
   0.7843344490523105    0.3918533301841287    0.9279540026871325 C
   0.7822699036200433    0.2275500421169068    0.9258750862772871 C
   0.7871190710880989    0.7223463182037867    0.9263571924343351 C
   0.2225731636150739    0.1095658261865430    0.0683021885225145 C
   0.0571447509104401    0.9414335144644590    0.0754679053353677 C
   0.0597907515434673    0.7733188201564191    0.0685603775970518 C
   0.0587251905603281    0.6150284937322807    0.0670264177906534 C
   0.0498676420145919    0.4431833285230299    0.0712481303864322 C
   0.6086294161796800    0.8833446552722570    0.5739028185624913 C
   0.0570357904306137    0.2762780787896713    0.0659969493976360 C
   0.0575441487381408    0.1172581835297394    0.0662432750883573 C
   0.7774606274651444    0.0572657355717890    0.5751253310598117 C
   0.7779231096731317    0.2198798929550118    0.5682525026782861 C
   0.7801419871477231    0.5548793006047056    0.9296163141003643 C
   0.9454216648668435    0.8826385742005517    0.9248551682511773 C
   0.7784751192633212    0.3979729250865141    0.5725756172910170 C
   0.9416577538116644    0.5545773295965493    0.9305790439926105 C
   0.7817983252114643    0.5577323865968010    0.5749024306161580 C
   0.7793801900034554    0.7202184864583792    0.5715619460799457 C
   0.7769217477513559    0.8884724230177016    0.5742301633457148 C
   0.9428009345520341    0.3880560934253438    0.9282964922567817 C
   0.9451627150783924    0.2226158000568163    0.9274197297787864 C
   0.9410650520485482    0.0613498109520242    0.9294722578744044 C
   0.7793697896675064    0.8895789133826494    0.9313253354876664 C
   0.9473564433113417    0.7176996458921175    0.9286620901895860 C
   0.4469898474015208    0.3910835686756552    0.5687392730721013 C
   0.6139290972998237    0.7274437216379953    0.3840760896539382 Cr
   0.1074169790081289    0.7240789400548484    0.3782412158856303 Cr
   0.6083093385404438    0.2263732736412802    0.3775272894783142 Cr
   0.2777592814446309    0.5545860912164075    0.1215454425652498 Cr
   0.9384911631551949    0.0529565949792606    0.3848694693392580 Cr
   0.1116022714735689    0.7206097748991455    0.1187996996861702 Cr
   0.7777888681934624    0.2279957988136229    0.1256013468012595 Cr
   0.7821077180414556    0.5512999718062512    0.1208923036663341 Cr
   0.7265733820274978    0.4520256409233270    0.6280980216888693 Cr
   0.7254836954280528    0.1161141434209542    0.6246439320349790 Cr
   0.3932603867352929    0.6112429504446800    0.6213785908232364 Cr
  -0.0055898758198160    0.8316690680951064    0.5029619119800685 Cr
   0.3909263647567175    0.4400217631242772    0.6224203423065736 Cr
   0.1650046101390755    0.3307696694392404    0.5005227341961275 Cr
   0.7761513146369267    0.8877932228475074    0.3819607940457106 Cr
   0.1658192795899631    0.8312828251147129    0.4994240160522760 Cr
   0.2226593417790149    0.2771439606983843    0.6172761780401682 Cr
   0.8926860192937627    0.4474967093651640    0.8761586153797450 Cr
   0.8898469008940855    0.2782803793765871    0.8755397943082703 Cr
   0.8916216593912556    0.1168653014615850    0.8766174639442245 Cr
   0.8331425052578709    0.5046301572545201    0.5082309121641914 Cr
   0.0026175404117198    0.1699318390896973   -0.0003189172730546 Cr
   0.1624831635045024    0.6709640673078445   -0.0004252963815875 Cr
   0.3868660214750984    0.1095174366953836    0.8750474186744542 Cr
   0.0538377008259193    0.7728427503219879    0.8780642585697669 Cr
   0.2206206674832694    0.7834608228122097    0.6220088002632429 Cr
   0.4481339059706707    0.2210196858609661    0.1178856611573467 Cr
   0.1020849721960443    0.0531464121330778    0.3671493981154375 Hf
   0.5565656072811505    0.6071103058393889    0.8577670896962034 Hf
   0.5624565975864495    0.2836070583110589    0.8572514297305832 Hf
   0.3905734080764049    0.6062093036492557    0.8641304095040434 Hf
   0.3904202804697702    0.2789891965221237    0.8610116499017765 Hf
   0.5555997063534535    0.9438165406839589    0.8629981900498750 Hf
   0.5006048581412029    0.0005437240039784    0.5003015122531397 Hf
   0.3345964327510673    0.3340221724849285    0.4968695829195942 Hf
   0.9423356371024344    0.2206006080210985    0.3615068803186171 Hf
   0.0015469421659211    0.8296243088065218   -0.0012099912175785 Hf
   0.1689244214344986   -0.0021746233145624   -0.0018386919686089 Hf
   0.7277242598399872    0.7781077099499540    0.8644561787894768 Hf
   0.7787258022875378    0.7251385411819896    0.3658545574558562 Hf
   0.2216726351555056    0.1119595678707398    0.6326578947091193 Hf
   0.5617661365717990    0.1158913206352862    0.8574971774819778 Hf
   0.4554358483332210    0.5661946314174566    0.3683840249973049 Hf
   0.4504032650982244    0.0612331230369573    0.3628977844920559 Hf
   0.2296280340164807    0.4453063440736088    0.6370551043524318 Hf
   0.6143965165664715    0.5502127748188733    0.1334966202282295 Hf
   0.2800005783053035    0.0557437404655890    0.1374194287596355 Hf
   0.2782264283192769    0.0555003438252436    0.3622358954613267 Hf
   0.7802362196225685    0.3910380465787477    0.1371153994607358 Hf
   0.2766827797653861    0.2194372934654707    0.3652091563198252 Hf
   0.2745863695145935    0.3897898495119715    0.3593121623236611 Hf
   0.6652956401807479    0.3356883371486467    0.5037333326302162 Hf
   0.9451125161238688    0.0530870453563169    0.1334344526380799 Hf
   0.9478180440688609    0.2270386636872102    0.1414268294074897 Hf
   0.5595977632292405    0.1144856709076190    0.6405634489012659 Nb
   0.2161124978514063    0.9370060919007084    0.6329798609797764 Nb
   0.2776452339846062    0.2209017063729776    0.1276692429358146 Nb
   0.1119209084432502    0.0589195410328772    0.1355630531452108 Nb
   0.5032544852889131    0.6690705003153816    0.5037191871852672 Nb
   0.8372716378339677    0.6633238916356170    0.0009400164983618 Nb
   0.4441272036920717    0.7222294877063399    0.1297410880268246 Nb
   0.7243137600206447    0.2804533334995480    0.6330345183103421 Nb
   0.3359163577554259    0.6714746299236957    0.5040535184944003 Nb
   0.3360561088624935    0.4999738984851888    0.5016448371873451 Nb
   0.3843285295723824    0.9440812935419926    0.6291864265869369 Nb
   0.7782344395997024    0.8882580471074200    0.1317435648081852 Nb
   0.0543939814451736    0.1137305396247977    0.6351063215593727 Nb
   0.8903192407402285    0.9425291282211309    0.8668885448922812 Nb
   0.9495226426338735    0.7169826880131974    0.1329797415638698 Nb
   0.1058519337325022    0.5538888936493570    0.1352637812626912 Nb
   0.6694281570303204    0.1701095612277381   -0.0012408862538845 Nb
   0.3312872684467784    0.6669777988161258    0.0008228944116918 Nb
   0.3840450165444051    0.9454100057482889    0.8681138063551633 Nb
   0.7793318008564253    0.0512197566282590    0.3707437939666980 Nb
   0.2745756442935732    0.8841063356330403    0.3677770743479535 Nb
   0.2786350872231678    0.7272682035895869    0.3652945905784432 Nb
   0.1667947919598463    0.1673891366601642   -0.0052059495689316 Nb
   0.6133053956286669    0.0554774435081473    0.3645835632045517 Nb
   0.0003009364706146    0.3324974786586952   -0.0010394493166230 Nb
   0.3327546309747821    0.4964507189141640   -0.0001825320192202 Nb
   0.9383314021312118    0.8846449702864962    0.3732985267592808 Nb
   0.6099680282578702    0.8859981849897550    0.1319280109221078 Ta
   0.8869690273994126    0.1116198359973907    0.6325958302327538 Ta
   0.6713194044733585    0.3364746233015410   -0.0020103953584716 Ta
   0.5526523270653133    0.6091889615113236    0.6389861551424965 Ta
   0.5023256147285901    0.3343313441217448   -0.0051191725363141 Ta
   0.5021074308997754    0.1683057855798777   -0.0046725600147889 Ta
   0.4994178181408590    0.0003707223045111   -0.0027800691789539 Ta
   0.5565284725003591    0.9446838142407470    0.6344814717586420 Ta
   0.1037793751373420    0.8780070108125609    0.3690487780125260 Ta
   0.7802975194718951    0.0520197596495892    0.1317078389034036 Ta
   0.4460048480876485    0.0590259811387823    0.1310656274713757 Ta
   0.1038276846878723    0.5563447865554881    0.3611926688364533 Ta
   0.7213831282196999    0.9418038398603849    0.6404046126703434 Ta
   0.6695245259607636    0.6692320111650776    0.5046126700199334 Ta
   0.8358286451894571    0.3362817778150646    0.0000741590142935 Ta
   0.8297982143803284    0.3341849382621552    0.5014123683450503 Ta
   0.1054576950427492    0.2191686736294155    0.3732275307952238 Ta
   0.7295752140919828    0.4486471308019414    0.8658768669534798 Ta
   0.1080856485101809    0.3882135163986354    0.3675162111155805 Ta
   0.8822796548648298    0.2720452592676538    0.6379378544907114 Ta
   0.9384652916035070    0.5598613430637099    0.3691463016075163 Ta
   0.3323732282364146    0.0004672140933377    0.4982129313624677 Ta
   0.7763406645855249    0.3940887992494135    0.3646741337886311 Ta
   0.0494622909845967    0.4387044900348200    0.6370794048353819 Ta
  -0.0042903129184885    0.6690043218329202    0.5035949224757764 Ta
  -0.0060312096124113    0.5015183468322035    0.5035499357969888 Ta
   0.8891609747439602    0.9415787784297298    0.6316055320596701 Ta
   0.8818119211476869    0.4469562803888373    0.6337294419802511 Ti
   0.3871732461098856    0.7774951046288933    0.8699828952276631 Ti
   0.3888036787044712    0.1139269917300908    0.6263239333870524 Ti
   0.2199246833782551    0.6113556750928330    0.6315534027889562 Ti
   0.6109626189320310    0.8826893532054568    0.3740631513947713 Ti
   0.0566913041630937    0.2749147867940162    0.6268924221202501 Ti
   0.9392937294169069    0.3924738928488585    0.3713806381050074 Ti
   0.7282860787968128    0.6081233948099800    0.8692984862691693 Ti
   0.0524232488725978    0.2785945289659164    0.8713866859624807 Ti
   0.2221571120245539    0.9436373260923150    0.8689198366641491 Ti
   0.5535757567643741    0.2792141623889769    0.6334685474193472 Ti
   0.8352927404741597    0.5013008770542015    0.0000939704991849 Ti
   0.8345761725073436    0.8316469543191654    0.0003725384723694 Ti
   0.1113705942551009    0.8804700550990434    0.1301068039391207 Ti
   0.8311278987141437    0.8317290002808215    0.5023915839832838 Ti
   0.1091417931825815    0.3883600868680031    0.1247287417423281 Ti
   0.6148157540583995    0.3876349239363798    0.1247595160907099 Ti
   0.3341749722591345   -0.0005581945662434   -0.0002173979754796 Ti
   0.3349591206693431    0.1656877355353941   -0.0032391450570458 Ti
   0.6673453345248147    0.8324777798997602    0.5042573221380968 Ti
   0.4420869671287634    0.8885234523172056    0.1264069339463937 Ti
   0.5002448630123917    0.3337711606969154    0.5003968809732352 Ti
   0.3342594880525489    0.3335837925980195    0.0001037757185338 Ti
   0.3295032696773527    0.8314690915495261   -0.0016015422887449 Ti
   0.4999555306483500    0.1694842235457125    0.5012303411825655 Ti
   0.3326466342757356    0.8327440695465872    0.5021444279899321 Ti
   0.4434412034131642    0.5539402783469578    0.1231428079928046 Ti
   0.7310098519125785    0.1205669630552573    0.8689622016937307 V
   0.5004052030890389    0.5003862385432870    0.5060597108774288 V
   0.4994029896705298    0.8301150345269968    0.5049113970684231 V
   0.7335308466009933    0.2850935280028880    0.8697220588036902 V
   0.3919957959088645    0.4445574962181557    0.8764779240799097 V
   0.0040975420170159    0.6658670575068365    0.0006135951861743 V
   0.0557387914802131    0.9356060436641965    0.8678316547936485 V
   0.8348427464227737    0.6681141392296627    0.5066815371722493 V
   0.3357273777402103    0.1685132412165863    0.5004577685046731 V
   0.1642479916735266    0.3300950108865786   -0.0005908968194469 V
   0.1657464376483142    0.8291392916769456    0.0011589356840733 V
   0.4495034419209480    0.7304854346760643    0.3790286130425227 V
   0.4498624426696242    0.2239050523944253    0.3748544053556601 V
   0.5007310103323480    0.4970323052107622   -0.0032158713271147 V
   0.6693063945565320    0.4988109123840292   -0.0008708476864018 V
   0.6680009892618680    0.8330040515583905   -0.0035441867356306 V
   0.8315764459070664    0.1651759691866347    0.5020724755910420 V
   0.8946183924841676    0.7736417049231530    0.8707192753628299 V
   0.1113126360729045    0.2238917747359786    0.1189601994402939 V
  -0.0026659218389604    0.1642151585212208    0.5003066099878688 V
   0.7265962357692318    0.6123698080385648    0.6293716794959980 V
   0.6096766103843677    0.2242744437838353    0.1261295750476827 V
   0.3900176539728546    0.2788716741458666    0.6218619031695110 V
   0.9496477510623447    0.5591488352131263    0.1226023187956318 V
   0.5554138647205240    0.7762618890712187    0.6265762421937832 V
   0.9450643813041659    0.3948012232720703    0.1263902742765656 V
   0.8839188734880916    0.6140709583885282    0.6281469168723376 V
   0.2240946354712426    0.1075429671165510    0.8654458775807236 W
   0.0472117637829474    0.6101717446572836    0.8700263225207924 W
   0.0491209671081182    0.4417919415735168    0.8701326867846557 W
   0.6658840611699675    0.1680784428696398    0.5034550024712006 W
   0.8864296785405054    0.7731366121293095    0.6329435009806116 W
   0.9434441344905650    0.7217282160721371    0.3745545177457156 W
  -0.0007865645814066    0.5038304297056720   -0.0003997694213486 W
   0.5522252475959470    0.4457702616326751    0.6320998447071499 W
   0.7785635038528593    0.5570097431546622    0.3697271353872483 W
   0.7256014866811977    0.7769720809075451    0.6334444721744349 W
   0.4445373624220649    0.8848996346402362    0.3704805332997934 W
   0.2750040148169731    0.8855649905328506    0.1262230726439211 W
   0.2217038488743620    0.4397058954256158    0.8679930986257293 W
   0.4999846793868290    0.6666002981299497   -0.0034774987728548 W
   0.6142454314048222    0.3910458739853626    0.3696239589218429 W
   0.5000892023266914    0.8306370319507222   -0.0022129058294851 W
   0.8344382596501333    0.0013004272505174    0.5025727635733094 W
   0.8908753891578759    0.6112149529710001    0.8676388214920004 W
   0.9471801013914324    0.8865935475082712    0.1345603887155833 W
  -0.0055348482124486   -0.0012631495153346    0.5017995681737034 W
   0.5576673492961932    0.4465994918298282    0.8674114644915568 W
   0.1646317419849137    0.1682925062631867    0.5014058162680227 W
   0.5558394161408402    0.7756143383059925    0.8685488234880819 W
   0.6155014615001632    0.5568750031425725    0.3728655579021685 W
   0.8334786923763088   -0.0004883111841393   -0.0035191619571184 W
   0.0497915840532198    0.9388436945515539    0.6318886937475352 W
   0.0498708443626539    0.7802313686379432    0.6331376725489375 W
   0.8366647507225993    0.1693887738211095    0.0011429569430350 Zr
   0.2796071918991767    0.5600928478633108    0.3645254810053130 Zr
   0.6691179963160614    0.6643304776864510   -0.0012110532151557 Zr
   0.4514203234872053    0.3898211740210732    0.3620050238426606 Zr
   0.2721542752562953    0.7211171708997645    0.1384837128404818 Zr
   0.6683327603241334    0.0005240509150305   -0.0021834956005668 Zr
   0.2714594322384744    0.3872708737611453    0.1393618124441844 Zr
   0.4480452271084306    0.3834065425578622    0.1341104856679510 Zr
   0.1658144278008137    0.4997054929963002    0.5015443176703421 Zr
   0.7717607129102184    0.2226580484930327    0.3649999120284322 Zr
   0.7263183961264029    0.9469065947343868    0.8535834950313991 Zr
   0.1628160051670202   -0.0032619108126341    0.5009645991134588 Zr
   0.0491227460656333    0.6155286590423217    0.6425769359519965 Zr
  -0.0034042959448926    0.3312448138463794    0.5016742843401065 Zr
   0.6673221136903230   -0.0016854630820564    0.5034637892821892 Zr
   0.6690643238431609    0.5028230963190740    0.5061333114897317 Zr
   0.3873259533215890    0.7748422035181003    0.6461861619121780 Zr
   0.2141164894313451    0.7778567126547318    0.8677459798088086 Zr
   0.2164361935872984    0.6101594200597198    0.8604496303589398 Zr
   0.2241237773679687    0.2804650914214380    0.8628571559063366 Zr
   0.7822661609261636    0.7200419304452025    0.1441224770122407 Zr
   0.0513907312722216    0.1111322295669932    0.8577562672478493 Zr
   0.1635720633356445    0.6688671679100344    0.5024446213417056 Zr
   0.0005464743119688   -0.0005554319200404   -0.0028801211891006 Zr
   0.1642501633686285    0.5015967170078806   -0.0009083828777053 Zr
   0.6149459863289234    0.0607023530760507    0.1414513024015420 Zr
   0.6096266150283013    0.7215063182914464    0.1346009204471654 Zr
