K100 Mg10 Ti10 Mn60 Co10 Cu10 O200
1.0
   7.8979698443085553  -13.7396544647501972   -0.0075121377772423
   8.0196865826134403   13.8099223200508039    0.0053483362107136
  -0.0030493204557634    0.0104108465950020   23.8712968424870802
Co Cu K Mg Mn O Ti
10 10 100 10 60 200 10
direct
   0.7982171041119712    0.6065315013058586   -0.0001016465997506 Co
   0.8005524248424248    0.2060010881588610    0.4989375829667453 Co
   0.5954861977408719    0.5824522546993538    0.4963870997687111 Co
   0.2046426592992977    0.5913617936354979    0.2497099438187343 Co
   0.3955427844623126    0.1888110931302049    0.2549865169957388 Co
   0.1884166002864908    0.7792073730733645   -0.0019056289397561 Co
   0.2012698625170160    0.5931205559216063    0.4971265743343952 Co
  -0.0031668723847160    0.8078273043541183    0.4960953681529282 Co
  -0.0096579379722237    0.6000908132911633    0.0007665771991792 Co
   0.7987587941004256    0.2125147766079886    0.2497397514007915 Co
   0.7983416328528341    0.8115726153340340    0.5011053261598939 Cu
   0.2085720524797346    0.3989082101272181    0.7495249683515355 Cu
   0.4049948337942018    0.3984270144915065    0.2505506825832240 Cu
   0.6023230294156218    0.4040546558480305    0.2474297132454573 Cu
   0.0007588836971451    0.5940477218841848    0.2459876852831930 Cu
  -0.0235611936477122    0.3967017767983312   -0.0004594437146977 Cu
   0.6010861581675890    0.0011035086395364    0.5006801404295637 Cu
   0.5963528886526768    0.1995924094365180    0.0009499107135149 Cu
   0.7901999699224129    0.4076175612255354    0.0027302808788176 Cu
   0.8014117927165386    0.8158432802336115    0.2515705452013150 Cu
   0.4595756431197904    0.9216486269266945    0.3802033107403457 K
   0.4655402975746545    0.7297733986681908    0.8808935452695645 K
   0.4643364255584317    0.7231695851970986    0.3736972066901971 K
   0.4778102730554094    0.5427291255275870    0.8790100104479933 K
   0.4688268408469091    0.5208752809153873    0.3737771750579955 K
   0.4638401247854550    0.3280846111306407    0.8721793281753334 K
   0.4625806969183852    0.3218452817230430    0.3677362369866690 K
   0.4687262682368895    0.1268427812168119    0.8818591522303741 K
   0.2579589211421988    0.9258805318565542    0.3727979827448967 K
   0.2576468131644247    0.9164507727298732    0.8780108871317734 K
   0.2573477717839646    0.7150120526584400    0.8712456523214868 K
   0.2614620591531968    0.7231351163385337    0.3718990486703493 K
   0.2706306734788741    0.5289648683371115    0.8672509218147658 K
   0.2717814975175518    0.5279882686000930    0.3796830079195185 K
   0.2708168038367119    0.3359172440124626    0.8734526604576680 K
   0.2640462601660517    0.3221439220129362    0.3781202492061609 K
   0.4548173499781064    0.9145826109157382    0.8747054604172060 K
   0.4619044948858291    0.1236251735654110    0.3779165689339710 K
   0.6613057239453364    0.1312241082875696    0.3706381717333336 K
   0.8666562646181213    0.1483510246214319    0.3801116088294330 K
   0.6671713540666596    0.3361468249247488    0.3706516623247362 K
   0.8684477656693742    0.9477338232899861    0.8699962998313484 K
   0.8587109209526830    0.9437584257604834    0.3769934407284498 K
   0.8638548680349736    0.7415919375750886    0.8769120951367697 K
   0.8541451719146921    0.7445926741753952    0.3727854151755831 K
   0.8684000859143159    0.5449665973032438    0.8774857106462571 K
   0.8700032992844982    0.5437372385013682    0.3658915225687300 K
   0.8568773394520410    0.3404777129049820    0.8766151055004361 K
   0.8642849968407706    0.3395221929824165    0.3755643028816285 K
   0.8581041113639170    0.1387896087940596    0.8673106934361339 K
   0.2637640150913921    0.1171516124473001    0.8757586942222187 K
   0.6616550362521095    0.9295370602768034    0.8752858990830913 K
   0.6622019603037795    0.9371341817930782    0.3790336631530653 K
   0.6741001941999887    0.7394579953143436    0.8739562632137091 K
   0.6619776530431161    0.7328925970741467    0.3814653748118588 K
   0.6655844299958931    0.5306763201813451    0.8765912692375305 K
   0.6615600846493469    0.5214784277142201    0.3719303920320241 K
   0.6649401793444669    0.3334055154995497    0.8812528971582934 K
   0.6528177899078553    0.1195205570981910    0.8748697929263664 K
   0.2621070025227658    0.1192225578838875    0.3786925272929432 K
   0.1371726622184900    0.0567933879629332    0.1277389558942570 K
   0.0568846392196302    0.9250649194028707    0.3770777653540334 K
   0.5466050407193864    0.6835683369423566    0.1231746604238459 K
   0.5394145861746487    0.4626996263335966    0.6262252705073122 K
   0.5403333475308575    0.4777116283443938    0.1302176334931315 K
   0.5430124028749344    0.2718495643665223    0.6291396044918262 K
   0.5349221504980205    0.2747060032956932    0.1258605383074179 K
   0.5331948734434516    0.0653028053556975    0.6242514260407576 K
   0.5263602758157302    0.0625471669415126    0.1223981167189258 K
   0.0615513339136682    0.9237959852923652    0.8762603808678140 K
   0.1254002896191223    0.0596368870215881    0.6234338385488915 K
   0.1443457488736834    0.2631808631548113    0.1286001325728224 K
   0.1392012687138088    0.2653655212580119    0.6293973407830501 K
   0.3329241385283179    0.8670151205100806    0.6248860090038764 K
   0.5394441440634979    0.6619944776796266    0.6196948279601987 K
   0.1352022564432512    0.4553727952333766    0.1271600053693443 K
   0.3374195632389430    0.6632587904024863    0.6223907029405582 K
   0.1435873146646171    0.4585773941079229    0.6218632991977526 K
   0.1269343955248025    0.6470434759630417    0.1251150398846543 K
   0.3333112939391630    0.6643703574740922    0.1306482964646370 K
   0.3430225459639270    0.4653768146691722    0.6241180399005828 K
   0.3435358328034323    0.4687708144669293    0.1236717888097225 K
   0.1413939200606160    0.6600907835852888    0.6209177168978331 K
   0.1340071135265528    0.8539905489387664    0.1244627126894466 K
   0.3303537209844442    0.2588533303555710    0.6287500366000172 K
   0.1357587206123496    0.8655615274536248    0.6242627179086007 K
   0.3408089509732141    0.2695804611262345    0.1338657135378394 K
   0.3338167285316859    0.0650378794724216    0.1299588256939419 K
   0.3212741164378872    0.8558082403053568    0.1278906188897950 K
   0.5308514799193632    0.8686057942834672    0.1276954066824507 K
   0.3376810638084040    0.0716307591056015    0.6258256417227516 K
   0.7352991719479864    0.0804147268949644    0.1243899176088781 K
   0.0641205617636253    0.7233840414189104    0.8756224797490602 K
   0.0601643272368960    0.7286742028987183    0.3751451437319022 K
   0.0583412189042994    0.5164278921091680    0.8769073439774173 K
   0.0675774657750834    0.5277874712583561    0.3696880500510095 K
   0.0577849922978994    0.3195482948345722    0.8709873182503948 K
   0.0699495275427140    0.3310668118655916    0.3745043773833525 K
   0.0749696691935023    0.1316115460640155    0.8744768484944432 K
   0.0617577577535136    0.1244020655505782    0.3799444578013580 K
   0.5303763426194050    0.8628169709375894    0.6189771014579480 K
   0.9366681062687661    0.8801535046741127    0.1268706374930343 K
   0.9453920329981923    0.6821740984033364    0.6211466195936577 K
   0.9355907397384481    0.6764072798379906    0.1297858099325657 K
   0.9427590601614780    0.4793001938886471    0.6211637909775715 K
   0.9244050484697933    0.4689968353337683    0.1166178068094808 K
   0.9269732765047222    0.8703444885718765    0.6172937793855702 K
   0.9253744508781896    0.2711969143970506    0.6186091332159143 K
   0.7316501596090641    0.0743576898883589    0.6272957447999946 K
   0.9334196748118471    0.2784554399290811    0.1243141191671886 K
   0.7201326392178941    0.2658809176132907    0.1241008214436099 K
   0.7426737719756489    0.6885721667942705    0.1220017175298365 K
   0.9341124644906941    0.0781327796284351    0.6288291024915879 K
   0.7480584905502323    0.4804829695643187    0.6192208051719220 K
   0.7338114606009174    0.4827651818029966    0.1239529925086384 K
   0.7452865375152393    0.8901476587641129    0.1290198369991754 K
   0.9470516207001866    0.0897814836807494    0.1252382218511123 K
   0.7430143061693791    0.2843797975465584    0.6245825853984736 K
   0.7332294102859838    0.6709353102620779    0.6199569409070922 K
   0.7320275198244658    0.8722977056165412    0.6272890049693711 K
   0.3969920669058744    0.7959948920882096    0.2507046505146630 Mg
   0.1967604413541428    0.1930116954388020    0.5028771947113467 Mg
   0.7919537741284087   -0.0021322027125731    0.7498326900729821 Mg
   0.6092294569775462    0.4046633814703943    0.7493203216231422 Mg
   0.2022221584413469    0.3918034857844723    0.5013241648736545 Mg
   0.1996955617937128    0.5906876173922500    0.7477391190017851 Mg
   0.7990847973809612    0.8059632108902272    0.7492372287078829 Mg
   0.1961760799607997   -0.0100299888153415    0.2501403088688524 Mg
  -0.0064565915887260    0.0024055010258419    0.5014136319717630 Mg
   0.6000829475876209    0.4066984390919919    0.0022895727469640 Mg
   0.1873680455961276    0.5826610599388502   -0.0006334169804379 Mn
   0.0078946162098761    0.4018959383477573    0.4991261865325348 Mn
   0.0008645421270080    0.7980047001750640    0.0008936716654751 Mn
   0.0057899374370080    0.6034066461142449    0.4970019480702479 Mn
   0.1953701591280994   -0.0019665095474821    0.5028160284787561 Mn
   0.1994366613501433   -0.0147866265560960    0.0002504454036281 Mn
   0.4063179385966824    0.2015718151792571    0.0028061206169799 Mn
   0.3914258539560765   -0.0119271676618378    0.0015770178244357 Mn
   0.7990961825596039    0.0098722802430146    0.5041251824901845 Mn
   0.5991521014002149    0.7964589272675356    0.5006201164699040 Mn
   0.6102567298696994    0.8126502391428604    0.0013481386572958 Mn
   0.6075542956911635    0.6120836505249954    0.0006378499901833 Mn
   0.6046874343744589    0.3975562408882019    0.4973038788056517 Mn
   0.8104752184999128    0.4145867099535120    0.4954359519985138 Mn
   0.1996542823271542    0.7976227231843847    0.4969203094152773 Mn
   0.8123558202109059    0.8221943145298756   -0.0000487180389680 Mn
   0.3954799711432995    0.7912642027836757    0.4972925502769387 Mn
   0.4008469547033838    0.6025452382261135    0.0029063174641731 Mn
   0.3990282267071624    0.3880293554082203    0.5018245457893364 Mn
   0.4093268737711188    0.4050341119729483    0.0015560794282202 Mn
   0.4028563874489153    0.2005551562041106    0.5029187884293561 Mn
   0.3950379153845387   -0.0029452341137744    0.5008632643061403 Mn
   0.5941789761406072   -0.0053151012806014   -0.0004619103616840 Mn
   0.7916279061799486    0.2032287697520037   -0.0027944974515573 Mn
   0.4031180606637157    0.5890229542901767    0.4995487651693609 Mn
   0.0068862141729569    0.2103869828537221   -0.0023627127304692 Mn
   0.4066661288613022    0.6013913737051471    0.2489010015188948 Mn
   0.4092861734088311    0.4078600876991991    0.7498264719585637 Mn
  -0.0053810413544100   -0.0044243444531554    0.7488905660736097 Mn
   0.0044642375908267    0.2021322512005377    0.5024889837049777 Mn
   0.4025069169151372    0.2016138048189833    0.7539493954801209 Mn
   0.0062776199354107    0.6038194482220330    0.7495097268588403 Mn
   0.4083253562944070    0.6020015779212049    0.7490875285793860 Mn
   0.3923914980166665   -0.0133299631529274    0.2510195812686836 Mn
  -0.0041447530110679    0.8018804603486925    0.2502196299510768 Mn
   0.1921028479750176    0.7862348227600522    0.2500008334512610 Mn
   0.2098263575378253    0.3985619474593686    0.2520302697191050 Mn
   0.1977161828847918    0.1928164339067378    0.7514531931304963 Mn
   0.1989904280563740    0.1888240129416708    0.2542329437889889 Mn
   0.1932611365744550   -0.0063722652924500    0.7488626524795310 Mn
   0.1998732085120756    0.7947478438465831    0.7481525499577784 Mn
   0.3986719747413417    0.7922163571371431    0.7486243567537607 Mn
   0.5950885193389831   -0.0002816655683127    0.2501746249111661 Mn
   0.5917666245379256   -0.0114373378558961    0.7507448256078249 Mn
   0.0118502512874985    0.0084884461918267    0.0014100978072978 Mn
   0.7973671162933772    0.6150138130034720    0.2498021609362336 Mn
   0.8080832116370456    0.4123547379094648    0.7477872127113994 Mn
   0.7981407065349024    0.4063761614948627    0.2439893035070221 Mn
   0.7953894550771038    0.2048927238725414    0.7516679164041402 Mn
   0.0029137973212505    0.2065994681087901    0.2540457539772925 Mn
  -0.0082375522266850    0.8011480016978166    0.7498396355977456 Mn
  -0.0052278836123965    0.1968021968605752    0.7481898825675953 Mn
   0.5965755114692313    0.7958771336446744    0.7500875477842227 Mn
   0.6038192080088396    0.8072794906454084    0.2520918394746162 Mn
   0.6048902849069288    0.6049886446687103    0.7495554768346061 Mn
   0.6026769629560051    0.6084419980781980    0.2506219658353933 Mn
   0.6058011529778323    0.2037724864044109    0.7509440861704268 Mn
   0.5924368750926613    0.1955657546033625    0.2503241864235677 Mn
   0.0000970331607746    0.4011958348417472    0.2492316120265112 Mn
  -0.0009141920416967    0.0058165513992289    0.2503341440634837 Mn
   0.7206225796107846    0.2554216941738872    0.4504139379738188 O
   0.5238410429481634    0.8433616700123232    0.4565572783004607 O
   0.7314822488251382    0.0681359559821687    0.4603790488925936 O
   0.5364385941388410    0.8662000965845602    0.9602447479347525 O
   0.5566295251731038    0.6876129376926045    0.9584281008378019 O
   0.5253063407556738    0.6424563663358918    0.4563569950660940 O
   0.5220811875069572    0.4581573681138153    0.9537572904797015 O
   0.5252334638687395    0.4439814026831503    0.4564354453097978 O
   0.7454915340286101    0.0752903330567117    0.9548901971013164 O
   0.7183567924987347    0.2436305580612185    0.9534197640881856 O
   0.7297383118757824    0.6637733936539926    0.9564373759490916 O
   0.7344141365088583    0.4731820013230948    0.9580066912722862 O
   0.7214256980033470    0.6415234186079387    0.4514038370077320 O
   0.5252348693820565    0.2605275770251190    0.9583889091219557 O
   0.7301826809714554    0.8785856240383905    0.4610486789259002 O
   0.7564755363308310    0.8951829138970375    0.9563165624692120 O
   0.9248325844132863    0.0754869913448909    0.4589556137613450 O
   0.9335208157015508    0.0888470192981969    0.9516232220692108 O
   0.9456838652597698    0.2744544178470979    0.4600537513264281 O
   0.9180486570449717    0.2737584940197987    0.9572379434317060 O
   0.9336313838103922    0.4816448697666026    0.4523387522292019 O
   0.7518453076985454    0.4770596390910216    0.4525883777907046 O
   0.5461840914425117    0.2739999414702796    0.4556173282485781 O
   0.1257975732644573    0.6549585995555773    0.4529327650378132 O
   0.5361655834159200    0.0723115587192680    0.4605245270900338 O
   0.9185508651574157    0.6817075555791077    0.2935820708774383 O
   0.9310805430465591    0.6838874865342788    0.7955487741612796 O
   0.9290439919624427    0.8873701008464667    0.2943998210702872 O
   0.9299222021532956    0.8805651937328329    0.7950385513943686 O
   0.1353054606647076    0.0565391669828712    0.4583381509717722 O
   0.1380789356302053    0.0592768061338970    0.9601283183006954 O
   0.1223673845442523    0.2557723219655220    0.4574700651408151 O
   0.1394982666226613    0.2655963616007464    0.9560590699352185 O
   0.1309459551770165    0.4593736230794104    0.4561118086909463 O
   0.1484505019026740    0.4484695007064267    0.9457287608328909 O
   0.9184135722524176    0.4769246930524793    0.9624053070121085 O
   0.5134465731149339    0.0356492689970674    0.9579930388475120 O
   0.1287181441653423    0.6461262874995677    0.9560946708295767 O
   0.1212979537055870    0.8482340969040504    0.9555626355909641 O
   0.3337019712290109    0.0655531599625322    0.4620955128469904 O
   0.3242717020460018    0.0442347817548214    0.9575368929541059 O
   0.3402413197141392    0.2628322654707168    0.4587718449495630 O
   0.3242512700513498    0.2460419446345349    0.9538401562672127 O
   0.3426462405467727    0.4548321143292269    0.4579903124347016 O
   0.3391237430718365    0.4672707430384185    0.9615989359738045 O
   0.3313315475761510    0.6675880968308534    0.4553894899678633 O
   0.3267013707161033    0.6547595080584196    0.9598833563854913 O
   0.3168629297450691    0.8591162947595961    0.4518893214614326 O
   0.3248377778984770    0.8355164820231782    0.9532313229864740 O
   0.1382931901448744    0.8736213402426751    0.4585127966360295 O
   0.9220060059899975    0.6782424339352855    0.4484220577219075 O
   0.2738795669297235    0.3264043056674482    0.0419798111175766 O
   0.9207150960990150    0.8722997250516336    0.4587581362794841 O
   0.4739904330549821    0.7215509121049478    0.5424796655737033 O
   0.4441190912980356    0.9140202083226457    0.0457188283486026 O
   0.4595912513886020    0.9281191381595785    0.5376232000491110 O
   0.6620317195835683    0.1268485357272590    0.0385796042766867 O
   0.6675960031015091    0.1595099348796215    0.5504160361283373 O
   0.6739847819969040    0.3508603788531749    0.0465212238742437 O
   0.6786273763797750    0.3458053607908760    0.5384730177832000 O
   0.6649753489781876    0.5509466173715230    0.0449820922506380 O
   0.6637784098565435    0.5251244988391072    0.5400514757457548 O
   0.6882614705291564    0.7687730020239052    0.0442826020793270 O
   0.4522314555136995    0.7259659843958135    0.0449834396004852 O
   0.6720101572706025    0.7452203562000094    0.5408672506186196 O
   0.8561241135230055    0.7277322173728040    0.5401345605928437 O
   0.6744859136607999    0.9513976738312848    0.5460714614122806 O
   0.8665098196639408    0.1426897928115041    0.0421066898546686 O
   0.8750576776836801    0.7573808145657165    0.0409927004007921 O
   0.8672777387760092    0.1356327110976386    0.5432109714248947 O
   0.9355927120299699    0.4772222247944373    0.7903763839504114 O
   0.8409005515789564    0.3210567309772088    0.0414874057532113 O
   0.8822896483087317    0.5571910238209672    0.5403983136261421 O
   0.8733034892531507    0.3502336676815566    0.5364750203621671 O
   0.8650094069623985    0.5618053627069134    0.0463157484127169 O
   0.6678305316248249    0.9415282694461929    0.0425361844633858 O
   0.4690201249518609    0.5118130607067126    0.5432231808303591 O
   0.4796010475494765    0.5560677680766182    0.0436433286737622 O
   0.4552002412810350    0.3224814917158267    0.5466783908841063 O
   0.9340327833748785    0.8891894855221264    0.9559275025297788 O
   0.0840337024823226    0.1309741546585219    0.0431925309509219 O
   0.0592200506075533    0.1367592779758895    0.5444352091006527 O
   0.0819019889238478    0.3235118826498857    0.0449815125611068 O
   0.0664725334908877    0.3167497561919916    0.5476746164752954 O
   0.0634207949354760    0.5136202148290038    0.0406809249121988 O
   0.0747054375695890    0.5222662008476899    0.5432153034988642 O
   0.0622102058941238    0.7130884018407209    0.0457024801073254 O
   0.0760031209126561    0.7277549533712510    0.5392983860615065 O
   0.0756022960507680    0.9232405097501266    0.0444507805283477 O
   0.0727605382191994    0.9326344524407690    0.5442050758804401 O
   0.2777120922123320    0.1468654908471265    0.0486424899840683 O
   0.2538844951659454    0.1158855819788229    0.5467564004784631 O
   0.2779327944288004    0.3306593025390217    0.5443454724612328 O
   0.2499257447376647    0.5148680629124994    0.0438197773805685 O
   0.2800069623031182    0.5337391864331802    0.5413032132211201 O
   0.2694341074699778    0.7279558578218346    0.0492883603707958 O
   0.2728857228550878    0.7376063035608850    0.5409713035753296 O
   0.2686189287762599    0.9332837523076540    0.0448379730792866 O
   0.2692764981342628    0.9403326940518253    0.5446905591419084 O
   0.4687220515546102    0.1423660811292385    0.0458207631847139 O
   0.4753330845269954    0.1503364427461858    0.5448666332246735 O
   0.4666439684956421    0.3478571235710716    0.0480215203654204 O
   0.9325107334419458    0.6791444813044337    0.9559624089616949 O
   0.9277212960905434    0.4656835841294185    0.2877474057296016 O
   0.6531818115273451    0.1294831998792338    0.2104300950316117 O
   0.9358767246804844    0.2844371510642441    0.2939941080039433 O
   0.4649934002786233    0.3382034087548345    0.7089314395054576 O
   0.4806289436043634    0.5588837150005355    0.2027972431904317 O
   0.4791205962308575    0.5500081479292700    0.7064503659363971 O
   0.4742082321681014    0.7325041606137721    0.2105152625497627 O
   0.4732118940794748    0.7238354010651668    0.7039136601163183 O
   0.4513009824467367    0.9286055089323375    0.2045497105484629 O
   0.4647528736204731    0.9233321576462749    0.7072618283149824 O
   0.6711000025314987    0.1482338375564116    0.7060668903757129 O
   0.6725053360373709    0.3500875912343893    0.2038376423186778 O
   0.4695204272638712    0.3327228732178912    0.2134231875764562 O
   0.6861020416825607    0.3518358455462572    0.7051067460759347 O
   0.6895474367393328    0.5452616532321315    0.7009681802262860 O
   0.6677586935361551    0.7433547397711363    0.2124868714654620 O
   0.6608019418602445    0.7338968781723355    0.7082832033372131 O
   0.6755383288132942    0.9582612664031855    0.2055459752291315 O
   0.6505156214601134    0.9215981521958596    0.7064400213037862 O
   0.9207175527100010    0.2770460840471866    0.7945257242784304 O
   0.8629991508500338    0.1403257990761657    0.7113227285992706 O
   0.8542035223697882    0.3421608578319715    0.2009195306046280 O
   0.8727320854248972    0.3533827313155008    0.7049866703365375 O
   0.6794632505744560    0.5687674750058264    0.2034297222525425 O
   0.8687618582893279    0.5318981143033753    0.2048267541887061 O
   0.4716250469695445    0.1254173353363378    0.7096616416197022 O
   0.2724919203382194    0.9466189071866824    0.7062248882302422 O
   0.8855264136443144    0.9689463462465900    0.0437944395190637 O
   0.0761667055444846    0.1281398074838754    0.2073102221418680 O
   0.0718850282540694    0.1228431087657635    0.7067179026652126 O
   0.0710006566476246    0.3253473226355287    0.2095652154142494 O
   0.0401180493759727    0.3186185161851220    0.7021516608651592 O
   0.0737479623434735    0.5169867643812658    0.2056850807792532 O
   0.0699289973847212    0.5139001043501705    0.7004481900762873 O
   0.0740776549146421    0.7229881076358632    0.2057299069904200 O
   0.0791541161639790    0.7243773829263983    0.7042045199562366 O
   0.4639037239968831    0.1204049274110935    0.2097488084048130 O
   0.0640002289939137    0.9168631990805814    0.2047090249994053 O
   0.2628262642663710    0.1320059058666156    0.2093311647128527 O
   0.2579820765880572    0.1221907625770279    0.7109441744960184 O
   0.2673285681712066    0.3263802353130297    0.2138289234624801 O
   0.2820760777953084    0.3452276725880745    0.7093478355904064 O
   0.2865485515207235    0.5384117301103067    0.2044040222354972 O
   0.2835035895182151    0.5330988854258673    0.7084234391236597 O
   0.2569305420983221    0.7266874221222047    0.2097261215186520 O
   0.2727320863745728    0.7353311184093829    0.7067844166845699 O
   0.2667924076113335    0.9223223293857054    0.2089889817349287 O
   0.0460927206144179    0.9243252355905363    0.7048854466687161 O
   0.8822344798686435    0.5595665698845647    0.7050470734682656 O
   0.8665883498364182    0.1403641426748353    0.2064551970990297 O
   0.8689298327492737    0.7359547525037324    0.7056493569439610 O
   0.5259426369197288    0.2429064587715848    0.2966135270611107 O
   0.5434089592166866    0.2634271448860613    0.7944726894578109 O
   0.5393763891232570    0.4738462535345639    0.2845819618603530 O
   0.8660512293439795    0.7471488438846813    0.2094477589283260 O
   0.5284939601504831    0.6540204220408554    0.2957673213649098 O
   0.5320346988700687    0.6754611102924665    0.7944530774963878 O
   0.5404012975270593    0.8710972673917189    0.2917882125110307 O
   0.5235766690719560    0.8458263056275652    0.7927359693314510 O
   0.7432669342463538    0.0718164030928148    0.2987649126884084 O
   0.5190241382547772    0.0410681850707246    0.7950989838480991 O
   0.7130460686749915    0.0515053177299799    0.7937329124520544 O
   0.7258252897270419    0.2558135816807013    0.7966504258968301 O
   0.7348620800622142    0.4712510632475929    0.2862720429795654 O
   0.7501590242487657    0.4811986688050253    0.7920843386927446 O
   0.7110408490266685    0.6569002260595476    0.3000985345665043 O
   0.7304763623901043    0.6603935306410019    0.7922840741316036 O
   0.7321188058883710    0.8804586649999949    0.2916563766886194 O
   0.7180065464198370    0.8609125924925122    0.7925559933139250 O
   0.9286689198572654    0.0853598008047753    0.2971232723434620 O
   0.9436569085147116    0.0743480590722842    0.7912341869107682 O
   0.7282171377975808    0.2763791869984054    0.2884192302615731 O
   0.5154861020821437    0.0402546032979185    0.2955992391114611 O
   0.5403816038952424    0.4759116276572410    0.7898760575805611 O
   0.3236191321802887    0.8613784745978745    0.2931038912570046 O
   0.8784914786733463    0.9655354797647889    0.2063124224015674 O
   0.8730679967537210    0.9426495881790964    0.7063225962788797 O
   0.1279756332824853    0.0633759152146650    0.2938777781436905 O
   0.1205955820709324    0.0452176536071836    0.7930906122424903 O
   0.3220540715835580    0.8655531550555272    0.7926436972776886 O
   0.1300656989137492    0.2617025002350062    0.7862808875046060 O
   0.1511904373668286    0.4648986395831949    0.2934415517772666 O
   0.1256895573451491    0.4505592542562662    0.7904609894510679 O
   0.1293425610338459    0.6655651263943771    0.2925852247717907 O
   0.1238806573635271    0.6496960646119969    0.7941893950147084 O
   0.1324741734013414    0.2505546894112799    0.2959783101826817 O
   0.1279434899079304    0.8631180966966377    0.7870009158560118 O
   0.1247594221243510    0.8487462297366318    0.2914308752513619 O
   0.3432510529523191    0.6648848283443942    0.7901798578548784 O
   0.3379832374891350    0.6565695515291179    0.2927087037383205 O
   0.3616229890387286    0.4831791858643856    0.7950747226916551 O
   0.8612765868649440    0.9544641045517859    0.5483021538409681 O
   0.3155425855694837    0.2485496634130091    0.7986129890476785 O
   0.3145348124348543    0.2388693000895753    0.2992997279293085 O
   0.3451811089800383    0.0577632850424853    0.8009568837103636 O
   0.3329562286766860    0.0524372352083462    0.2935854888961853 O
   0.3438055678682342    0.4708084763421158    0.2894527097401621 O
   0.8089572472576921    0.6148094431377217    0.4920646198398914 Ti
   0.6091750787491961    0.2010273100939705    0.4983255354725908 Ti
   0.3807614783398395    0.7882332752907105    0.0058075603921687 Ti
   0.1968471390656396    0.3991011643829970   -0.0035272904785060 Ti
   0.2167921986930232    0.2017094366043727    0.0048907924987636 Ti
   0.8017977215269678    0.6039384846672177    0.7465483450039062 Ti
   0.8036737321428362    0.0229095607933969    0.2514408294493726 Ti
   0.3971263742170912    0.0019891421989425    0.7549828300575091 Ti
   0.0053295815785075    0.3986310479487092    0.7436184833679742 Ti
   0.8162193820561447    0.0206131411438379   -0.0046933103079727 Ti
