Y24 Er24 Tm24 Lu24 Si48 O240
1.0
  -0.0015813950693307   19.9608262538609402   -0.1433403513086117
  13.8178391806343281   -0.0011085342702630    0.0042698209821269
  -0.0048443777377748   -5.2834028085752340  -17.2053545126038401
Er Lu O Si Tm Y
24 24 240 48 24 24
direct
   0.4242927412346036    0.4369196780018200    0.7373542753716668 Er
   0.8528705927262052    0.0702989075851074    0.9367162250664950 Er
   0.8529297638930937    0.5694906651814013    0.9376105907708056 Er
   0.3131887820454379    0.3189000161403553    0.0610959613168126 Er
   0.3141544197988300    0.3208067035618255    0.5620825986283435 Er
   0.9799523592244692    0.8196190872326553    0.5611580493845716 Er
   0.4098041326360670    0.6864278354086714    0.2640199812597733 Er
   0.7431004828883508    0.1839471134792628    0.2633333470274029 Er
   0.1862423607972742    0.5688967796570106    0.9378200059699320 Er
   0.7418785589840422    0.6844576938157402    0.2640997929121153 Er
   0.9091417893421102    0.5637502882872669    0.2631338265348583 Er
   0.9094732311833407    0.0654013488840587    0.7621000561148851 Er
   0.5751748156930544    0.5663363486424304    0.7607783510788610 Er
   0.5768459928756619    0.0622811798786681    0.2642765684333420 Er
   0.7569444964525106    0.9339830297922544    0.2380463181177172 Er
   0.5902610883015756    0.8164919800584215    0.7363561383161239 Er
   0.9231733088260192    0.8139451073811299    0.7367450934449510 Er
   0.0909809134831234    0.4350708487889215    0.7367248143625836 Er
   0.1861851854261125    0.0705818290319348    0.9382935456085639 Er
   0.9226450168428555    0.8131324943126333    0.2364178997450559 Er
   0.1485170179001597    0.4322547871514482    0.5632355255939323 Er
   0.0205497117144409    0.1794467710277612    0.4390156447368844 Er
   0.4798167552613217    0.4297136959336333    0.0618169283194487 Er
   0.3531652906032771    0.1794605657224801    0.4383128598237512 Er
   0.6489454329043400    0.3187707014916951    0.5644353735753175 Lu
   0.0758639727474928    0.1856290368380304    0.2639569257180849 Lu
   0.4818785838298550    0.9292533282912060    0.0643790312427626 Lu
   0.0909098031550259    0.4347449912070219    0.2362698831647007 Lu
   0.6481078485514296    0.8206615723396684    0.5626533034011673 Lu
   0.5755775060322510    0.5656847486636678    0.2631749672425294 Lu
   0.9246817798747855    0.3151350505149516    0.7357531638854604 Lu
   0.5753988348988585    0.0650387585656329    0.7628039916961196 Lu
   0.4081848740796030    0.6872139001587005    0.7634554987857395 Lu
   0.2426920436350712    0.5650935742290438    0.7632331371042130 Lu
   0.0183471272158951    0.6801050593986375    0.4366299348329335 Lu
   0.9095382767445553    0.5634777216917629    0.7633856766018109 Lu
   0.2580699691681516    0.3157263689507898    0.7366444215866030 Lu
   0.8522282358706379    0.0684607320421907    0.4376254104683568 Lu
   0.2578516392263635    0.8147010268709656    0.2369917727719321 Lu
   0.2588711306417925    0.8160487158413916    0.7376566071875249 Lu
   0.2418166809488313    0.0661120990396813    0.7633380353229076 Lu
   0.5185125663824683    0.0682905095708050    0.4372789538624620 Lu
   0.3507234775042620    0.1808398104383835    0.9352100961657467 Lu
   0.5921785184358778    0.3144192026190588    0.7357317260948116 Lu
   0.2419751685197294    0.0643050020037082    0.2637110992073925 Lu
   0.1494067076199707    0.9316909989399510    0.0647175827688617 Lu
   0.6841270337673595    0.6820083604407038    0.9356113842476649 Lu
   0.6846242315713211    0.6813258227547900    0.4373580592568989 Lu
   0.1629814177240991    0.3155327416433303    0.8061496706437390 O
   0.4981586447232296    0.6076741384194674    0.0547236376350024 O
   0.4973640429062818    0.1101631674223161    0.5509498035465531 O
   0.8293321906433031    0.1112518215746949    0.5503521874838098 O
   0.1622652160188389    0.3172445100466543    0.3069067859603385 O
   0.8313760024733975    0.1080945081225078    0.0523910117739322 O
   0.9965993892348350    0.9336937240010147    0.8074545069408373 O
   0.5001194585637389    0.6079800511590959    0.5576248281434738 O
   0.1649490090964126    0.8138595843373396    0.3072238772431002 O
   0.6675108872304409    0.5676416366327426    0.1922652942708873 O
   0.1664057651815616    0.6096190557034630    0.5543273735085718 O
   0.6701223226300035    0.0636380696949167    0.6942476665345406 O
   0.6697571112166160    0.0638268768923058    0.1938651530080074 O
   0.1642126680269544    0.1072636430676659    0.0542793871523765 O
   0.3366954695240552    0.5688800568252204    0.6926686199296326 O
   0.3358676343683892    0.5676550861839733    0.1921090114615133 O
   0.3349495400750212    0.0656153262326388    0.6922722676889385 O
   0.3354328026460299    0.0662003015244799    0.1907592852448968 O
   0.0002665288798597    0.5645271038452027    0.6911987879961242 O
   0.1623678831700950    0.1133593234036842    0.5500819166551706 O
   0.1618969255980129    0.6126505737675215    0.0512234223564182 O
   0.4982326524615740    0.1044620004931160    0.0566626413882116 O
   0.0014927432021603    0.5615207956693794    0.1922102565100996 O
   0.0045975082232630    0.0681897040157724    0.1924395862749894 O
   0.8298002388942165    0.8165258661700219    0.8066437924583093 O
   0.8288051765194714    0.8142924968662464    0.3076635135781223 O
   0.8312765037156571    0.3153858008067020    0.8050692362483355 O
   0.8302450199239343    0.3139354693553180    0.3064688725548585 O
   0.4958754734966433    0.8201615960132023    0.8074660309020261 O
   0.4990195050121568    0.8148603335049321    0.3080460685969422 O
   0.6675244969614320    0.5659630516403981    0.6923168339983601 O
   0.4988673744847830    0.3152054976053051    0.3096000423320004 O
   0.1659260305715604    0.8170433153448623    0.8083246317428676 O
   0.0021503169711062    0.0678763517311879    0.6930797547719972 O
   0.4972734135261395    0.3163059677702783    0.8071099728629536 O
   0.7212931590508325    0.9606861970998207    0.6040678342429016 O
   0.9967284286935794    0.4319247791888937    0.8068119214281059 O
   0.9248478553418535    0.4739789906300156    0.5545280291225421 O
   0.9248282366469855    0.4706893040358812    0.0554733498764046 O
   0.5911680196497148    0.9744464369114432    0.5581603519342874 O
   0.5904859677879639    0.9698716514523237    0.0601793014769337 O
   0.5912542676421271    0.4710414487661780    0.5583576581215070 O
   0.5906596683619734    0.4693247162544754    0.0600451798573876 O
   0.2572288066882463    0.9787429116289844    0.5551718418884766 O
   0.2567603660710177    0.9750341397999470    0.0570371689149800 O
   0.2587115997692051    0.4767197843501503    0.5572259624695969 O
   0.9260118240372883    0.9733046565314916    0.0594965872204792 O
   0.2559280141451009    0.4760690099294213    0.0585197487432545 O
   0.9091860216058593    0.7229027873056973    0.4407336892913642 O
   0.9089318327235019    0.2276700490911161    0.9421854288035388 O
   0.9098596725522559    0.2245588738697739    0.4422907196959867 O
   0.5762990508864441    0.7307122030417930    0.9418001522641910 O
   0.5772493859721440    0.7290508804832769    0.4454262458930658 O
   0.5761244942038710    0.2307116429202900    0.9438544278326826 O
   0.5763048562437439    0.2249585871814739    0.4452913673058862 O
   0.2433683115937496    0.7254589312650193    0.9424023456304383 O
   0.2422137625599431    0.7232727437530299    0.4423148202323392 O
   0.9086603574916537    0.7265806156299414    0.9427369752170875 O
   0.9950686702801540    0.9346522316057679    0.3066293086589833 O
   0.9229110250795014    0.9784321704518125    0.5571964962902513 O
   0.1704356206965393    0.1831159461818723    0.6925526247711961 O
   0.9997196059119748    0.4343600156861609    0.3084402592938566 O
   0.6640746683348822    0.9332118642308797    0.8069841412990979 O
   0.6621040913719354    0.9316983871853771    0.3080793733879635 O
   0.6646010045292614    0.4305470383370456    0.8075250446671878 O
   0.6659565012931505    0.4348136707720752    0.3084943028052017 O
   0.3303570842646356    0.9346775029976164    0.8057516535541932 O
   0.3287017167850154    0.9347172288426714    0.3057681015587906 O
   0.8335563376660964    0.6058504347659245    0.0551357360132284 O
   0.3293230412980319    0.4343453770976687    0.8065208174767040 O
   0.1698211670718687    0.1823986186032186    0.1932531372246147 O
   0.3309111894671014    0.4369358261751331    0.3081003759782526 O
   0.8360897558755285    0.6833325181525136    0.1928493276324377 O
   0.8363502914469196    0.1834324288784798    0.6920254741647027 O
   0.8375672166990282    0.1797640955808554    0.1931933201706070 O
   0.5025717479882563    0.6887155472891596    0.6932385530463607 O
   0.5039150185149203    0.6837163284067020    0.1934374044659322 O
   0.5054759872101260    0.1831044242815223    0.6922804661682029 O
   0.5023972786740866    0.1826439285940817    0.1934206859875307 O
   0.1708143491511518    0.6827997155939860    0.6939394322521020 O
   0.1702096029659336    0.6826364873675815    0.1932266789798520 O
   0.8383589926644538    0.6821469929220970    0.6928290950312536 O
   0.8331771827346981    0.6100971665055241    0.5529928806542259 O
   0.8366456176084479    0.8933399748019959    0.9451562882827023 O
   0.0031513642462334    0.3580276828964672    0.9474601784431930 O
   0.3115482992172951    0.1879509299529880    0.3070074934912554 O
   0.8132994552823951    0.5581597152045049    0.8054956801984146 O
   0.8118606668764616    0.5576983215937575    0.3069203356401879 O
   0.8119010540635017    0.0590179326682509    0.8051924699567536 O
   0.8133114181578194    0.0571280248867833    0.3085507306698122 O
   0.4778285331534078    0.5627799532716796    0.8038740546736717 O
   0.4808480991608067    0.5614197117243775    0.3066185572112478 O
   0.4797911012959890    0.0586480801361849    0.8048297605423883 O
   0.4808616843026660    0.0579090238536456    0.3090318786818892 O
   0.1467844389118619    0.5574790787630616    0.8059671088316629 O
   0.1455622898228761    0.5554307665559339    0.3064388383260418 O
   0.1462644704988060    0.0628720671418050    0.8061128886828789 O
   0.1467404993369567    0.0621856385036483    0.3065101462731461 O
   0.6873340927273577    0.8109961252651526    0.6916087675745357 O
   0.6870342791456526    0.8071998576577059    0.1934209443968530 O
   0.6879108432881962    0.3085786562878214    0.6937140078682410 O
   0.6886639967537695    0.3078521641190417    0.1937938318389330 O
   0.3100577786091832    0.1928945495530655    0.8063926872284248 O
   0.3548228907903657    0.8092256254875486    0.6953974251555266 O
   0.3114844923917937    0.6922638925592706    0.3060726385423489 O
   0.6466717968052637    0.1886330805102235    0.3072431885145158 O
   0.8561338138675786    0.4410694066209653    0.6954465426308089 O
   0.8537690579715855    0.4400638760128757    0.1947488096510956 O
   0.5213695189078237    0.9441185694773705    0.6928250991775873 O
   0.5216213279059009    0.9394634124421783    0.1928174176826519 O
   0.5222339758141118    0.4387996742617892    0.6941678641331936 O
   0.5218713810402322    0.4438538430336953    0.1941652881381258 O
   0.1900603153691084    0.9424720469517670    0.6955422535222986 O
   0.1901448968778398    0.9416818245243764    0.1942745561115140 O
   0.1897555550252122    0.4420353884440099    0.6950574958048582 O
   0.1866677403330254    0.4428751452570115    0.1930454954545296 O
   0.9777437976752831    0.6893134225565605    0.8055907456500844 O
   0.9783701624693925    0.6910233505461670    0.3075532956432042 O
   0.9785359523414718    0.1940448793219857    0.8058210045374046 O
   0.9806510781590650    0.1870409586553822    0.3071514042463999 O
   0.6446262372665126    0.6932900150420797    0.8070895823139804 O
   0.6447296241184098    0.6911153544698121    0.3076372104623721 O
   0.6442850684779442    0.1915005551409966    0.8038911263820352 O
   0.3117264873096209    0.6918766238721709    0.8050942862405640 O
   0.0030510138593306    0.3602551523960026    0.4476662221642435 O
   0.3530003724419017    0.8079984931683863    0.1943654918777858 O
   0.3536222801957850    0.3088147554529395    0.1927736767575429 O
   0.5021488303181053    0.8938699023603097    0.4458400837053220 O
   0.4997038094187049    0.3935192687621534    0.9449116120333950 O
   0.5000662424163437    0.3899448886799984    0.4473815600257932 O
   0.1683551198608429    0.8884368996537049    0.9491760325644993 O
   0.1699389002090039    0.8899861426376400    0.4460333278883434 O
   0.1707182760276508    0.3896043693485479    0.9473935355286422 O
   0.1698798057644749    0.3906885987656515    0.4476973941917974 O
   0.6713800955686253    0.8619016075178818    0.9489685858734332 O
   0.6709896559293967    0.8580365439845051    0.4491207337677582 O
   0.6729883157160130    0.3657542739098568    0.9518085519293122 O
   0.6688817957966500    0.3636303692818749    0.4496161631055547 O
   0.3363186019107922    0.8596400514077993    0.9445725743894517 O
   0.3353302707849378    0.8577328323155422    0.4442880369726331 O
   0.3365411562701913    0.3609418777907340    0.9470672326010250 O
   0.3362310385399803    0.3612351676873100    0.4472751703156176 O
   0.0017985915527442    0.8619309295900082    0.9476778966089020 O
   0.0034131985540128    0.8576976092413381    0.4462734445235835 O
   0.4995130414060350    0.8917252942164899    0.9481732899101477 O
   0.3527715715051887    0.3117132834403419    0.6936520807202471 O
   0.8345896177602284    0.3903962293179287    0.4442698174621936 O
   0.8380486044966122    0.8885557384146016    0.4487065807077301 O
   0.0195265165300161    0.8094307100918392    0.6921886413829924 O
   0.0190472262011301    0.8093062249679877    0.1922249884493375 O
   0.0203481753831083    0.3086015052334031    0.6931743160777614 O
   0.0234419890455007    0.3073079471282095    0.1941841218886297 O
   0.9979893332552915    0.6397084408382590    0.5517807395931459 O
   0.9964037351650686    0.6385565333988457    0.0537222930484989 O
   0.9986888485184027    0.1426638570802316    0.5546697760057633 O
   0.9959527937474768    0.1403170167289257    0.0508710846624223 O
   0.6634786990834085    0.6358444075656736    0.5505763948861903 O
   0.6594272342008011    0.6350221281184265    0.0481948573413597 O
   0.6649856912556791    0.1420839103600753    0.5572387469984738 O
   0.6603963519741637    0.1366052783829368    0.0523804324621819 O
   0.3325927843898603    0.6411114639085707    0.5525572817149316 O
   0.3305379254352315    0.6385662988868404    0.0509470526551299 O
   0.3319288097451932    0.1426045910970852    0.5539590064399708 O
   0.3289635319201208    0.1391650114575580    0.0492413014859469 O
   0.2428523520359252    0.2251390030584388    0.9402037427215524 O
   0.8324296703118159    0.3924143143869052    0.9422678995455195 O
   0.2424144110751757    0.2253869872817870    0.4413085081998350 O
   0.8537249330965562    0.9413835874397775    0.6925390009979080 O
   0.7430616051452782    0.5275789323594177    0.4431725665775337 O
   0.6130203929757754    0.5420939610475604    0.3936041332510519 O
   0.6116467338934095    0.5407317276059839    0.8919618046475254 O
   0.9451034954788441    0.0380786404575867    0.3973459022533876 O
   0.9457822425068720    0.0418852206171579    0.8944688308132270 O
   0.9458497462274789    0.5395283088834558    0.3951978549874684 O
   0.1121443358690787    0.2107720876307454    0.3947139790754014 O
   0.6117774222939557    0.0393986909982508    0.8930846311525343 O
   0.1118326096751013    0.2114373109271717    0.8952058472592694 O
   0.1131216821885930    0.7097298106362908    0.8946011470377934 O
   0.4462767893644620    0.2088679090158941    0.3966204645833680 O
   0.4447996312751135    0.2122348545029143    0.8963658388937300 O
   0.4458763081911043    0.7129209694029158    0.3962165345007159 O
   0.4448328200342764    0.7122772653209548    0.8940574386053503 O
   0.7801947198584078    0.2084387519492992    0.3952923377957303 O
   0.1118952081293271    0.7097618774032960    0.3963528698964634 O
   0.6124600029653668    0.0376002332991344    0.3980960092571108 O
   0.2783270456659914    0.5408716500856814    0.8935377348667626 O
   0.2784620034703614    0.5412137016970752    0.3950911461675314 O
   0.7414387897543704    0.5315285700916832    0.9390562113268601 O
   0.2200354395340992    0.2887247783460049    0.1036700759717916 O
   0.2216395781480750    0.2909208148776821    0.6058753288362145 O
   0.2201361123164449    0.7912210787196483    0.1065871496353505 O
   0.2215431753532359    0.7901187234948210    0.6074911098354313 O
   0.5538138255560976    0.2869301039477560    0.1042224635099188 O
   0.5562031782890542    0.2894414441345805    0.6047547741023537 O
   0.5548735356908058    0.7882435025736917    0.1048969174221300 O
   0.5553917149164034    0.7907026890485900    0.6037295456875089 O
   0.8879407295902468    0.2871549478502315    0.1042004953970188 O
   0.8883870966572575    0.2891678001963351    0.6048356360692567 O
   0.8864178468813797    0.7882298468344959    0.1035315523543764 O
   0.8867517112375145    0.7910258354900589    0.6036436974019760 O
   0.2781260136187226    0.0385095135250655    0.3948592700054515 O
   0.2773749425565417    0.0391518811402198    0.8929867520422116 O
   0.7787073657257987    0.2110116524539042    0.8922611713684392 O
   0.7780842664254710    0.7098596095432262    0.3971706329341623 O
   0.9454363919216793    0.5376990995331231    0.8941164382473002 O
   0.0549306667535728    0.4585375921017528    0.1051021092713560 O
   0.4255531655254786    0.7758944193979338    0.5559536182672161 O
   0.7565904212681211    0.2700695575890526    0.0596831206989318 O
   0.7570254389824566    0.2748690072989217    0.5584568888871452 O
   0.7552459931729475    0.7676302631249931    0.0563026906729100 O
   0.7565967309871073    0.7730468569818326    0.5597922186501684 O
   0.0758763095735158    0.0242241673002766    0.4402030773757835 O
   0.0759455253958821    0.0267020514135684    0.9407701889563815 O
   0.0762499476703004    0.5267854546108541    0.4434836896545289 O
   0.7780938988445401    0.7129742079734920    0.8965314881825053 O
   0.4087578567036795    0.0239336183534191    0.4415921614855449 O
   0.4069888643591423    0.0292987787683760    0.9401455573642679 O
   0.4088577138942837    0.5278271101048910    0.4437104878972779 O
   0.4078250677621552    0.5277959957931784    0.9413501447390857 O
   0.7439919999921520    0.0214275045170546    0.4417406523481840 O
   0.7424609837121463    0.0263667745601105    0.9406063924424125 O
   0.4249057937369379    0.7741311715942149    0.0575553259670373 O
   0.4256746800327560    0.2761931256130352    0.5592028148010963 O
   0.0764749828170183    0.5213724403730061    0.9423852776508685 O
   0.0908932337798312    0.7730793965077875    0.5586371315539727 O
   0.4235619432962202    0.2713632169206011    0.0570317890213974 O
   0.0563048558042278    0.9622222792245184    0.1037386418743598 O
   0.0532670376066717    0.9616461906281046    0.6044713672237301 O
   0.0551509277410690    0.4606359433033766    0.6054581901398322 O
   0.3890724661882247    0.4616844539883738    0.6056352412537432 O
   0.3881289383492870    0.9611897170581386    0.1027096170395145 O
   0.3883104945460023    0.9620524920547766    0.6047139558688577 O
   0.3866249372315703    0.4596112130698038    0.1038952229845012 O
   0.7215247120086700    0.4588206571351416    0.6079621129942943 O
   0.7203409873785972    0.9581452512449041    0.1056680804739172 O
   0.8539365695112525    0.9410242444386107    0.1949807691252017 O
   0.0904237120935869    0.2729978184337196    0.0577802060308725 O
   0.0911630376062279    0.2773136408632582    0.5594905023101787 O
   0.7208016543129377    0.4599249740618203    0.1074724610443828 O
   0.0899806181485584    0.7771670249907290    0.0604814921246129 O
   0.0090500589466199    0.4578346158258706    0.4014907804095526 Si
   0.0079103744018836    0.4551181677101002    0.9002571527666238 Si
   0.0075281631100804    0.9562208376101556    0.4005655486510418 Si
   0.0080690082167142    0.9585651509588380    0.9008323777425745 Si
   0.3409568718799768    0.4583394422704898    0.8999236623260094 Si
   0.3406628817898646    0.9565504895886752    0.3996685568290195 Si
   0.3409248370485120    0.9581383112916393    0.8991060261240821 Si
   0.6755599242315806    0.4593650785229487    0.4013695942032222 Si
   0.3415130550391595    0.4594324310274311    0.4016565597298525 Si
   0.8256379159657741    0.7067360941177636    0.5992497364402372 Si
   0.4915364803484857    0.2043900566334107    0.0996406674799001 Si
   0.8254316926016154    0.2074386200167422    0.5990202996154644 Si
   0.8259705522952219    0.2044820026057497    0.1000052175379091 Si
   0.4929072140349208    0.7084275075629235    0.5995652969872866 Si
   0.4923949357145784    0.7061332155771489    0.0996982877285487 Si
   0.4934912881436049    0.2072481979675759    0.5987776997549960 Si
   0.1592787749352553    0.7066130993826971    0.6004551448205253 Si
   0.1577656410954888    0.7084939549210971    0.1000921760470922 Si
   0.1588156971182615    0.2089502961420042    0.5996629302440711 Si
   0.1582870511898451    0.2054730351091390    0.0995945027907631 Si
   0.6752687508543364    0.4596431536721631    0.8997354228312010 Si
   0.8250108108337407    0.7042219130647659    0.0989875753697777 Si
   0.6747320569687122    0.9551981811961787    0.4018365165473123 Si
   0.8409266097634747    0.7941181277240161    0.9004042535771474 Si
   0.1744362781625148    0.2934956905533028    0.4005578558620685 Si
   0.6749586030095286    0.9576716136152476    0.8998512246536142 Si
   0.9917721042491439    0.5424073833593536    0.5980864739409248 Si
   0.9915145929355998    0.5397668721933651    0.0987709785656499 Si
   0.9912800602373146    0.0447069192842731    0.5995738411194106 Si
   0.6582141231956375    0.5406856357602787    0.5997201933252340 Si
   0.6569384102536259    0.5407544792428557    0.0996151668760843 Si
   0.6587160244244786    0.0424386018736379    0.6004176478161628 Si
   0.6573699282453813    0.0397124908009868    0.1003984124778542 Si
   0.3264879249451963    0.5443356894875593    0.5995127768045011 Si
   0.3246964710312507    0.5427214301511258    0.0988737656065096 Si
   0.3254808919531204    0.0443084099518000    0.5990190284448992 Si
   0.9931534982288236    0.0433620149838253    0.0989514446159123 Si
   0.8410253145537938    0.7910560497885218    0.4012623647007076 Si
   0.3249555583524162    0.0427077968270785    0.0974352631833576 Si
   0.1747507918885764    0.2927972664816115    0.8997186644590079 Si
   0.1747299378186994    0.7915017443708298    0.4005746650424822 Si
   0.5084009934664343    0.2920671128196992    0.4029028821983227 Si
   0.1753330719238403    0.7928040018352467    0.9011295407907838 Si
   0.5089128442005275    0.7948001071337167    0.4017186919583870 Si
   0.5068539507874452    0.7958013438720396    0.9005271510200880 Si
   0.8419049888946305    0.2918303628280625    0.4002664554803901 Si
   0.8411206698113161    0.2939922307372468    0.8984327806688334 Si
   0.5069663068164585    0.2951393534235467    0.9006247275114624 Si
   0.9815073945711259    0.3191791801819200    0.5624282437065978 Tm
   0.8529355130456482    0.5691095365895469    0.4374708838889984 Tm
   0.9815553937164549    0.3170005075212589    0.0629338601538093 Tm
   0.6471951113444082    0.8172926063380970    0.0624071119732529 Tm
   0.6473120814477755    0.3185583351110780    0.0639351431581828 Tm
   0.1859448002771264    0.5692754936000186    0.4380624979975989 Tm
   0.8138263182799269    0.9298562985681424    0.5618647542028010 Tm
   0.3520418665590929    0.6809489183100854    0.9360014011699317 Tm
   0.3521285993348570    0.6821838700276504    0.4367833655790210 Tm
   0.0184935547468814    0.1823990921041787    0.9365082178369712 Tm
   0.4813741312062834    0.9316370927421010    0.5622116153375701 Tm
   0.4814253938555619    0.4295712782299012    0.5635578593531264 Tm
   0.9799295066030661    0.8209009405964307    0.0617819686965727 Tm
   0.1859816829229737    0.0703449919661274    0.4372201845399777 Tm
   0.0755341221275436    0.1870630975751610    0.7631245878111573 Tm
   0.1467560441473907    0.4290667471167711    0.0616288462230293 Tm
   0.7588209003879289    0.4342439884338825    0.7382928126351072 Tm
   0.7572436696045166    0.4345742420708339    0.2381292509425834 Tm
   0.5900400871549127    0.8129893308459055    0.2366646105145962 Tm
   0.2422897155616415    0.5647567375058637    0.2633030490103972 Tm
   0.4239264495085475    0.9366004331310951    0.7364118875220869 Tm
   0.9094879187674046    0.0625563456260597    0.2645981305775312 Tm
   0.7419316325787891    0.1846074225101519    0.7616291372772255 Tm
   0.7573836204800178    0.9361475840991208    0.7362979788485107 Tm
   0.8125323539599468    0.4295634047196315    0.0609840176927471 Y
   0.8138792316251733    0.4318953731364094    0.5617434459152411 Y
   0.8129663014510080    0.9303798437141416    0.0609288904076444 Y
   0.6876153809593946    0.1796876287930156    0.4407739521274996 Y
   0.9243318110464578    0.3131350443251086    0.2388115962754674 Y
   0.1475024241469931    0.9313941849726891    0.5623971246132006 Y
   0.0199912510565509    0.6801787176921368    0.9386372570193018 Y
   0.5901087511478799    0.3141790836279412    0.2387279091940041 Y
   0.2557486833204982    0.3139066835475527    0.2383257091180227 Y
   0.4101242415664186    0.1852381417639052    0.2623586992694584 Y
   0.4096999589993677    0.1865054754410069    0.7617807955133729 Y
   0.5191652863710114    0.0691634604242514    0.9389467977095934 Y
   0.5210149522706902    0.5699188111448650    0.4402486050541631 Y
   0.5197570081222224    0.5706367503681161    0.9378547245074523 Y
   0.3129782664905497    0.8185156624804222    0.0604038690043161 Y
   0.3140828559959245    0.8186958602881886    0.5619252714579444 Y
   0.4227286545308370    0.9354691002575279    0.2375109413586341 Y
   0.4233352403259669    0.4367599507190336    0.2385695106532372 Y
   0.0903537485132724    0.9362693584373948    0.2378158608239163 Y
   0.7431086415885870    0.6861497334719305    0.7618427530519747 Y
   0.0760865422614138    0.6839674646965385    0.2614657479328815 Y
   0.0765840790231384    0.6849128111030143    0.7609158893891709 Y
   0.6858532733850657    0.1819620813877803    0.9376736780147757 Y
   0.0903042489209186    0.9367662854691312    0.7386284172853707 Y
