Yb21 Gd22 Y21 Nb64 O256
1.0
  15.1932653937648681   -0.0004195585567397    0.0041701708607692
  -0.0004357684039940   15.6721281399401740   -0.0095384565010087
   0.0057886110537184   -0.0133443028253927   21.8893290039370108
Gd Nb O Y Yb
22 64 256 21 21
direct
   0.6438572032144951    0.3310385260084195    0.4839030740606237 Gd
   0.3586528264525108    0.0801654913476471    0.2658968478713787 Gd
   0.6473636302725251    0.8273599671060272    0.4835833483087022 Gd
   0.8492811534320602    0.5735108158163290    0.2663839880777064 Gd
   0.8544360146995607    0.5719976839380343    0.7671647245573684 Gd
   0.1027620892584842    0.1736018192257579    0.7332799638545529 Gd
   0.1435290796420344    0.3304163821021787    0.4834917139252217 Gd
   0.6077872548766635    0.0804545203835089    0.9836431448490676 Gd
   0.6023222378925912    0.6709488162134031    0.7342014822371614 Gd
   0.3931502802554215    0.9180230171782716    0.0167135332117561 Gd
   0.3566969623233691    0.0793218183396935    0.7656594704213285 Gd
   0.8923994422084885    0.3315049371994492    0.2651456095235847 Gd
   0.3978722169737452    0.8262379802772830    0.2659652237194248 Gd
   0.8919342530150971    0.9193724537699393    0.0174616455686855 Gd
   0.6445657415992050    0.9201085570870924    0.7352743048504331 Gd
   0.3946176018110940    0.9181550215500540    0.5155749597918265 Gd
   0.6447909938990690    0.4182274705342084    0.7334194740030499 Gd
   0.3549354604743893    0.6709518031144279    0.0152382307668670 Gd
   0.3548482859292176    0.6683408052450192    0.5155712515630645 Gd
   0.8560618302309650    0.1713383682095165    0.0165154118902214 Gd
   0.3553619929748740    0.5789314276887779    0.2659751918495990 Gd
   0.1437477376959756    0.9204758696600632    0.7323862952501242 Gd
   0.7525258063466218    0.4501613381067347    0.3775960332038927 Nb
   0.5033454082737876    0.2964116054501202    0.6237791468762730 Nb
   0.0024788245052950    0.9521299092581487    0.3672422255661206 Nb
   0.7558738010024818    0.9517124806131469    0.8755561122513885 Nb
   0.0078602238189183    0.4506687129307437    0.8741089776460568 Nb
   0.7521324317447113    0.4501099097267010    0.8778706159379411 Nb
   0.2478487620265475    0.2008396192822723    0.3734007594707024 Nb
   0.0044535718135272    0.4530446089555544    0.3749647918642516 Nb
   0.5058490874510918    0.7984032438298051    0.1246945879966791 Nb
   0.2537447160240247    0.4511669344104545    0.3764994904301762 Nb
   0.7465179704937560    0.6998507906905512    0.8773443485944685 Nb
   0.7583966022751155    0.9510183817740328    0.3728450444933348 Nb
   0.7455061867351479    0.2004754326843605    0.8714139376029267 Nb
   0.7483989636148384    0.1998587831776538    0.3737942152320061 Nb
   0.2428992142449744    0.7015672390859490    0.8727363226048265 Nb
   0.2527501415553928    0.9480149694040146    0.3714742718220686 Nb
   0.2425800088213949    0.7001831594123882    0.3738422740065839 Nb
   0.2447552719042503    0.2018094255113020    0.8755437560038379 Nb
   0.2517207137563075    0.9478552598499218    0.8734303078275093 Nb
   0.7431745525874505    0.6993204550805174    0.3762664712316481 Nb
   0.2534594117887629    0.4521834942198601    0.8812084868470627 Nb
   0.7465521550413141    0.0486610786086780    0.1257576388965110 Nb
   0.5049736788929896    0.4517747353267988    0.3735251914542922 Nb
   0.7560421983336220    0.7980725107706454    0.6285677407534394 Nb
   0.7544429541163704    0.7988344996276706    0.1290263122340054 Nb
   0.7545525148945825    0.2975782995114636    0.6253493150218981 Nb
   0.7522921871102430    0.3001664239344761    0.1265678263681393 Nb
   0.2556092046061557    0.7981479481985415    0.6269725857453060 Nb
   0.2530995311817048    0.7987047054252505    0.1267515940800789 Nb
   0.2532584378008315    0.3000664345249669    0.6260940762095949 Nb
   0.2556913342864066    0.2969293984917677    0.1292542726471155 Nb
   0.7452472611464974    0.5514107523013551    0.6246449303345635 Nb
   0.7429961689529667    0.5475371105441053    0.1210404219014028 Nb
   0.7453421540495651    0.0506561211351619    0.6254835965975853 Nb
   0.2410124623430471    0.5476826348261875    0.6245752711086734 Nb
   0.2457095075060245    0.5484289085722968    0.1232987437820092 Nb
   0.2458244959023105    0.0506835361652543    0.6221955446852554 Nb
   0.2458151457367784    0.0469644476423193    0.1251004682272023 Nb
   0.9978066521978751    0.7047975302830928    0.8793645122615730 Nb
   0.9940303967446874    0.7029410829391540    0.3796110833461716 Nb
   0.9958684002673929    0.2015123487486590    0.8771460202681124 Nb
   0.9947143460349952    0.2005784933080075    0.3745968952996065 Nb
   0.4961687266015264    0.7021969195899113    0.8764941741820441 Nb
   0.4960682318019112    0.6994715312864035    0.3770581289576487 Nb
   0.4955540606434279    0.2006915243969721    0.8754359016806182 Nb
   0.4974823732057029    0.2022058708427665    0.3754014222312289 Nb
   0.5018395810439495    0.9498110438668967    0.8734432241072668 Nb
   0.5060420426166151    0.9505599044642112    0.3741336035308031 Nb
   0.5033769486243981    0.3026450407953784    0.1282934764893509 Nb
   0.5031238772915217    0.4505938813108438    0.8779570147668926 Nb
   0.0008673872202598    0.9536329254330582    0.8696083939906820 Nb
   0.0046779855644126    0.7986213072161822    0.6258558441972973 Nb
   0.5053677887514749    0.7985680507026802    0.6240435679180367 Nb
   0.0020311137806089    0.2987993704397930    0.6226640832749799 Nb
   0.0054981479494482    0.7999988974464357    0.1248894943933616 Nb
   0.4988196396377042    0.0489956512887128    0.1265602417180351 Nb
   0.4982086059235148    0.0483832309064869    0.6263551150327215 Nb
   0.4946840754120754    0.5471513839219400    0.6254328970669188 Nb
   0.9968801029657776    0.0497559240235446    0.1274577857049393 Nb
   0.4976104728989334    0.5500689200101265    0.1246332364950239 Nb
   0.9944414902089025    0.5499388476236574    0.1272070731022304 Nb
   0.9974349399899529    0.5476703843333726    0.6304043129372350 Nb
   0.0073347065120858    0.3003652233572126    0.1226338247723701 Nb
   0.9947139677864021    0.0491042694838517    0.6250625194267361 Nb
   0.4832135900675776    0.3190586723996907    0.3553102549241622 O
   0.2641974235079754    0.5680658483714476    0.8529252294848255 O
   0.7642917383403460    0.5694292905461110    0.8554751227274282 O
   0.7627818289671247    0.5708239418939448    0.3553522798232805 O
   0.7671612783669147    0.0698272801446801    0.8562142878431818 O
   0.7656750052373518    0.0703014668065010    0.3549482702257836 O
   0.2642474265841933    0.5710771652231220    0.3553451316854524 O
   0.5552912823285153    0.7194428151405012    0.4531024254283031 O
   0.2642327930854794    0.0679385075801797    0.3552173781055644 O
   0.7346501405479428    0.8189237390178304    0.8963020012537479 O
   0.5558616303369222    0.2191717814593921    0.9524708126806762 O
   0.4813387917296568    0.3188126438871883    0.8531651235448247 O
   0.5595798902506132    0.7182171688763543    0.9508644323127030 O
   0.3079786921419169    0.0327606641196377    0.0476550679454258 O
   0.2644366902261303    0.0678011146084286    0.8550327990127796 O
   0.4840402135566268    0.8194940166696422    0.3555205741189921 O
   0.9861782619903815    0.8219428165921968    0.8567959322666538 O
   0.9822241426452549    0.3197231383908952    0.3544098100564795 O
   0.2663972358516364    0.6799775929788576    0.6036194507566583 O
   0.2667763132732384    0.6797165393263929    0.1053207278838324 O
   0.2692817031830970    0.1819756507143959    0.6011977429450961 O
   0.2678846346705991    0.1801879170567440    0.1043988849792465 O
   0.5132561654180168    0.5684062178409482    0.8949701683850341 O
   0.5161880240189286    0.5703433925889476    0.3954531371992307 O
   0.5139622264158180    0.0690147195231459    0.8962519810712091 O
   0.5191349194597566    0.0684259300045854    0.3972062350206179 O
   0.0168435247364331    0.5705861915860041    0.8934922991804444 O
   0.0158249864221885    0.5705329126990908    0.3953607323319483 O
   0.0154612224927886    0.0708836817775056    0.8957673644371485 O
   0.0185214971067788    0.0686043003758817    0.3958049600336946 O
   0.3094482014327191    0.0330802305849730    0.5463370865800190 O
   0.9846355107682814    0.8204384482569873    0.3557777929761290 O
   0.9833935747591867    0.3209145607698839    0.8561891881525263 O
   0.4842981529565701    0.8192112304817799    0.8534779583045936 O
   0.3071877782199892    0.5334701509201887    0.0484800730422839 O
   0.7376696189229015    0.8207819880057666    0.3947267097237921 O
   0.8094142712295563    0.0340262178818988    0.0470858745803469 O
   0.4864353635077127    0.4303234577017160    0.1060835318102732 O
   0.4836325477858117    0.4287702456800727    0.6032837426109215 O
   0.4853641000765759    0.9305157361416611    0.1041725807968431 O
   0.4860548358707730    0.9292026366600874    0.6036122418177896 O
   0.9837500452622344    0.4315252660109129    0.1034527998146299 O
   0.9844567751851788    0.4289387360632456    0.6057612240365583 O
   0.9854025874223776    0.9306605854130185    0.1041626135428950 O
   0.9851322780663178    0.9294087052834148    0.6034358045773699 O
   0.2359456623659500    0.3195676856459925    0.3958237194747836 O
   0.2357567255726696    0.3197063654096450    0.8964201647964273 O
   0.2307254240064409    0.8197804433241914    0.3955796015333926 O
   0.2313405388289272    0.8191838787321118    0.8956830014490885 O
   0.7364707352181565    0.3201652622184942    0.3959898311712842 O
   0.7315667785797042    0.3195942552592940    0.8947133557694722 O
   0.7647686013963876    0.1818655235991049    0.1028517846375953 O
   0.5153528555159274    0.6790691768319886    0.6439521368688802 O
   0.3063531004951818    0.5322478470522946    0.5479860848606499 O
   0.5146329339830821    0.6800676483197834    0.1441983903914268 O
   0.5153561685711774    0.1816273509927745    0.1450812364545882 O
   0.8044894063160802    0.0292536080564873    0.5454856246654195 O
   0.8089915617727764    0.5331427470110955    0.0465410677062804 O
   0.8149979366053060    0.5354854833891162    0.5476660807493555 O
   0.1911272013410628    0.2826058706065026    0.2045298252352465 O
   0.1935108029091689    0.2817501619626256    0.7017001503691933 O
   0.1931036784916302    0.7789942681499887    0.2028983076902756 O
   0.1909702126986206    0.7842694422098957    0.7005868476153898 O
   0.6910594715568217    0.2821647895716710    0.2014357678676666 O
   0.6896837644637629    0.2842882781220220    0.6997277641322933 O
   0.6970175697382797    0.7829005971630980    0.2041239348311168 O
   0.6961232597088308    0.7819276336301055    0.7048164225415399 O
   0.0190402357973467    0.1819795030713538    0.1457974543240461 O
   0.0147995899153089    0.1786001146859160    0.6429079107777266 O
   0.0161238703678835    0.6794802262363342    0.1456832116513442 O
   0.0118605946077877    0.6793865787332041    0.6432030185935359 O
   0.5148918188646281    0.1792367477196628    0.6451163983888916 O
   0.7669849677036692    0.1804036305947721    0.6028377643769262 O
   0.8708839272418283    0.8100457804410277    0.6611668674184433 O
   0.7667015676428052    0.6811033233448460    0.6045354566870926 O
   0.2781445815204909    0.8280411548328935    0.0380779850536439 O
   0.2742755982328218    0.3387220077249087    0.5382655360145147 O
   0.2881236995611643    0.3275201706694481    0.0399894779604597 O
   0.7234201003999680    0.5833788458580216    0.7125048274533242 O
   0.7166711195984635    0.5818670666024430    0.2098737713184998 O
   0.7228547137881837    0.0792193166828105    0.7106299738653795 O
   0.2755024564978785    0.8315168772866004    0.5368990849012492 O
   0.7232170574819948    0.0859414040820159    0.2102633074534324 O
   0.2217523332826608    0.5833442773759242    0.2123217526248737 O
   0.2246144026363194    0.0835114439475807    0.7107568545087776 O
   0.2264971157969087    0.0870016428294782    0.2116720495149178 O
   0.5301449333998365    0.8268864035019304    0.7119718307562745 O
   0.5288345087391051    0.8291190068297611    0.2117370101242486 O
   0.5238827058867899    0.3327827473627886    0.7112895754151424 O
   0.2244056288593373    0.5831363492714571    0.7105312130400411 O
   0.7761454499452654    0.3338304546500547    0.0369639233224889 O
   0.7741685653397971    0.3400596342624791    0.5391167096468361 O
   0.7774014983512850    0.8271897993840975    0.0358675006455672 O
   0.9725680297598903    0.1743836539923599    0.7876791785133014 O
   0.9772015257607479    0.1685262833308459    0.2875351513987907 O
   0.4732409735983897    0.6639325416712980    0.7884922196090480 O
   0.4694476020918106    0.6722172408311942    0.2879577581557680 O
   0.4707275555635692    0.1713730602783233    0.7868641221274191 O
   0.4783740485660731    0.1634209555594405    0.2883033130335023 O
   0.5247191629114796    0.9157187675314257    0.9621280004589702 O
   0.5281275833103668    0.9169529677917028    0.4626342409051808 O
   0.5281755418894516    0.4131362186865084    0.9599803607103254 O
   0.5245846698789232    0.4165826106636136    0.4623122400245220 O
   0.0347963099310760    0.9248157910749186    0.9625796096330673 O
   0.0360875920206848    0.9184894666228667    0.4614739607271997 O
   0.0270248811771209    0.4256174232496622    0.9633241554371714 O
   0.0239695028355860    0.4156717669313310    0.4624025748717870 O
   0.7842738644838717    0.8331255912259443    0.5387246190540802 O
   0.5278161880702760    0.3282842366788060    0.2122303933906493 O
   0.0272727264065605    0.8328622463588148    0.7106418561081331 O
   0.0292512533497311    0.8235159631520275    0.2123031184788325 O
   0.0263635155708130    0.3254109964914466    0.7124346519208746 O
   0.7796341949031143    0.9197598086257280    0.2896757228404819 O
   0.7781319430808823    0.4200168951222382    0.7872490655449846 O
   0.7789062486298051    0.4249080284985511    0.2873831262593334 O
   0.2743863825021859    0.9175982772629617    0.7883097988176795 O
   0.2782066119290180    0.9171096039720031    0.2880199311783012 O
   0.2875189450555732    0.4188708677923186    0.7888947167162751 O
   0.2743531112470067    0.4231599953393457    0.2871511616223748 O
   0.7328216551956263    0.9301353443126831    0.6446083482796283 O
   0.7349035676274390    0.9307207571505528    0.1446284981567615 O
   0.7361018699485095    0.4325544330055881    0.6454906591267179 O
   0.7328036353703347    0.4305621772920377    0.1445212525967428 O
   0.2334980057240087    0.9319179989199129    0.6432660656983644 O
   0.2348665890638922    0.9299189879285562    0.1465774113088516 O
   0.2313807417203939    0.4304176440489883    0.6460480124515703 O
   0.2332975207526223    0.4298497756019774    0.1464726499314182 O
   0.7746044911464501    0.9163834944308676    0.7902200525996790 O
   0.7673781376069697    0.6796353261577888    0.1051267832043530 O
   0.2266644786381773    0.1670305834973007    0.4627116811549883 O
   0.2196763137139743    0.6742830327929891    0.4628353264596275 O
   0.0264210235227189    0.3348389013269841    0.2112244406233777 O
   0.9611713357463528    0.5715903907610000    0.5381037655664406 O
   0.9723510650827359    0.5833190162703582    0.0385806012751784 O
   0.9718793149691122    0.0719994116458243    0.5347857154678940 O
   0.5594302112501307    0.2153864162568202    0.4523343485745397 O
   0.9762916195173745    0.0840545724148450    0.0380316756385519 O
   0.4708630640670029    0.5771467457721995    0.5377945821991161 O
   0.4705465571506569    0.5795044316018897    0.0377904908963751 O
   0.4765220179059719    0.0805549832053241    0.5362229090547218 O
   0.4751113847072090    0.0833406097693017    0.0372345468017021 O
   0.7249349554009958    0.6697512060842978    0.9626917064890750 O
   0.7199844346224304    0.6766503708759132    0.4622918269783499 O
   0.7220595057829100    0.1736037923493065    0.9636214731795950 O
   0.7232257945554977    0.1692405540288113    0.4617244609248222 O
   0.2225698149933932    0.6631717791835879    0.9607170182961255 O
   0.2250756412947747    0.1644507012773829    0.9624587919197415 O
   0.0576440130096044    0.7138872363168857    0.9545713943261314 O
   0.9645044028104569    0.6698068660366611    0.7893464988797377 O
   0.0602763738303089    0.2172374583880053    0.9514000013525685 O
   0.1270331587766313    0.6917658529110875    0.8379867519177978 O
   0.6324568359080986    0.1923915784197655    0.3373266329269455 O
   0.6296377116546942    0.1878203065757890    0.8393296686639021 O
   0.6300878647417273    0.6930901666614669    0.3391015971122086 O
   0.0510513389983219    0.7185489383713416    0.4563014988715178 O
   0.1178537075604069    0.4387577167727670    0.3370968080203590 O
   0.1231839691605208    0.4380357123771166    0.8402721642944163 O
   0.1201782338674583    0.9403698544163601    0.3371288253206847 O
   0.1178362886179878    0.9429601720784548    0.8357772210979494 O
   0.6195425669461772    0.4382781969395482    0.3398599422486717 O
   0.6153447651706248    0.4403919943327025    0.8366727602875442 O
   0.6213227344544231    0.9395821601832736    0.3410264667071855 O
   0.6188291049072833    0.9420746973675515    0.8396763330732532 O
   0.3830354134094529    0.1875791260630414    0.4124093880704208 O
   0.3803644384621575    0.1895521087379422    0.9120453064389811 O
   0.3786645224935168    0.6907089077004797    0.4111166476689741 O
   0.3799591933384410    0.6923783550799569    0.9113357157055765 O
   0.8817707976873866    0.1882853780409486    0.4105379249716196 O
   0.8799370119426108    0.1913768403857290    0.9120430574125018 O
   0.8783804576275490    0.6900025565948803    0.4103860273981090 O
   0.8814566002069221    0.6916344938967645    0.9145150851330334 O
   0.1327770066255607    0.0598530522211289    0.0871111085575626 O
   0.1316017991909939    0.0621226371491732    0.5859053171308556 O
   0.1265265175566694    0.6909303976295483    0.3377516725315094 O
   0.1303657131867349    0.5587471204113201    0.0873806619885534 O
   0.1309360585244914    0.1905983176631696    0.8379870683841384 O
   0.8716033294205663    0.9398713484406374    0.9128083679512303 O
   0.3820119696198971    0.0579048267266740    0.1615830343381018 O
   0.3813781675344001    0.0588579332158901    0.6604444113949537 O
   0.3821511778217343    0.5573199332037840    0.1624807973232716 O
   0.3807893798530413    0.5573831485519177    0.6621475081113279 O
   0.8817362853768047    0.0609393116987973    0.1604354470241151 O
   0.8802786024009098    0.0588360525403913    0.6589272699885809 O
   0.8787183563989756    0.5577601920601577    0.1625164143193777 O
   0.8803197743362812    0.5571083011435974    0.6637906067414616 O
   0.1224958172452052    0.3108976647488031    0.0886354729384347 O
   0.1185739161172392    0.3068734058627761    0.5877084332054878 O
   0.1202797343496009    0.8097273274978805    0.0904516279179417 O
   0.1177568828667352    0.8076074642571377    0.5869694012340732 O
   0.6156833323323800    0.3085304526331621    0.0862503392451468 O
   0.6180935319756421    0.3075494860306786    0.5874014663726268 O
   0.6208828587248534    0.8093782215311957    0.0881801921687072 O
   0.6218825594745188    0.8080237685021919    0.5883234056462258 O
   0.3685119987190487    0.4424299208961601    0.4129344414505454 O
   0.3701850379171114    0.4422020677298615    0.9125154553260439 O
   0.3657151888535792    0.9398185410118685    0.4120369126846209 O
   0.3652782298739058    0.9398679894753812    0.9124795712730573 O
   0.8690157508927384    0.4433760586423552    0.4127085297400370 O
   0.8682291568744978    0.4412485617350760    0.9125701026013084 O
   0.8741076211857232    0.9420365642824178    0.4119757943993957 O
   0.1332602212652756    0.1913319426269624    0.3370585277297143 O
   0.1266292510930109    0.5605289180177552    0.5887421790053768 O
   0.6334444335473871    0.6915657725587855    0.8374544784987622 O
   0.6309711770700515    0.0607708943480549    0.5875534783288572 O
   0.1832435102833180    0.9649711700550148    0.4533400709920664 O
   0.1805209870514428    0.9664204345137055    0.9516476769493093 O
   0.6913829089005239    0.4687280871593494    0.4524244964493415 O
   0.6890615394395362    0.4647448797755506    0.9517799369375234 O
   0.6966437450923512    0.9668821717841730    0.4551473642177232 O
   0.6917292399294576    0.9641464380057232    0.9532069463730430 O
   0.3129662884516297    0.2155148500807468    0.2998845188045098 O
   0.3069330394287507    0.2162508048852508    0.7986251237704663 O
   0.3047884169451331    0.7182693473500634    0.2979236432089005 O
   0.3064054720396774    0.7142193575477606    0.7977279841025807 O
   0.8097239452239308    0.2198745038403257    0.2982722675574212 O
   0.8064595921612993    0.2203987757179430    0.7975955715496986 O
   0.8105341630269592    0.7147988765222492    0.2960848487905565 O
   0.8181982689118559    0.7139883496035547    0.7995275377345114 O
   0.4431574904037563    0.4690935804127958    0.2982402683043121 O
   0.4327659528308366    0.4642546839413816    0.7961903545740869 O
   0.4432798769909579    0.9662531788954699    0.2980627351554516 O
   0.4405986655021606    0.9674908253042159    0.7984976669325474 O
   0.6319287991991410    0.0595529667131433    0.0876267341904168 O
   0.9457843907673539    0.4635054037447338    0.7968821056401473 O
   0.9440568703175932    0.9686391993001029    0.2943126187391202 O
   0.9401201582753619    0.9698096523495724    0.7970953397386267 O
   0.0597743832902408    0.2161119366801774    0.4513388644009707 O
   0.1945604131680245    0.4696905763639649    0.9555926119673404 O
   0.1877600156543981    0.4673983053185068    0.4499115814916105 O
   0.9429123011049858    0.4678974813155606    0.2980827751620012 O
   0.9434588614114068    0.7821578630342757    0.0469724362606007 O
   0.9397632479901987    0.7889843879589687    0.5449406349196159 O
   0.6294066484688255    0.5596061159361433    0.0863408791976284 O
   0.6323811760876816    0.5593669398681799    0.5886013815358551 O
   0.3689602663495123    0.3108417561553396    0.1638808985667881 O
   0.3686965702683146    0.3090889594977579    0.6619617822792402 O
   0.3701533014701310    0.8096581645881133    0.1612132354102585 O
   0.3701014695730275    0.8104665115663978    0.6609289976394009 O
   0.8686275364343289    0.3087114782276960    0.6636550127780179 O
   0.8705573867555346    0.8118226579382902    0.1599576824613748 O
   0.9661014479750989    0.6682890686620604    0.2887341218083472 O
   0.0616795695850585    0.0346968008867885    0.2009995358325635 O
   0.0583960695431178    0.0331747492952713    0.7008366521207525 O
   0.8689138704145445    0.3092002348292027    0.1605155232704265 O
   0.0575690964391861    0.5325458164165017    0.7038864433795300 O
   0.5606204362628908    0.0355363508032330    0.2015021271871867 O
   0.5579967087970306    0.0307067050878670    0.7014968023807076 O
   0.5638020096976334    0.5353484811836470    0.2019639984192914 O
   0.5579252967617413    0.5315661471140439    0.7022019162687821 O
   0.4295178791771067    0.2835893628424189    0.0489247175100559 O
   0.4385458602320182    0.2824522436949733    0.5476291413743360 O
   0.4437184102887207    0.7821931066499874    0.0472347146654903 O
   0.4422066479562362    0.7809605569103278    0.5477386755452092 O
   0.9438232596259781    0.2860038787304863    0.0467484167721104 O
   0.0577985035947963    0.5343824290628706    0.2031065102462484 O
   0.9383028112329239    0.2841297249908424    0.5482500345717890 O
   0.1479445552692415    0.8220156840904950    0.4851939266182321 Y
   0.6097753680615973    0.0797040470965983    0.4841527893666693 Y
   0.1025047869956885    0.5778355347952155    0.9847101295796482 Y
   0.1035290878457587    0.0822065947343509    0.9845997256002283 Y
   0.3597806863939043    0.1668066005810803    0.5146101815638144 Y
   0.8981843778784546    0.3273840197031095    0.7663193489563803 Y
   0.3965822096228060    0.3221086692402267    0.7648569197069826 Y
   0.1454151576179866    0.4217033629917138    0.2345138953025712 Y
   0.8543058343839680    0.6729752173830414    0.0174824611909805 Y
   0.6472294828311732    0.3269505707736115    0.9840292108787314 Y
   0.1044401280279377    0.0825789081726587    0.4828982458480420 Y
   0.6447739265611313    0.8290667599519251    0.9845869201942614 Y
   0.3542022398870212    0.1670006275246213    0.0154260283707654 Y
   0.8992086930302957    0.9277081459151192    0.5146841510919963 Y
   0.1057789548937300    0.1694591899753277    0.2343403131993200 Y
   0.8966394839492682    0.4210153058360764    0.5162353423773766 Y
   0.8955335947277849    0.4214037671485812    0.0154977153845625 Y
   0.1028168091246797    0.6733504589044348    0.2340217825840232 Y
   0.6065078762493062    0.1712475463798883    0.2340232650774879 Y
   0.3515583785261013    0.5819430266008453    0.7651559484469111 Y
   0.3951069184669685    0.4221573128370353    0.5160694493243183 Y
   0.8547992465818677    0.0817295563262468    0.2646715270660688 Yb
   0.8558789838923334    0.1681311246604179    0.5144477302760908 Yb
   0.8525823353779464    0.6746879317140115    0.5149168262624374 Yb
   0.1428767959868059    0.4185022709475373    0.7348535352095372 Yb
   0.1426515054989934    0.9174137594611145    0.2337040312975215 Yb
   0.6454900951157908    0.4204442955378300    0.2354431032281428 Yb
   0.6467888007917999    0.9201857610152672    0.2352256603430423 Yb
   0.3939116026304928    0.3331221269583014    0.2675171495763145 Yb
   0.4000540529202598    0.4267829738981977    0.0166417825827449 Yb
   0.8957329472069407    0.8298277667527225    0.2637893855813407 Yb
   0.8963304079281280    0.8317905177799269    0.7655848777822052 Yb
   0.6006599658732553    0.6779815136439153    0.2349341212985119 Yb
   0.6061673412962795    0.1698981131243185    0.7339861238684636 Yb
   0.1038165558755925    0.5800194115416782    0.4847953265038901 Yb
   0.6035129385694734    0.5808581666943374    0.4847360879363906 Yb
   0.6042391696576034    0.5804200395249663    0.9830921352097012 Yb
   0.1431658360995232    0.3315108584631970    0.9847519868827669 Yb
   0.1462496587201988    0.8248757348273472    0.9862111690816014 Yb
   0.8539542212929730    0.0819089752886963    0.7643592427842133 Yb
   0.3946337880174307    0.8280123907724759    0.7658578331038026 Yb
   0.1060024465847615    0.6705735413170558    0.7337720705698291 Yb
