Ta43 Ti43 Al72 V43 Cr44 W43 C144
1.0
   9.0637932462912190  -15.7003486986907426   -0.0014557372283954
   9.0640594055546089   15.7005023772521799    0.0008959235666186
  -0.0005660327789176    0.0013732597297746   18.2616578594769940
Al C Cr Ta Ti V W
72 144 44 43 43 43 43
direct
   0.3326097945086084    0.5102396463812440    0.2508886098414562 Al
   0.4930012374288374    0.8328290336220016    0.2473072438045326 Al
   0.6619299467435152   -0.0117709027732989    0.2448264893525033 Al
   0.6833848880331997    0.1766817194310188    0.2470947430114030 Al
   0.6688239899644589    0.3440520308975897    0.2470456808244635 Al
   0.6576682535162708    0.4916406453697094    0.2443838196365816 Al
   0.6622811598753542    0.6613555090710102    0.2465347461459255 Al
   0.6702740896568066    0.8330405593745740    0.2498018224955190 Al
   0.8319025482810999   -0.0128417536221232    0.2519299695855640 Al
   0.8355660561410745    0.1780238651327260    0.2503320679339487 Al
   0.5031956622510350    0.6754993834663007    0.2548770402695694 Al
   0.8302331815656327    0.3327213660899078    0.2479099000809588 Al
   0.8369890529634491    0.6659929993992184    0.2481673884927398 Al
   0.8264129487323723    0.8335539737180462    0.2439680602886594 Al
   0.8413537154405637    0.0036369893431921    0.7523249565455995 Al
   0.6611802254322653    0.8164405472137222    0.7499019892105619 Al
   0.6648246867672558    0.6658589318292825    0.7424486892761790 Al
   0.6641733958098469    0.4968411317126914    0.7499259568795229 Al
   0.6596851570791996    0.3299778899363363    0.7542535505592929 Al
   0.6672901283522557    0.1711683781416884    0.7473029086596742 Al
   0.6616180086951401    0.0111369628292538    0.7520742314804808 Al
   0.8366303789179417    0.4981492290391189    0.2498195917365613 Al
   0.4966755232366920    0.4919543355110700    0.2457777166453788 Al
   0.5035115735753508    0.3320262953240088    0.2466862620847686 Al
   0.4932529797239010    0.1673780118692087    0.2457961669881834 Al
   0.8290753088440029    0.6738810289743066    0.7463749811505833 Al
   0.8289463287932420    0.8256897087339632    0.7518538617301298 Al
   0.0049997480555079    0.0039043212039452    0.2496946127196635 Al
  -0.0036570895214469    0.1655556855612740    0.2543795149628802 Al
  -0.0046439459863347    0.3356281266533862    0.2504731354394311 Al
  -0.0052804009748108    0.5017930447353456    0.2472883496627750 Al
  -0.0037739390397865    0.6591329879085749    0.2510814583504186 Al
  -0.0012441961704893    0.8261337836255619    0.2479405894168485 Al
   0.1719697590862630    0.0059948160348885    0.2502824961010166 Al
   0.1730742244220011    0.1696683217438569    0.2529338232637382 Al
   0.1653805192445420    0.3294326710345966    0.2523434591424599 Al
   0.1805611489961653    0.5109655072276557    0.2520940627319899 Al
   0.1724965715834592    0.6702771162001736    0.2502218513874694 Al
   0.1760256452736560    0.8337121740042687    0.2531375091118888 Al
   0.3298351948243572   -0.0006844280451025    0.2458596788191381 Al
   0.3364137209343940    0.1670254663433171    0.2500147889476172 Al
   0.3408778899392595    0.3294427020874416    0.2510538504228687 Al
   0.8311070042543515    0.1691741911898346    0.7475295854289110 Al
   0.3330843796134829    0.6657904235061709    0.2497104780326160 Al
   0.3331796166962233    0.8307707628828062    0.2449805907149968 Al
   0.4836608880494854   -0.0137540747991253    0.2463531505832147 Al
   0.4998903736234471    0.8300193251813242    0.7580222685412661 Al
   0.8228960695145708    0.4831851166555656    0.7503077738038910 Al
   0.4924593580409416    0.6610378960658049    0.7473917701013193 Al
   0.5008556662274967    0.3347720532979448    0.7551445754831569 Al
   0.5026261246706418    0.4999769984812267    0.7451708360645146 Al
   0.0030063712328476    0.0007449043382811    0.7548290175708711 Al
   0.0039829979121957    0.1659194681600309    0.7522586798333551 Al
  -0.0060206772868842    0.3329281915161403    0.7510924853992746 Al
  -0.0074916227776512    0.4984206282311018    0.7472768165244030 Al
   0.0165027555631461    0.6761243944070912    0.7505640886398653 Al
  -0.0080785614999581    0.8264724236346744    0.7515832674257241 Al
   0.1748000581197383    0.0101844434608421    0.7547036976038134 Al
   0.1752202528611877    0.1723025812616601    0.7523887828192434 Al
   0.1764101991299636    0.3343457524105592    0.7504437434538810 Al
   0.8345604425633116    0.3305945019544496    0.7499694950469713 Al
   0.1588618111204568    0.6513357067258985    0.7567966796202171 Al
   0.1619780793403350    0.8440061735615869    0.7543330953162498 Al
   0.3332527169655913   -0.0023616440481186    0.7535392949772043 Al
   0.3288301610766663    0.1655654092410708    0.7517282179476948 Al
   0.3270445955723190    0.3299699545100963    0.7489050141447355 Al
   0.3328176370394894    0.5050810648891609    0.7427876520276507 Al
   0.3337781918909556    0.6678455020258180    0.7574884859690235 Al
   0.3443712061539655    0.8407582647708045    0.7576928760886604 Al
   0.4971654428831045    0.0070304557659643    0.7528786366563296 Al
   0.4997598624235374    0.1716889340674459    0.7486438023267556 Al
   0.1632486813994759    0.4903310885373163    0.7471693054868428 Al
   0.0562405606784306    0.2775433055859176    0.0680038311640072 C
   0.6127628789716727    0.3899828944797002    0.9279872736648135 C
   0.0555822539012178    0.6102447792840274    0.0701450465671054 C
   0.0579084914479946    0.7795101238660072    0.0718456893293336 C
   0.2257803982027921    0.4485743385922250    0.0697060448386547 C
   0.2260153703575437    0.1110344286318148    0.0751612373299279 C
   0.2282574759196270    0.2810169720111128    0.0671915163520015 C
   0.0538041247236600    0.1071785761626711    0.0645831903656256 C
   0.2251955309166415    0.6162955263205614    0.0712175815820998 C
   0.0536913547835440    0.9473089811804878    0.0687303770089328 C
   0.9454719551279070    0.8917370483013263    0.9289377993644421 C
   0.7803923395356632    0.8897478290936293    0.9274706125138873 C
   0.9453691152864103    0.5533182978310751    0.9280241370024481 C
   0.9398781092135376    0.3883423904484434    0.9331578504041065 C
   0.9450526921502163    0.2256430135509510    0.9302070727123026 C
   0.9491736708836054    0.0555904919593223    0.9331185242201075 C
   0.7807225083754352    0.7248784242977444    0.9293346008912016 C
   0.7742467879294098    0.5519104795542988    0.9296253826163094 C
   0.7765882134416890    0.3885601971690459    0.9314188788383365 C
   0.7781895405924691    0.2253448874525679    0.9311052427124270 C
   0.7748564022435624    0.0555992755509579    0.9290165911759938 C
   0.6080534641235269    0.7202849494477275    0.9279782894108571 C
   0.9408245977142184    0.7194502814353531    0.5731821172304559 C
   0.9420691145882425    0.7221363635865650    0.9255816003054629 C
   0.6059588372769787    0.8879911579699681    0.9279769978140375 C
   0.9444930130357274    0.8852176592534760    0.5734647438111748 C
   0.0552408029573630    0.1079432974696365    0.4301958156768469 C
   0.8859276061062465    0.2759038152600917    0.4271619314231508 C
   0.8910638411987010    0.4478898721872896    0.4292376944235153 C
   0.8872873484967111    0.6110013719897610    0.4309773962473542 C
   0.8871345980480546    0.7723708368938286    0.4282159762604947 C
   0.8863093493531612    0.9457685932842718    0.4279557662945209 C
   0.1147427943062198    0.0564642940573204    0.9269702095175908 C
   0.1146318486219423    0.2256570436494907    0.9303724715275439 C
   0.1133359663558872    0.3901022269220982    0.9305086581779515 C
   0.1148537434117847    0.5613946736786490    0.9328062172114531 C
   0.1145258321136453    0.7213008238689642    0.9305375855689543 C
   0.1164572470476690    0.8919483469454261    0.9264129923949266 C
   0.2788516143602942    0.0561571725308684    0.9278977132811017 C
   0.2814119513946506    0.2269363438823752    0.9267798149435100 C
   0.2771764342985893    0.3861089215181483    0.9310615845824461 C
   0.2777265855770163    0.5570894634517233    0.9272874347295699 C
   0.2795988602076992    0.7239327596165116    0.9301563949065161 C
   0.2837541756799460    0.8935165431285825    0.9297617829526612 C
   0.4421837207558229    0.0531917373884511    0.9320312284530821 C
   0.4458011185957499    0.2229572370137365    0.9249084598834715 C
   0.4442163020485843    0.3900937275581868    0.9284981656453623 C
   0.4458275856061142    0.5575459423810067    0.9304804924353238 C
   0.4450937568497665    0.7251786783542323    0.9312671588579007 C
   0.4400805152163846    0.8882066606321721    0.9338347656630857 C
   0.6077312257797577    0.0578424746338948    0.9329181677959086 C
   0.6104531906310184    0.2250502048655803    0.9303406693057168 C
   0.8898133225404745    0.1097531935627085    0.4289121582067806 C
   0.7215749014396644    0.9413429473996840    0.4291754197706286 C
   0.7166955849992057    0.7761451110056378    0.4275975881390027 C
   0.7211046807028404    0.6087460746834127    0.4343343844835670 C
   0.0603909438359362    0.2806960999986526    0.4301686223344078 C
   0.0532932319187266    0.4469013614009521    0.4292322017906463 C
   0.0528487984143992    0.6095402801205457    0.4288350745285247 C
   0.0590774974312739    0.7759490985915249    0.4283125422312483 C
   0.0552097761684223    0.9437072770310949    0.4272269898867194 C
   0.2247026819898472    0.1140731015660098    0.4318514784143152 C
   0.2206623626020949    0.2768564259907777    0.4320077851585849 C
   0.2248181106894833    0.4443134713289695    0.4283882896501742 C
   0.2271894967735681    0.6121919933291869    0.4292754281217595 C
   0.2198624780993365    0.7772782570162898    0.4276387640627533 C
   0.2231927812770264    0.9427981562410922    0.4283726310575642 C
   0.3890480401329837    0.1136870055197353    0.4292020465083842 C
   0.2291240710736290    0.7771611893423537    0.0671542678478213 C
   0.3881326168683034    0.2761419282993144    0.4313326888105057 C
   0.3873607720973162    0.6109886361636847    0.4298658263551709 C
   0.3882844721656326    0.7737461698733765    0.4294017554434506 C
   0.3894649029186720    0.9431772025547187    0.4259410812540638 C
   0.5542432671276133    0.1110644219956954    0.4278545406891004 C
   0.5543464960867649    0.2790973924925915    0.4292506380553784 C
   0.5577445679693043    0.4430516608482543    0.4305725927300909 C
   0.5560381199440984    0.6140885426109081    0.4310452483483539 C
   0.5504580445725663    0.7697456433224028    0.4307229634820291 C
   0.5513179460201647    0.9406132841641465    0.4275037793111515 C
   0.7210455692769890    0.1138044138158838    0.4282354827990089 C
   0.7210220378305809    0.2766713432663278    0.4292330716824710 C
   0.7181541794766967    0.4426868645507712    0.4300113810232007 C
   0.3895014391936275    0.4434126178420696    0.4273797451410046 C
   0.2327105046283726    0.9495155583448420    0.0703477483492852 C
   0.0555390980102236    0.4481150234736342    0.0692231313464666 C
   0.3895825991281511    0.1121385129536783    0.0688886909139620 C
   0.2811891568479780    0.0600378939543313    0.5730473066047490 C
   0.1131510960742617    0.8858749156611289    0.5716067830545718 C
   0.1090101807461712    0.7228262054850824    0.5720592208870304 C
   0.1055716172212279    0.5508552897264416    0.5717742704713416 C
   0.1156546830197194    0.3921825283420958    0.5743237436571639 C
   0.1169680158319920    0.2250522841558243    0.5716188672714607 C
   0.1121771970279552    0.0563836041654893    0.5724967941099979 C
   0.8856158959547598    0.9396777570467029    0.0701297152240077 C
   0.8870674956417506    0.7768816955740223    0.0700020399841715 C
   0.8879471184096586    0.6088076630905406    0.0710091394080920 C
   0.2766483769013395    0.2209324190057888    0.5727310923916747 C
   0.8894521332358826    0.4466490229591398    0.0680277968582464 C
   0.8893093054926874    0.1134675167861728    0.0699596586027146 C
   0.7200657610347765    0.9440120882774964    0.0747460709060145 C
   0.7257296159900170    0.7800130551305134    0.0702649155677792 C
   0.7196183257943604    0.6063799189924538    0.0681220433262600 C
   0.7167546904384255    0.4416241556744137    0.0671909983497071 C
   0.7235663902694760    0.2781631707179619    0.0667516890218644 C
   0.7223803678103684    0.1148619824749947    0.0711191706784932 C
   0.5495315195997165    0.9399223126820662    0.0699904659941425 C
   0.5522645946552394    0.7786417791796266    0.0693560251080323 C
   0.5541016400432281    0.6088719745120149    0.0667074137809315 C
   0.8859748567015252    0.2800616962250148    0.0708571179882824 C
   0.2788107727163011    0.3894562414634204    0.5736475786404016 C
   0.2825663961174571    0.5555572575532531    0.5726697990199108 C
   0.2781166775402406    0.7192851372524159    0.5711259754495828 C
   0.9436644963594419    0.5503436929820340    0.5718093731708493 C
   0.9456942678349683    0.3926616553225576    0.5722614706026977 C
   0.9419330679464388    0.2229912003033181    0.5737618100002854 C
   0.9441226467212415    0.0551187185041884    0.5741330395900266 C
   0.7718743127070976    0.8822748201255957    0.5736198602103808 C
   0.7755105750851520    0.7184349599761045    0.5721027315262723 C
   0.7739373504269511    0.5556256453216450    0.5714897873780469 C
   0.7765057012658174    0.3906278901122971    0.5738521378344270 C
   0.7770000051069655    0.2214446322683238    0.5723217168838692 C
   0.7752255380840096    0.0560845438759288    0.5725810849990596 C
   0.6069165000510388    0.8847455101013880    0.5714673593802964 C
   0.6102374063726311    0.7172872790938380    0.5702196921623055 C
   0.6130779907627221    0.5560553840028594    0.5720501936347093 C
   0.6124942849688445    0.3912940379295017    0.5687295972753473 C
   0.6145490647722047    0.2258510644453742    0.5688095995543953 C
   0.6141950855114269    0.0619310460680329    0.5726935599889982 C
   0.4426220822949770    0.8883177859289157    0.5726367216314184 C
   0.4413303665542160    0.7148564042788631    0.5682566073457027 C
   0.4450701979913064    0.5564148340553561    0.5733945171295097 C
   0.4422969849255546    0.3888567822737176    0.5752701992076850 C
   0.4430635497273149    0.2222577927745678    0.5725469510872708 C
   0.4477879740643885    0.0581788415540376    0.5759454521836515 C
   0.2763650300822413    0.8871587981507986    0.5727264401081795 C
   0.5588983356540024    0.4477876728309321    0.0684071470191974 C
   0.5570245186698675    0.2800586721296340    0.0711838803097479 C
   0.6060394292992909    0.5484719420439911    0.9310653427890816 C
   0.3918707071017984    0.9443760974257822    0.0665211658256046 C
   0.5544786879837509    0.1107292034653095    0.0667780745862834 C
   0.3876994192796822    0.7811045665346393    0.0695027717429207 C
   0.3900415181687129    0.6124504901312111    0.0703695539889645 C
   0.3954351783613689    0.4443604322868274    0.0653059833998064 C
   0.3893235705810704    0.2811373148168300    0.0697700869580940 C
   0.3905224666546573    0.6091241221447575    0.6233407512268934 Cr
   0.2257744324160054    0.1146291359489530    0.8751915501050352 Cr
   0.3374176218429224    0.3387495330901469   -0.0037073335186722 Cr
   0.5596282871937200    0.1182434220059012    0.6267723020655430 Cr
   0.6688190943462863    0.5015364816653152    0.5003760171481313 Cr
   0.7227594354398388    0.1148950465410598    0.6257753278088742 Cr
   0.3375490348193413    0.8328694482602534    0.0028687059665500 Cr
   0.4981319597210271    0.0036925686031018   -0.0025241990195301 Cr
   0.7200643712927229    0.6111847519021627    0.6259090938866060 Cr
   0.3866249859509544    0.4452763565331147    0.6275351659638491 Cr
   0.2242902820534637    0.2794843977771106    0.8755599741994845 Cr
   0.2287394747416165    0.9488824541396527    0.8748423959417549 Cr
  -0.0013582423108296    0.4988115490752879    0.5012448470383172 Cr
   0.2275080045874615    0.4449092587453227    0.6264130235471232 Cr
   0.2246747685505218    0.2788158669274171    0.6262494332705504 Cr
   0.3390972765121005   -0.0030760829411510    0.0014660123857808 Cr
   0.3887996865938131    0.7797435884495698    0.8792025363603579 Cr
   0.1738668461282438    0.6676434899501220   -0.0024856326670037 Cr
   0.0527963441671467    0.4437611646096510    0.6276784472810759 Cr
  -0.0085279879070493   -0.0048445865629662    0.0018465358259953 Cr
   0.5576563828151737    0.2803685330056434    0.8742377535361794 Cr
   0.8890804001979659    0.7830567351329827    0.8721723786677307 Cr
   0.9445886701052733    0.5547317729505210    0.1223593712943475 Cr
   0.7791870247071053    0.8889884617510633    0.1254234015137822 Cr
   0.9444468328924206    0.0541483373522758    0.3746222637109898 Cr
   0.5567555949250067    0.6114896079666325    0.6247437581376906 Cr
   0.8899429843901033    0.4436364035000257    0.6270558815484488 Cr
   0.8309936377250222    0.3298491475254215    0.0000019405218248 Cr
   0.1101166068061906    0.7202728525724036    0.3736113115060480 Cr
   0.3376414694456404    0.6646403965135276    0.4961954274550252 Cr
   0.6063668029067475    0.8880418910950199    0.1233489124536029 Cr
   0.6108536791495739    0.3902202617031764    0.1211708206186182 Cr
   0.2813613744747888    0.5578054500324742    0.3767987387022265 Cr
   0.4410709768214312    0.8883108451919166    0.1216478730023896 Cr
   0.6654615682289504    0.4961841819107982   -0.0005182675060652 Cr
   0.7776487523502520    0.2262583307150476    0.1219133905879628 Cr
   0.7760556582710313    0.8876610475371356    0.3748621149574525 Cr
   0.2850183628792175    0.0567605764637845    0.1252840872892958 Cr
   0.6074086338877416    0.7201147694569665    0.3767466003203418 Cr
   0.2800234453964655    0.7240618398940872    0.1228152022061878 Cr
   0.7167517603253049    0.7671665810277221    0.6248504812764145 Cr
   0.8848499561892395    0.7716135688161644    0.6264629773963681 Cr
   0.5016340678957506    0.5010231791928201    0.0003823564554249 Cr
   0.7756667291544131    0.2217897109641010    0.3748922369258100 Cr
  -0.0019671349834445    0.8338550610684624   -0.0018889334061686 Ta
   0.1646739763533973    0.6667500614272613    0.5004777596593544 Ta
   0.7736727141022666    0.7201455605383832    0.3664402156701926 Ta
   0.7193140591955289    0.6093490073077893    0.8658805958817355 Ta
  -0.0001598762378353    0.8290470594995774    0.5004557876105207 Ta
   0.1695507000325381    0.4998782983386376    0.5003706222174722 Ta
   0.7785690811139250    0.0545325034447519    0.3639244394991609 Ta
   0.6104259009519578    0.5543926253656785    0.3669549190959802 Ta
   0.9420598964278027    0.8889703324997955    0.3631615916405561 Ta
   0.4997349741671949    0.4995879872652838    0.5022081979449132 Ta
   0.0001065398667030    0.3349011973710080    0.5010911299355907 Ta
   0.3883739196953769    0.4447271101851898    0.8642395668878833 Ta
   0.1682295753025799    0.0017860083101873    0.5008979691814497 Ta
   0.0014447522343957    0.1667492681076619    0.5007492046160611 Ta
   0.0545211833105230    0.4474826502510598    0.8684358569760395 Ta
   0.6090582457483837    0.0538611683916640    0.3627965439091153 Ta
   0.6115476548803356    0.2248564124911704    0.3640667472948982 Ta
   0.8305437978630860    0.3343691594441138    0.5011844434215034 Ta
   0.6071893918548487    0.8813409386959696    0.3649712730941714 Ta
   0.8300524948915042    0.8299997252213560    0.5008455933447518 Ta
   0.6110683952539662    0.7224180034957320    0.1320142146917105 Ta
   0.8921802597211910    0.1128772804947331    0.8694444345384225 Ta
   0.8860655130664576    0.9394608392165472    0.6365422413760530 Ta
   0.1163119935823426    0.7234718129930353    0.1332706280375382 Ta
   0.8868366960051433    0.6079223523815139    0.6371149751185414 Ta
   0.5010375748547122    0.3348325380849977   -0.0016115456666591 Ta
   0.1175095395524873    0.8953570254114889    0.1332871036926098 Ta
   0.7190710449213016    0.9423662435329447    0.8632904070996192 Ta
   0.7192207910469819    0.9427502044981624    0.6371773307952265 Ta
   0.5553821479075270    0.9474416984363349    0.6351999943307310 Ta
   0.2837182715646673    0.3916785419679553    0.1322445822373887 Ta
   0.3360456787775620    0.0007999878816315    0.5012600294235804 Ta
   0.3887473862031754    0.7735503315387632    0.6355172667539453 Ta
   0.1133001822579165    0.2202076735346273    0.1294114503922924 Ta
   0.2200162967698401    0.7762582049164931    0.6394516800604462 Ta
   0.6072245929365472    0.0538988409615138    0.1330005192514984 Ta
   0.1130601375759613    0.3918753797619876    0.1331271876521328 Ta
   0.2217736568217706    0.6057894765571971    0.6365828608110208 Ta
   0.6648068451985110    0.8329681724418841   -0.0008982457572586 Ta
   0.9433049635252150    0.0535297147240355    0.1323370125032667 Ta
   0.8883399712751385    0.6094752212085379    0.8623927823263914 Ta
   0.1735678012741498    0.8358898872494418   -0.0015985505861220 Ta
   0.0591502011466910    0.2817630956541230    0.6367436559192872 Ta
   0.5002178709071826    0.3330340987679654    0.5018676394332312 Ti
   0.2785210660009068    0.7217807441048950    0.3688026950619610 Ti
   0.4431743611624855    0.7255745976075541    0.1293001020078683 Ti
   0.8325649295137482    0.1682548087401505    0.0015671792766764 Ti
   0.6119992383563361    0.2232477200160061    0.1284276645705827 Ti
   0.1130006762097406    0.3901641958867171    0.3697553325810173 Ti
   0.1106600208067646    0.5570139751706839    0.3693529614542668 Ti
   0.4973771452221528    0.8294717865239087    0.4997779660099474 Ti
   0.8320941627522846    0.4988201948006893   -0.0017578155129968 Ti
   0.3344813093972061    0.5003768943699771    0.5014322639512296 Ti
   0.8318874829284765    0.6656143554006733   -0.0009283600679989 Ti
   0.2775428299059092    0.3866491753914778    0.3697188975342571 Ti
   0.7740391605458504    0.5513661409108378    0.1289313704700630 Ti
   0.7768413971791499    0.3880711024443302    0.1255468983917115 Ti
   0.7763729061729868    0.0561206883150587    0.1320351988473414 Ti
   0.4450911728964732    0.5575624165643676    0.3692978964728436 Ti
   0.4465122823033257    0.5554477161957821    0.1282844603872355 Ti
   0.4425864078360374    0.0558168642149963    0.3678893188187449 Ti
  -0.0023986573513088    0.6628112257450706    0.5015319461353726 Ti
   0.7759347675790784    0.5540874370477216    0.3712086016000222 Ti
   0.7198662929763320    0.1140575953887868    0.8716660316228062 Ti
   0.0004550547515878    0.3352999949677780   -0.0002291779841824 Ti
   0.5543192412978094    0.6092474570504371    0.8685781997025813 Ti
   0.1687535827720495    0.5033194282156886    0.0006437319483108 Ti
   0.0601689640702302    0.1137974492157357    0.6316160440661618 Ti
   0.5545212430744374    0.1133065751090176    0.8712536320867795 Ti
   0.0567521302151348    0.9415405439730463    0.6325812812624042 Ti
  -0.0009384088289795   -0.0005200084128854    0.5010259190842036 Ti
   0.3876203965230684    0.1096244195845350    0.8689661801498906 Ti
   0.2256398418549862    0.7795060032033045    0.8692515235655355 Ti
   0.2238234816901886    0.9457027788380505    0.6320299898174978 Ti
   0.2228990417303348    0.4434387618095856    0.8689042398362056 Ti
   0.3872195313312986    0.2777639157808688    0.6336447542611029 Ti
   0.3344682132239202    0.5018422556491772   -0.0010249310551081 Ti
   0.8307113057114676    0.1652989641040024    0.4998126344677334 Ti
   0.8313214758178193   -0.0016608393811123    0.5006856453742762 Ti
   0.3348333113432946    0.6687106081667555   -0.0004950748167816 Ti
   0.6634684824897811    0.8292265085916800    0.4998769921046167 Ti
   0.5524570446400243    0.7695983947803426    0.6299497318091110 Ti
   0.9415717585809209    0.3891851978756632    0.3690467634919513 Ti
   0.4996486322944347    0.1674070684900847    0.0001946864255256 Ti
   0.1130975380192708    0.5592167977584205    0.1303520711560163 Ti
   0.9444530792537738    0.2247640082842001    0.1288038808021387 Ti
   0.8352212279119943    0.8355401680030552   -0.0024892493433536 V
   0.1712047676526689    0.1690375570410755    0.5028263357874672 V
   0.1716008174404546    0.3341859940123585    0.5064114083208601 V
   0.9418009181096255    0.8870869461290767    0.1278957578185016 V
   0.9443386346322011    0.5572878074175548    0.3728172571194073 V
   0.6102759159634743    0.5531784402532717    0.1244039982434257 V
   0.4490486491319067    0.3912928783376239    0.1258426599397386 V
   0.4438605385665988    0.2236627891585383    0.1269249054258036 V
   0.2856363025220789    0.8898249185452073    0.1260611722385401 V
   0.2812482994460381    0.5609106763889509    0.1275157005808805 V
   0.0583036303740172    0.6116277134809803    0.8750187683365431 V
   0.1672423015076973    0.8326767676878011    0.4950001547905071 V
   0.8876107464800069    0.2813678364194274    0.6305839690826961 V
   0.3885442179276425    0.2792168033612016    0.8704742625742793 V
   0.3891818339141561    0.9443291070123357    0.8766178660318985 V
   0.3913517239796453    0.1140882343733737    0.6307600848387714 V
   0.2246197311260256    0.1140336652699090    0.6288007159278548 V
   0.0535429949400442    0.7754794685176575    0.6296509207606574 V
   0.5553963282866312    0.4429607700238430    0.8714325646821804 V
   0.8931279184625568    0.9459867891425903    0.8728972664644326 V
   0.5498753901192438    0.7753676614126987    0.8716679369809820 V
   0.8872411367497600    0.2804475700363887    0.8727497087762977 V
   0.2241291294658979    0.6142801975204896    0.8737452023106822 V
   0.3340161665959613    0.1678802942111128    0.4991776161916488 V
   0.7190840255371218    0.4409831090151416    0.8724942234391686 V
   0.6097627952168699    0.3874003208589494    0.3704473251831223 V
   0.6659140682929917    0.3347802083205754   -0.0040188613655863 V
   0.6704702504996192    0.1720628592651979    0.0007491852159029 V
   0.4977608276355486    0.8348184163526791   -0.0011608365275756 V
   0.4981311077932504    0.6677477628093247   -0.0034402909013034 V
   0.1675859275263608    0.3330773321263155   -0.0022066651323484 V
   0.2778164925277256    0.2214354850708838    0.3742756969238893 V
   0.2763866508855977    0.8863387014350808    0.3699576388508110 V
   0.0001392402403025    0.5025499206597942    0.0011934245631230 V
   0.8289521608238624    0.6627142346496434    0.5060699274987208 V
   0.4429012766234873    0.2235640693471143    0.3714825878264838 V
   0.0023082254690366    0.1695944898698355   -0.0033703925354761 V
   0.6647563453634027    0.6642877672087877    0.5048029884432870 V
   0.6643960138017561    0.3348513546945480    0.4962814772890904 V
   0.4400191295640816    0.8834752362088496    0.3694322543459609 V
   0.4413572390157093    0.7183611880017146    0.3730345821937510 V
   0.6666677693460183    0.1677615338602758    0.5029620823177966 V
   0.4981866238194614    0.6640928820143771    0.5006643352337286 V
   0.1106571448970954    0.2190585362101097    0.3680965246728830 W
   0.5480861051579760    0.9438778311956765    0.8695936659286566 W
   0.1135947787510301    0.8869124738651720    0.3636071255953357 W
   0.9447169625837372    0.2213993388294291    0.3667106618755313 W
   0.3899744111827423    0.6138842013337039    0.8672458426687201 W
   0.0608924852977008    0.1143471418152286    0.8678209114522474 W
   0.4455709582695773    0.3851407168247931    0.3666075629300076 W
   0.9469710640030039    0.7190591324693101    0.3657792611378174 W
   0.0583772002801908    0.9451692175427956    0.8654324393917195 W
   0.0557011839386174    0.7767588663218077    0.8670242195391828 W
   0.7762930536106399    0.3898884780888533    0.3663501186086277 W
   0.0566401638268333    0.2789775372586789    0.8670542873727591 W
   0.2782492236767211    0.0573341825614810    0.3650104843258426 W
   0.6658183505499556    0.6639006366400813   -0.0013461903251597 W
   0.7188393239688194    0.4434772607972888    0.6351879970917012 W
   0.7226435867586521    0.7759572120270347    0.8658473428432857 W
   0.6612022753090874   -0.0010568105531048    0.0026294946204215 W
   0.3350672666304108    0.1700328302161145   -0.0015756573310942 W
   0.1722015607697162    0.1683321549391063   -0.0021582093943282 W
   0.1729288432438602    0.0053239072846289   -0.0005894621752414 W
  -0.0004689461757101    0.6631324938532835   -0.0009184663206274 W
   0.8309334123861117    0.4994495293488662    0.4997754635833133 W
   0.6646741565439553    0.0000231395274722    0.4985996467315291 W
   0.5015673873956692    0.1693170337061604    0.5023985764028441 W
   0.5018241455464946    0.0015809956767536    0.5015779813405361 W
   0.3334579579206942    0.8330616218455253    0.4975082688274552 W
   0.3303498863683676    0.3300523256437937    0.5021568541435918 W
   0.9431363997675204    0.7191799169698264    0.1328445416736170 W
   0.9429883993664335    0.3922350806842925    0.1310994911920987 W
   0.7763502011017944    0.7197552464502828    0.1318388724409463 W
   0.4429119088219648    0.0547042283729132    0.1308796300589757 W
   0.2826377466784482    0.2238198268265300    0.1351595591022985 W
   0.1105588804786587    0.0552253920445098    0.1337776383267925 W
   0.8868074018652412    0.1119250289006196    0.6358948474400000 W
   0.8326084911604800   -0.0005785212837429    0.0015360779951975 W
   0.7222515953476916    0.2781808713982900    0.6350185368439296 W
   0.5573051467560417    0.4461768891555143    0.6342402818431413 W
   0.5560284630430485    0.2786235017749601    0.6341237413345803 W
   0.3890586649728259    0.9459477984736020    0.6382056021834563 W
   0.0537379452253417    0.6089670704503515    0.6355600158387729 W
   0.8866384541468673    0.4409567523665464    0.8660901174141460 W
   0.7209495783211715    0.2801234367099599    0.8688596521543904 W
   0.1138111873392628    0.0577005298144612    0.3663722959173203 W
