Hf31 Ti31 Nb31 Al72 V31 Cr31 Mo31 W30 C144
1.0
   9.1874497744827615  -15.9114122994524010   -0.0021577608277769
   9.1840699525237994   15.9094609379527192   -0.0005458774230629
  -0.0027322384921244    0.0009407133814123   18.5284175528073902
Al C Cr Hf Mo Nb Ti V W
72 144 31 31 31 31 31 31 30
direct
   0.3193787029017502    0.8220576461017994    0.2508695248975112 Al
   0.3327724283444718    0.5052631791212577    0.2493425574494825 Al
   0.3338151500878306    0.3331069988867637    0.2443693819601228 Al
   0.3291380916776274    0.1633362621020407    0.2488624664829930 Al
   0.3302650408103677   -0.0039112547148363    0.2506038127363123 Al
   0.1603969128832766    0.8272698377245801    0.2500157686867014 Al
   0.1705951162096675    0.6735889187636662    0.2558198725834474 Al
   0.3256427939770549    0.6642553925885472    0.2490807851470421 Al
   0.1732845030776146    0.4948088030962057    0.2545770251567898 Al
   0.1697019446032576    0.1706873888824198    0.2480080213473580 Al
   0.1683778273502287    0.0005617802132935    0.2507173861172611 Al
   0.0084372450954847    0.8488805190899580    0.2514712474414758 Al
   0.0085011537669634    0.6631598430894723    0.2524923889299160 Al
  -0.0055549027363423    0.4992392706709843    0.2536827336269777 Al
   0.0183149081017506    0.3479837695560392    0.2505492451729112 Al
   0.1636066878820275    0.3304435148544123    0.2455298503910567 Al
   0.5034228561972424    0.0128550675740883    0.2568094206552184 Al
   0.5134774933476999    0.1792305871265408    0.2585282202194369 Al
   0.4992046989242081    0.3527884460163020    0.2439207533076700 Al
   0.8521179427444440    0.8277360409268746    0.2522825999857171 Al
   0.8272664436309347    0.6635000033668066    0.2561755462372685 Al
   0.8381311223590627    0.5065386972507230    0.2537684287324711 Al
   0.8312270458756210    0.3274538957881359    0.2488881569013204 Al
   0.8131768666547310    0.1592722214809971    0.2542067017420139 Al
   0.8450599121743809    0.0158886197254435    0.2548373540240393 Al
   0.6621199627187092    0.8386776080108943    0.2513013071707272 Al
   0.6808195515228312    0.6809597670144176    0.2606863316276017 Al
   0.6781635735556675    0.5053628610022713    0.2528655404982666 Al
   0.6710404432989758    0.3298641384232571    0.2443869944340819 Al
   0.6645563370550231    0.1735769980211533    0.2579697036240044 Al
   0.6564798858263782   -0.0074048448995530    0.2595249292811348 Al
   0.5054296062576983    0.8238536327719584    0.2456021568166524 Al
   0.4934497675368000    0.6562610067941413    0.2515382954016044 Al
   0.4848258689878741    0.4987752613776119    0.2551045171924664 Al
   0.0113767606210096    0.1647864601322416    0.2509430853582246 Al
  -0.0039368012861291   -0.0044615571157821    0.2566460875922548 Al
  -0.0146737051008771   -0.0174373350682383    0.7558681983723586 Al
   0.8451084968445558    0.6711684826602550    0.7459439201775818 Al
   0.3204698601193745    0.4934246664393361    0.7514072731809478 Al
   0.3295082617890639    0.3325825055611832    0.7443328712264611 Al
   0.3294804361102117    0.1622928113111607    0.7533475108274901 Al
   0.3400254645669697   -0.0026673113570121    0.7533447260073302 Al
   0.1673875065089415    0.8317832836453667    0.7459972764060347 Al
   0.1606371892750716    0.4770488354738785    0.7461641933383050 Al
   0.1670286185009011    0.3276206253059746    0.7525357814388938 Al
   0.1774763183771104    0.1722299914385274    0.7466871951583708 Al
   0.1698249352488422    0.0106169857506626    0.7504388364873974 Al
   0.0072825528612092    0.8339055176932818    0.7514431030174531 Al
  -0.0097795867404489    0.6439830630069050    0.7476688147822141 Al
   0.0351316603372764    0.5140005637284860    0.7484639911538321 Al
  -0.0111876183302921    0.3338219275665515    0.7535419854095294 Al
  -0.0073442127809864    0.1735165142204212    0.7496984662341586 Al
   0.8347604046092156    0.8421597003000023    0.7488753185810040 Al
   0.3349346191005184    0.6800533891653729    0.7481302824284515 Al
   0.3308420528526872    0.8340064233386685    0.7525735422345514 Al
   0.1601994526976891    0.6762415491555643    0.7467429494304841 Al
   0.8143363362587779    0.5090920264421458    0.7465457840669386 Al
   0.5020251630533288    0.0050452578399017    0.7504040761663892 Al
   0.8190729122640679    0.3040390556733748    0.7483936039750454 Al
   0.8349220580307414    0.1651964590417206    0.7530223828809842 Al
   0.8361945560276900   -0.0003757102690023    0.7518180842000832 Al
   0.6556154680423234    0.8345069136493056    0.7536342266503725 Al
   0.6615197320397794    0.5031017174365788    0.7573461706445529 Al
   0.6669592984464653    0.3405748734342320    0.7454064845417306 Al
   0.6947040295105434    0.6804080699476474    0.7532225700978401 Al
   0.6726073201974263    0.0017570595708086    0.7539917514783184 Al
   0.4979177559033131    0.8386490338217191    0.7457302188808885 Al
   0.4957225475239711    0.6915705154854618    0.7554991887426050 Al
   0.4866461233618660    0.4788536412072417    0.7524134249560098 Al
   0.4958191957861736    0.3193143950451520    0.7514103615106059 Al
   0.5109897629341063    0.1713280032620143    0.7512806116328101 Al
   0.6623047479668391    0.1602054354837565    0.7494206896532002 Al
   0.5517549833805750    0.2657807489858169    0.4269168902549281 C
   0.7224346478534521    0.1126741918325239    0.4334063703228656 C
   0.5546772097843985    0.4451550999725504    0.4236366546917765 C
   0.5545666549806202    0.6118281181766247    0.4258662563598259 C
   0.5539791424099533    0.7798485839055324    0.4303233264266714 C
   0.5573289494858733    0.9453203855080509    0.4275585831735056 C
   0.7224821403121562    0.2733545716237529    0.4290502382122927 C
   0.8866980133693555    0.6112019172024045    0.4304850533762907 C
   0.7280528493275337    0.6151133680125533    0.4298836119454238 C
   0.7250605912970893    0.7758475554865525    0.4300914459534173 C
   0.7247575825825111    0.9456171430771882    0.4276113183354565 C
   0.8866993967813954    0.1126740857061776    0.4292883757199411 C
   0.8862629434308771    0.2737179905196555    0.4336197024845929 C
   0.8868894780848056    0.4433982336223981    0.4294617921172361 C
   0.5614625836358687    0.1138847188563694    0.4325250391219110 C
   0.7275200890138971    0.4472203800424794    0.4262200346485026 C
   0.3847067043916839    0.9456233107419280    0.4299020913566786 C
   0.0570713887088137    0.1131859854925765    0.4272224254144686 C
   0.3851606157933064    0.6088291957135419    0.4298321352923554 C
   0.8910171623826750    0.7789454547377741    0.4306685045446368 C
   0.0600315645199125    0.2829709117550441    0.4295092020807685 C
   0.0595394670608533    0.4445283507948254    0.4241817853928080 C
   0.0607285153587754    0.6147479130254627    0.4277212783283073 C
   0.0533171379401157    0.7759152713924032    0.4265413277970274 C
   0.0579728946663088    0.9425969840625031    0.4331579750228962 C
   0.2191640914645222    0.1062952951137996    0.4320902112447265 C
   0.2210529381950588    0.2834358895124684    0.4296582674199057 C
   0.2183028319240983    0.4418468694402441    0.4279542625772879 C
   0.2241464568444107    0.6154023369590113    0.4330539469029823 C
   0.2206040165266777    0.7710611846613210    0.4280861316040638 C
   0.2238512494788866    0.9453247796092590    0.4320016114999580 C
   0.3925145365836665    0.1114892673457041    0.4356567372601743 C
   0.3881670738479210    0.2747836251538070    0.4258424642728877 C
   0.3869826533055429    0.4450417157672387    0.4246401024802973 C
   0.3854848212279800    0.7718678744472266    0.4318132549564259 C
   0.9422496992283208    0.8868872232896632    0.5667448094428031 C
   0.8941816954342149    0.9426718707532669    0.4284440387977301 C
   0.1067362583307485    0.2218239656284326    0.9273167835978797 C
   0.2732038680868284    0.0489771365882465    0.5659945831825725 C
   0.1098047508968462    0.8871935289833305    0.5697503892125175 C
   0.1114808128086045    0.7153406782025481    0.5704441109960676 C
   0.1125656311565371    0.5587694091112821    0.5716952683599641 C
   0.1132434219734148    0.3901298880604529    0.5688955008507437 C
   0.1119766805727113    0.2266148054838562    0.5706477165693707 C
   0.1135779182640671    0.0572924309315712    0.5693985944955710 C
   0.8880875928821310    0.9398862260689914    0.0698030595952479 C
   0.8910578326495009    0.7852076780009308    0.0654146226679396 C
   0.8926906216364273    0.6116808431400605    0.0659773129819208 C
   0.8863016504098837    0.4415211183639858    0.0684250844111444 C
   0.8860870119104108    0.2793348228508936    0.0677532637882193 C
   0.8888990522664885    0.1075564602844383    0.0636449333893618 C
   0.7214813274063130    0.9382722120796396    0.0642317430762751 C
   0.7230910495108273    0.7811831023795074    0.0636784628028747 C
   0.7212527697734321    0.6119289591411787    0.0712508781000261 C
   0.7216745859329334    0.4411607726426939    0.0659910430544854 C
   0.7239932101781726    0.2799147643787030    0.0631799057054613 C
   0.7237439512906012    0.1147407735834707    0.0686988481973021 C
   0.5541016923773548    0.9438647578294274    0.0698358851813003 C
   0.5521717353993159    0.7796353973261333    0.0697982338818441 C
   0.5499671296006307    0.6079075723383035    0.0710298954133855 C
   0.5501501105147654    0.4400521045890594    0.0732370991459990 C
   0.2803291582047209    0.2232040784525446    0.5706888225243558 C
   0.5625909352796526    0.2811658937162056    0.0679284578251698 C
   0.2730747301292271    0.3876147288545817    0.5698798342731417 C
   0.2752797481693648    0.7172597248041028    0.5681922238173620 C
   0.9483755818623646    0.5590933821556049    0.5738898400376266 C
   0.9479078321439454    0.3868277000565797    0.5738949762481239 C
   0.9390369870141876    0.2196547951139905    0.5683116238698727 C
   0.9494665313085424    0.0576661027403747    0.5735235772933326 C
   0.7800098448753564    0.8893490725060267    0.5667009123707366 C
   0.7809404175718906    0.7208916804435513    0.5667801949898771 C
   0.7808253806446300    0.5540422290109737    0.5704612615981559 C
   0.7799620489428312    0.3884427396466311    0.5748646782276536 C
   0.7752189627115312    0.2221489730520128    0.5670643402216952 C
   0.7805003607417865    0.0576890884225086    0.5714775833269513 C
   0.6089065872775029    0.8854045602281205    0.5698686926814130 C
   0.6109278489697352    0.7259982196100546    0.5729922404951409 C
   0.6160110111626657    0.5598615310666035    0.5743580971683458 C
   0.6165785238711892    0.3881678343602138    0.5741535111360624 C
   0.6117439828244532    0.2163177829982434    0.5706069211037436 C
   0.6118235239608198    0.0576781197984125    0.5707998492081970 C
   0.4479515791120357    0.8855728979615980    0.5674531942078395 C
   0.4448787810874552    0.7280429645415163    0.5679158111075444 C
   0.4409433480855604    0.5515422647256156    0.5769654596631040 C
   0.4359513249030873    0.3844301230514589    0.5742559179037775 C
   0.4451008352179770    0.2218111794772592    0.5732651791507191 C
   0.4467295858072167    0.0566369638776003    0.5682745262710821 C
   0.2804078090662195    0.8904519133350978    0.5693568515010612 C
   0.2726298670960458    0.5566093868700048    0.5702664759819869 C
   0.1113143144940732    0.0555269617744230    0.9260320921087090 C
   0.5545010209759306    0.1130580860281082    0.0685089358188873 C
   0.3874196266911936    0.7738071574761182    0.0687423254637856 C
   0.7768811466315685    0.0559263103852279    0.9300029982579558 C
   0.6130563962623157    0.8873475270062168    0.9293322346011584 C
   0.6146160122668650    0.7307209187972734    0.9305230533063158 C
   0.6102405013554265    0.5547515713526926    0.9263225192350415 C
   0.6100395878559915    0.3875196693503579    0.9253253261099932 C
   0.6118984655015650    0.2232946856823176    0.9273221899141635 C
   0.6125685468217343    0.0566648173521282    0.9275967768275606 C
   0.4463394472659735    0.8915984067086791    0.9290536818734851 C
   0.4457939042731845    0.7250066571949267    0.9256037578644116 C
   0.4414063526777617    0.5564915479728271    0.9257203694789538 C
   0.4456749991060497    0.3909862892768048    0.9267162570288147 C
   0.4400251838496557    0.2174038106420558    0.9288493286853488 C
   0.4445276750789845    0.0543638515034272    0.9268367375401411 C
   0.2798946894635154    0.8871305504653821    0.9290179220038453 C
   0.2803426796802403    0.7236885053860828    0.9268223188052037 C
   0.2745772515273600    0.5499395372359487    0.9286662871782219 C
   0.2750430873893182    0.3896323417221941    0.9270800504095241 C
   0.2736419427099430    0.2223596756742034    0.9322100058761443 C
   0.2839542366532149    0.0637777348932075    0.9275523133832719 C
   0.1027685230963735    0.8850407119051990    0.9276812371324568 C
   0.1077899866805518    0.7187138688200626    0.9278915258821526 C
   0.1081292811759520    0.5508302313394929    0.9257379789118593 C
   0.1096187637694548    0.3910174013597604    0.9259200932915428 C
   0.7802060417753228    0.2223705928239796    0.9269256256522770 C
   0.3894149385051455    0.9433238796498713    0.0717901571025847 C
   0.7770045340755318    0.3860486443913974    0.9270917175861723 C
   0.7755280582648922    0.7251491062645926    0.9332014478191275 C
   0.3881746288616073    0.6117716683704525    0.0711844130025457 C
   0.3864487653172279    0.4455973776718505    0.0704705896311519 C
   0.3850704675966551    0.2789194643124429    0.0681370573923453 C
   0.3856350757203619    0.1137461508033329    0.0702058030706811 C
   0.2225556726257426    0.9436870582401777    0.0744207052898557 C
   0.2245538204942065    0.7786022810394045    0.0706533444535481 C
   0.2236435354844302    0.6083608969306814    0.0669527700881164 C
   0.2201050874485979    0.4469339669551925    0.0710780877273053 C
   0.2218608412275365    0.2757933849262457    0.0705384523358324 C
   0.2245857002886062    0.1161498723329474    0.0696240889596645 C
   0.0513918802124115    0.9392294320925866    0.0735999718364689 C
   0.0568621285943395    0.7791651108339688    0.0666010791833378 C
   0.0535709560462641    0.6154748142556699    0.0700561867316260 C
   0.0581589890028815    0.4402452371149015    0.0697748778942657 C
   0.0550512578142685    0.2758206655020544    0.0720485829282805 C
   0.0600962076303484    0.1178101325352180    0.0663743742844944 C
   0.9440835454493698    0.8916824847048620    0.9304185794638893 C
   0.9471472043052942    0.7212734067635308    0.9332432499130372 C
   0.9465978319167662    0.5592519878016431    0.9258820416327772 C
   0.9412151152556584    0.3830062043139515    0.9237042105355134 C
   0.9455301206880470    0.2217709430543924    0.9288109231671935 C
   0.9374172503402921    0.0545303635268238    0.9328988995104860 C
   0.7809587743830302    0.8936277087228974    0.9360691268493052 C
   0.7789271317994082    0.5557842576809345    0.9270882945385021 C
   0.9459140145019185    0.7244768786476163    0.5666340641168939 C
   0.8345544537434972    0.8359616316747304    0.0008091054795328 Cr
   0.5555604426760509    0.4437461852411815    0.8748261056700383 Cr
   0.6655539010905551    0.1650075486398191    0.5004053429808163 Cr
   0.3801568921969240    0.4370472503804235    0.6259771122235958 Cr
   0.1694956740428048    0.6673979255341063    0.5004442936788931 Cr
   0.3321103180780066   -0.0036865859414018    0.4994537553589619 Cr
   0.2188573183186464    0.4432910535854707    0.8731441219946208 Cr
   0.3269095032635365    0.6690643749987500    0.5000955827560909 Cr
   0.1682073991818524   -0.0023525095298752    0.5027443717596144 Cr
   0.4424342995772192    0.2144737032734320    0.3782272232391914 Cr
   0.5542263951744003    0.7823691185077776    0.6231187045036664 Cr
   0.3920458670756297    0.1120961217757264    0.8760918205857394 Cr
   0.7270173566537622    0.4443924365606289    0.6240140028619924 Cr
   0.9491121960247306    0.8875563204196353    0.3798605885813562 Cr
   0.8318567933618235    0.1665054310264253    0.5014693242445035 Cr
   0.4999438423726688    0.8311675737601594    0.5026061834006379 Cr
   0.0005015448257181    0.6689614445916491   -0.0008165489892593 Cr
   0.0507565178091866    0.9419233007946174    0.8773300651680905 Cr
   0.1643335100145013    0.3346704725654208    0.4999282781272061 Cr
   0.2747740067639916    0.7187832749920331    0.3786608943528608 Cr
   0.5591914762336102    0.7828283109067887    0.8771846413593575 Cr
   0.8332619155839380    0.0014471676255772   -0.0026938058304480 Cr
   0.6718441998075299    0.8374156562803355   -0.0025706961576770 Cr
   0.6126919828116955    0.2153610439712988    0.3790493396937195 Cr
   0.7823629690878467    0.7219999398796516    0.3797605823258309 Cr
   0.1135144612238215    0.3905300274085691    0.3753458811701895 Cr
   0.8899427469981864    0.2740767518491790    0.8765033802143598 Cr
   0.4425495819368335    0.5566444595858830    0.3730601234174376 Cr
   0.6159240985663552    0.0611226817648874    0.3786352955919103 Cr
   0.0598942645795337    0.6135313807100855    0.6238390483290558 Cr
   0.9429110054191582    0.8877518434673167    0.1223701164674788 Cr
   0.1655496084240111    0.8312873049181908    0.5001893498649727 Hf
   0.9468555961856391    0.7271839901632362    0.1357889467391179 Hf
   0.0020419679361075    0.5016797569824190    0.4984776129966657 Hf
   0.9438112747710180    0.2212375092335188    0.1368470112647792 Hf
   0.4477708645218260    0.2272235477401856    0.1350452681835154 Hf
   0.1146364030804873    0.5566907893491887    0.1370469218198346 Hf
   0.4981398736283931    0.3293478737255678    0.4997282847278749 Hf
   0.4991955759095512    0.5004504021681495    0.5011851895843750 Hf
   0.6103976245620470    0.0574614009837622    0.1364701030653405 Hf
   0.6087535894495919    0.7236477807167019    0.1344922295860816 Hf
   0.2218772908600676    0.9450245611828926    0.8646018406722187 Hf
   0.6051153692135300    0.5515563064879222    0.1395032033625171 Hf
   0.2181344881062476    0.6062422742657457    0.8591834743622692 Hf
   0.8925114799234573    0.4456899587580783    0.6444534868247951 Hf
   0.3874421774279426    0.1087769700757474    0.6351996870289149 Hf
   0.4434441308916224    0.8858899199431050    0.3638095266625601 Hf
   0.6692781960778432    0.3310290707537437    0.5001704901344858 Hf
   0.3842463040465590    0.6119661104167908    0.6358764840663842 Hf
   0.0552294561059835    0.9447368971308826    0.6338398998665580 Hf
   0.1632741753059266    0.3324211522807825   -0.0010492988983052 Hf
   0.8890667848149889    0.7798082088612012    0.8669541657614351 Hf
   0.6093283945463586    0.3825774990556242    0.3612666832865233 Hf
   0.1661708403295531    0.0003859237866854   -0.0006343687516553 Hf
   0.5551342971824984    0.4396943853505643    0.6378958199869623 Hf
  -0.0007735532026670    0.4981096093142078   -0.0024302844192006 Hf
   0.0515176416660274    0.1098289699708672    0.8618267376087018 Hf
   0.8895275063357273    0.4447692209716465    0.8536966422453806 Hf
   0.5570482770616197    0.6158940976879129    0.8585571283486053 Hf
   0.7748863987072911    0.0492879776498197    0.1320375820120337 Hf
   0.5575032035656738    0.6152893488573933    0.6439483035328472 Hf
   0.7823017395385597    0.8864109148009446    0.3625408569433461 Hf
   0.6138718179708947    0.3895975807984676    0.1325004223679486 Mo
   0.7201227580468744    0.4423718972002448    0.8662814083639919 Mo
   0.6142374318140967    0.2251912645366329    0.1300819248573896 Mo
   0.2240586065961368    0.1114307407390556    0.6309401190134653 Mo
   0.6099439769550756    0.8877707574634506    0.1299900880639220 Mo
   0.8359865359431207    0.6696930629914041    0.0007512064531391 Mo
   0.2151271538742313    0.6074396281360517    0.6359015900410842 Mo
   0.2225439799020068    0.9436242919456450    0.6319299478534267 Mo
   0.2783292151580933    0.7197687194674989    0.1322410997716466 Mo
   0.5585221686545896    0.2734491540900562    0.6335962460928422 Mo
   0.2784690747482523    0.5556381576452576    0.1328129623993614 Mo
   0.2765154746706840    0.3894612540149972    0.1337738919128998 Mo
   0.8896668776218298    0.1114719122470500    0.6338619227821709 Mo
   0.8878614756812107    0.2750266388555572    0.6328348965429512 Mo
   0.2216518202301772    0.7772899296613643    0.8673121861241713 Mo
   0.8915452379046760    0.6141059721769361    0.6297624191701384 Mo
   0.6154253453057017    0.5606866804917225    0.3656147872218933 Mo
   0.2770513315457884    0.8874605542636843    0.1348792825451979 Mo
   0.5532198619152718    0.2760466706324196    0.8667835166257160 Mo
  -0.0040591638988308    0.3296452075110114   -0.0035026259026967 Mo
   0.1179325276828263    0.5609040904244142    0.3659583815672272 Mo
   0.4991458407029612    0.5004094542833530   -0.0035678139261543 Mo
   0.6669340799198212   -0.0007709338550293   -0.0028167822018421 Mo
   0.3330161775981647    0.8278731888308135    0.4977545286601545 Mo
   0.1673707623944628    0.5006775234988964    0.5003638612097295 Mo
   0.9456574326025219    0.5584167588715755    0.3685968070307135 Mo
  -0.0020856879057160    0.6656086146539687    0.4972059715869965 Mo
   0.5003671643490746    0.1666943444430030   -0.0042718183940715 Mo
  -0.0011721399363673    0.1711852477998536    0.4996830129048002 Mo
   0.6122976768966996    0.8899112667531782    0.3693286167717484 Mo
   0.1648336532016014    0.8288899030930048   -0.0028181239510816 Mo
   0.3906641523451526    0.9421108807867505    0.6316028168198207 Nb
   0.4997875272523715    0.3318071205906996   -0.0023247811221531 Nb
   0.4994192802757044    0.6685181855949069   -0.0028260748340555 Nb
   0.3347401237825594    0.0005913087250324    0.0003666363451307 Nb
   0.7259244033216666    0.7811609457906787    0.6317819139565700 Nb
   0.3838235685528913    0.4437387807926267    0.8646633224323722 Nb
  -0.0015242549190773    0.0008625885047310   -0.0004121128664607 Nb
   0.0537358776979427    0.2807116306249155    0.6339485727772124 Nb
   0.7251360952051912    0.1152249608757402    0.6333086974565646 Nb
   0.7799191718088877    0.5546289618253128    0.1306695399707082 Nb
   0.1673225668256943    0.6670166304964289   -0.0027354808592185 Nb
   0.8387153294530603    0.0033814814428588    0.4997334790678156 Nb
   0.9429877673283834    0.2217927170802825    0.3646488444375980 Nb
   0.3848277617913259    0.2755706940887340    0.8662717470087462 Nb
   0.4413670152104703    0.7179477263275201    0.3663158126892845 Nb
   0.9430192264283845    0.3854341621003329    0.3659592153785029 Nb
   0.2764722522637429    0.2216219279703504    0.3660112688614249 Nb
   0.6705524306346085    0.5029495201080220    0.4978972320815003 Nb
   0.7802513487154652    0.7262950871358306    0.1314572266637812 Nb
   0.7800791834294170    0.8877461850101320    0.1344223501466759 Nb
   0.9475002859615798    0.0544652869502269    0.1310883755919614 Nb
   0.4407231138739019    0.8838022229068462    0.1368752079013824 Nb
   0.1679217685997082    0.1684570165531004    0.5005610708396059 Nb
   0.2800607924050561    0.0564410327426112    0.3701969496654919 Nb
   0.6648053683856994    0.4978549092803376   -0.0010385374762783 Nb
   0.4422983537593502    0.0576506108647997    0.1346520536916215 Nb
   0.1116835194962359    0.0570807952469924    0.1343130697701913 Nb
   0.6666141675594907   -0.0006567210301642    0.4992135970527241 Nb
   0.4981978555414855    0.6679285395114597    0.5014452643706462 Nb
   0.5000343182321451   -0.0003535424700642    0.4982563006642841 Nb
   0.3296158480109367    0.4997138999892651    0.5003322898526660 Nb
   0.3921092106772666    0.7812334824635699    0.8701814201993265 Ti
   0.0534789532849532    0.7722896769323953    0.6278157511995720 Ti
   0.8343282097995828    0.1677192973628569   -0.0008335797713710 Ti
   0.5583295028845884    0.9443973027989464    0.8707064641638759 Ti
   0.5554134908380993    0.1115842523733370    0.8704159893963852 Ti
   0.1122028367991298    0.2261278534223593    0.3706979429424852 Ti
   0.0590712054071890    0.1149902928275167    0.6298673639301651 Ti
   0.8862260726417737    0.1108784369168500    0.8719831476630161 Ti
   0.7241069864840521    0.6118750699492099    0.8726749997135808 Ti
   0.7243705878941354    0.7856803195052141    0.8749726164271716 Ti
   0.7213682034185431    0.2765771670741040    0.8690806004434665 Ti
   0.5002495177415742    0.0000801301489049   -0.0004446294527362 Ti
   0.7755646621698550    0.2258782563888794    0.1258340918484935 Ti
   0.3310295586837577    0.6641877402192288   -0.0015202737705639 Ti
   0.9442852797946294    0.3870644899783167    0.1272308929173974 Ti
   0.9428921722518729    0.5560777110924834    0.1269465069460199 Ti
   0.2757527182928916    0.8863807180209706    0.3716863326988562 Ti
   0.0531151403914235    0.7733407631647760    0.8710430350895763 Ti
   0.7806836075558625    0.3875224012381593    0.3690757440375533 Ti
   0.2758740519370538    0.3913067536083761    0.3675559670436642 Ti
   0.3341197156002353    0.8331029147074158    0.0003234185818013 Ti
   0.8348185958120895    0.3316506235095425    0.5042129706568266 Ti
   0.4482698611800693    0.0610598261467272    0.3743159988575858 Ti
   0.7236102919404923    0.9432186576498466    0.6280830635063746 Ti
   0.7298708146882379    0.6117553853690466    0.6289172534127510 Ti
   0.9428633099921117    0.7220079655244930    0.3702735268611509 Ti
   0.5563280858183626    0.9434696781449184    0.6290291661322888 Ti
   0.2245512716630824    0.7747000070488039    0.6268494613144945 Ti
   0.1110571736024742    0.8900185390976697    0.3721438714253678 Ti
   0.8357328434424397    0.5009820041775833    0.5024368884203293 Ti
   0.7765270871827946    0.3876901313838685    0.1242059240137933 Ti
   0.0526484661679220    0.2802044346228288    0.8718927754379640 V
   0.3903916833377638    0.9443233461068845    0.8724542531047089 V
   0.0539032363936653    0.4388072790277358    0.8708968561044088 V
   0.0559467986232993    0.6117889335977760    0.8695535846443190 V
   0.7816186024402085    0.5599580309525795    0.3742930086893219 V
   0.7765969947335618    0.0585634402373965    0.3740583074627137 V
   0.8841504583078937    0.9446912386645214    0.8779897477200717 V
   0.8331615514592380    0.3310871539885818   -0.0075835572382376 V
   0.6672794668440596    0.3316276309349849   -0.0030442421716227 V
   0.1103099298740714    0.7190644627149064    0.3730738644370795 V
   0.3322728705534821    0.1694642594914811    0.0026369030168040 V
   0.1644602989922896    0.4973472021333364   -0.0056105571986160 V
   0.1671073791714904    0.1687705894409942   -0.0007290761075635 V
  -0.0010801851654759    0.8337434141421206    0.0000236998401007 V
  -0.0011501338329587    0.1666431881245274    0.0004474982355219 V
   0.8388912295212942    0.8306549111039363    0.4984924789967149 V
   0.8375173909186605    0.6689744480148794    0.5006903323544882 V
   0.5020252829764459    0.1642546275553385    0.5030009143970824 V
   0.7237284798116318    0.1120027509949682    0.8732016516551234 V
  -0.0038450622412527    0.8321324866480496    0.4998392194912383 V
   0.4376449881146459    0.5530374431043191    0.1282551359132323 V
   0.4375728273195492    0.3887374587285514    0.1247228073809941 V
   0.2762894193812226    0.2236759357835603    0.1249359314031399 V
   0.1127988040271061    0.3880256483370693    0.1266618496605210 V
   0.1143294322658455    0.2225304197181365    0.1265171890655883 V
   0.7203458240857830    0.2735468577314888    0.6272829192155452 V
   0.5579526172453440    0.1123829953375509    0.6255747107527696 V
   0.3845382349181534    0.2737122646201198    0.6299852467018102 V
   0.2191649967191262    0.4439617809565212    0.6263382583096898 V
   0.0609764193175679    0.4457014102000086    0.6268020362471520 V
   0.4407209258256771    0.7203606657077157    0.1273048569010235 V
   0.2754777555454608    0.5568421416950260    0.3697447625746103 W
   0.6105403675131323    0.7221108420317609    0.3687411466150762 W
   0.4400887756700124    0.3880073693615600    0.3649464636511714 W
   0.8330531923577832    0.4981905259933332   -0.0069821554536001 W
   0.8887009092320227    0.7766574020450773    0.6294407653553988 W
   0.9468726426727767    0.0577627909450800    0.3695782021783775 W
   0.6638053056158331    0.6656494823016733   -0.0004532019346698 W
   0.6678991808505631    0.1671153218202469   -0.0028029345656314 W
   0.5008810680347504    0.8350411765317521    0.0006335582388880 W
   0.3317902387159119    0.5016528930604387    0.0034546886171341 W
   0.3325818447258200    0.3356566371783502    0.0005415724840960 W
   0.6656394912286445    0.8308145491629837    0.4976791217033633 W
   0.6682402184838552    0.6678460675380942    0.4980698991545611 W
   0.3301629019056743    0.3335176506029586    0.4994275674781233 W
   0.3328363377005571    0.1632746587640117    0.5011537651971512 W
   0.0032319678782534    0.3339364277813906    0.5000180019538266 W
   0.7754578704519969    0.2185859791537810    0.3703903862065533 W
   0.0024440190709286   -0.0003385652212010    0.4968314490455219 W
   0.1114237694622106    0.8875393171994682    0.1334259196790292 W
   0.1140023427407264    0.7263739163593498    0.1301869217736595 W
   0.8878226222655398    0.9434917454861897    0.6310610187739947 W
   0.3874413872888378    0.7778457176048822    0.6297015664458702 W
   0.2238285299724760    0.2805211918439943    0.6313235674543979 W
   0.8907438405361940    0.6122890353734124    0.8672942918962022 W
   0.7247408514036286    0.9465624498045618    0.8694780047228799 W
   0.3850107159344948    0.6106611441169673    0.8660449975846894 W
   0.2192993528651645    0.2766653037045818    0.8666686239617799 W
   0.2237112808658723    0.1153353201309728    0.8684491631466162 W
   0.2767858856412845    0.0572489535371655    0.1341343359021004 W
   0.1093920720259408    0.0516457185401229    0.3680623851696219 W
