Hf24 Zr24 Ta24 Ti24 Nb24 V24 Fe86 Co58 Sb144
1.0
  18.0475445927696825    0.0000095230274577    0.0002491631231688
   0.0000095245290122   18.0478471629013164   -0.0000575844374478
   0.0003322180175443   -0.0000767743284937   24.0626709117738429
Co Fe Hf Nb Sb Ta Ti V Zr
58 86 24 24 144 24 24 24 24
direct
   0.9149583167497231    0.9221887589814052    0.8109900664682834 Co
   0.7500757784260031    0.7439678530742382    0.3103214392093787 Co
   0.7531667110515402    0.4202715957034117    0.8111461593505718 Co
   0.9173726963581905    0.4131453982779962    0.4389083573642253 Co
   0.5847902993532100    0.9156578182790799    0.0664352270626112 Co
   0.7447694053311015    0.0772790351514008    0.8124088972270115 Co
   0.7483241554360202    0.0741398441386229    0.5622819196099295 Co
   0.7472387816905172    0.0880046100075264    0.3162422392643452 Co
   0.7432253139580416    0.0798381366787936    0.0618157987652311 Co
   0.9156751133532173    0.7462678080795755    0.4359159710152085 Co
   0.9130144578209712    0.7395315964369138    0.6895196868976070 Co
   0.4166995621657828    0.4156587591924109    0.5561738408503933 Co
   0.2524997434429995    0.2477863210909344    0.0658736432976714 Co
   0.4179420253418348    0.0852529259386596    0.5605811939216241 Co
   0.2476974810991049    0.2477313235612718    0.8122375702210192 Co
   0.4076656671390316    0.0767670992790629    0.0622203911095029 Co
   0.2512767646668488    0.5801885832338626    0.0673979374231121 Co
   0.0794850980362224    0.7475970464309496    0.5690241334306881 Co
   0.5875365382094070    0.9179709736687937    0.5594929010371963 Co
   0.9133518615977175    0.2465355851552894    0.3150447245426010 Co
   0.9168317496640515    0.2576015531265947    0.5612619977623577 Co
   0.9107176078220820    0.5862195512436141    0.0673413527442612 Co
   0.9229709710303847    0.5836103971628933    0.3075131031691571 Co
   0.5835421555239459    0.2432701477614717    0.3157688982832318 Co
   0.5919726673568502    0.7486304781539790    0.9379335797596029 Co
   0.9108298234761747    0.5844120064237597    0.8171255901199013 Co
   0.0843102323667980    0.0829618942428130    0.0652081581665904 Co
   0.0786999479004200    0.0785906534099585    0.5653052308504845 Co
   0.2444777376873788    0.9209415126616085    0.0657394858973223 Co
   0.0793501839998666    0.4131517775937387    0.5579408956647336 Co
   0.2579075024702539    0.5804693636749612    0.5596374609491584 Co
   0.0835176753413532    0.7546714411286716    0.0684141203159812 Co
   0.9206771393641583    0.9164035875740230    0.3125185909094119 Co
   0.0842096400010761    0.2558662608002276    0.6858046847024001 Co
   0.9109204607715194    0.4140268750479871    0.6846334819120933 Co
   0.0807529903029411    0.5805556132952595    0.1835163252235136 Co
   0.2509055338684816    0.7556188527555725    0.6850548846632216 Co
   0.2460768264851689    0.7575565562235380    0.4326625303234488 Co
   0.5821487664546192    0.7533581266623908    0.6945634659101632 Co
   0.4192706880828445    0.9210721506321795    0.4364431693495782 Co
   0.4172289216233828    0.9198311697086173    0.9386021986239180 Co
   0.7567135376785630    0.2548454771344412    0.4360925250211095 Co
   0.5801485342427681    0.0807399489271136    0.4319622517084062 Co
   0.2516610118416480    0.4155447463873228    0.4414182153158548 Co
   0.7494204224442415    0.5937337380657456    0.4323151877616627 Co
   0.7553037972788977    0.5798396933637269    0.6920536529273974 Co
   0.2447867232479793    0.0894024939392160    0.9395924408553484 Co
   0.7487430940194155    0.9185399121395167    0.1825488350432981 Co
   0.7441846619457000    0.9202328080172790    0.6881321879323146 Co
   0.7451679074656729    0.9228292781534981    0.9387552194509706 Co
   0.2495547411175072    0.4185364974909062    0.1872146462867708 Co
   0.5822722495562875    0.0830068238193601    0.6830368367404759 Co
   0.4152903029710352    0.9184882561305053    0.1875402562965141 Co
   0.0842709770298352    0.9163138467158284    0.1878131865030049 Co
   0.0778406131461775    0.5870881838462217    0.6833318083495609 Co
   0.0836015087344499    0.9154309674924265    0.4336736960782596 Co
   0.5850963632609110    0.4168832318188059    0.6949983861142478 Co
   0.5861517164990681    0.0843433718841283    0.9347476349614864 Co
   0.9201538786904934    0.7489292545554448    0.9421852233977882 Fe
   0.9172099721582309    0.4154723004538300    0.1879717662699301 Fe
   0.5843264632815089    0.2500446235689023    0.0594006577777026 Fe
   0.9184894111539966    0.0818928099354907    0.9405487152810107 Fe
   0.5830054612318046    0.7545255489179751    0.4324992474849961 Fe
   0.9181901578926557    0.0774434237467811    0.6878568999572655 Fe
   0.2562575697028574    0.0864407983331456    0.6864977783592635 Fe
   0.9132546488926219    0.0834511537551688    0.4345600104619547 Fe
   0.5804495737665838    0.2478176971480596    0.8130682880151427 Fe
   0.5908858972480985    0.5817314793332118    0.0634053371514916 Fe
   0.9217235455634186    0.0846082399451604    0.1880095500300236 Fe
   0.5847076791009046    0.5844426071967637    0.3132203415557537 Fe
   0.5776144150856637    0.2517888676327943    0.5635097347132152 Fe
   0.2569935644998214    0.9127276171586429    0.8099727136787147 Fe
   0.2455263262576175    0.4116881107690095    0.6896470186549635 Fe
   0.2488648067237791    0.9171984853993003    0.5652130134317548 Fe
   0.2531290191652814    0.9183629822036549    0.3117221562477977 Fe
   0.2544145878219213    0.5868702130218983    0.8159093639057958 Fe
   0.2557231863830326    0.4143804197815379    0.9397765408932176 Fe
   0.2532887824219482    0.7546239675312031    0.1849106400305585 Fe
   0.2529638764488598    0.5797426699285252    0.3091081654978702 Fe
   0.5840937188583338    0.4206150290642169    0.9402904319883822 Fe
   0.5822095894941302    0.4124249287020572    0.4349918567331953 Fe
   0.9141262126971295    0.4145762055675282    0.9362056410409834 Fe
   0.5867971966456008    0.0809393496292415    0.1889803667644344 Fe
   0.2498716456741037    0.2473743578986127    0.5560624585505415 Fe
   0.2520235376787515    0.2522632519585243    0.3102535224872077 Fe
   0.9182189365646813    0.7506776065198788    0.1873849674316319 Fe
   0.5877398966708867    0.4132617173379466    0.1896857782892052 Fe
   0.5808508550667187    0.7483101326753919    0.1857241034448949 Fe
   0.5843696762950552    0.5839841595450272    0.5623981947004214 Fe
   0.0827567248278936    0.0791937497425997    0.3115055934227601 Fe
   0.5829850160138125    0.9205552818096390    0.3119072546158636 Fe
   0.7464680021220736    0.7479195587218737    0.8106046162955323 Fe
   0.0835261484404098    0.2478819532248858    0.1880546487372962 Fe
   0.0860296919745857    0.2540000263350459    0.4353766311271069 Fe
   0.0824355264036418    0.2468945900342430    0.9374510249197930 Fe
   0.0763056527656171    0.5820758843664182    0.4347754719899455 Fe
   0.0781689287731697    0.5871079351065428    0.9381515707081213 Fe
   0.0825486062326606    0.9144311142693272    0.6857835043961373 Fe
   0.0829103635251587    0.9208878923339046    0.9425107684069534 Fe
   0.4111752178056799    0.2508057254141771    0.1872383553488479 Fe
   0.4162216451421988    0.2479398125339904    0.4362210146837555 Fe
   0.4196525341107471    0.2467977540060126    0.6887170523785018 Fe
   0.4177098838743465    0.2454163111941728    0.9378861957997293 Fe
   0.4149148729080140    0.5814087929719948    0.1900931331906663 Fe
   0.4151540502955710    0.5789005398618005    0.4367989844049554 Fe
   0.4175743757422677    0.5906853710672045    0.6879062373370681 Fe
   0.4182523522935513    0.5808127978672765    0.9381033044694839 Fe
   0.4194484265890025    0.9232659611499053    0.6871782629824184 Fe
   0.7481950362610860    0.2510313624562067    0.1905375583799163 Fe
   0.7485562910358527    0.2493260582871362    0.6935461047771336 Fe
   0.7484141080005580    0.2526852259916636    0.9434328491847006 Fe
   0.7523085271004972    0.5818154163899302    0.1856464002176857 Fe
   0.7501999326294840    0.5814131476614182    0.9362965658557517 Fe
   0.7460960295523128    0.9206499995103418    0.4359269184903657 Fe
   0.7480620629773310    0.7527014940705872    0.5554636134500444 Fe
   0.5826911242356716    0.5842866955096612    0.8124644396251396 Fe
   0.7485557926810283    0.7512513978142584    0.0611126170840506 Fe
   0.7477997428677908    0.4128910662962976    0.3105972088048379 Fe
   0.5871778461729551    0.9198575345654797    0.8111121716284875 Fe
   0.9164616071337076    0.2528240024440176    0.0604906400386735 Fe
   0.9157897408658029    0.2565923248071513    0.8112427039637355 Fe
   0.9167862949456616    0.5808279073855236    0.5624994672665855 Fe
   0.9156361179980793    0.9183150183522869    0.0628040075340740 Fe
   0.9179929765843799    0.9208830908058321    0.5607261781291250 Fe
   0.2563206985255419    0.0824967862254306    0.4367541130426297 Fe
   0.0847018960269956    0.0863080436584721    0.8172287066854185 Fe
   0.0849814044106017    0.4164021421674885    0.0673747774853312 Fe
   0.0799252928497438    0.4103095832381427    0.3099546596937947 Fe
   0.0831010946426175    0.4087908906423119    0.8120521123932324 Fe
   0.0812331156331987    0.7517995140384696    0.3134760255311298 Fe
   0.0753183528467147    0.7489228006488441    0.8164041823931842 Fe
   0.4196646264137428    0.0839031105089457    0.3108624864925152 Fe
   0.4188051590725180    0.0875787569937875    0.8123100630469389 Fe
   0.4157989280931145    0.4118905416739819    0.0632596517494529 Fe
   0.4144964669709170    0.4167967837642824    0.3141531093994459 Fe
   0.4204853340729025    0.4117018051413341    0.8153508379104979 Fe
   0.4201793000724473    0.7499624946951297    0.0675003834307895 Fe
   0.4204218715958293    0.7555425849083358    0.3099587404004559 Fe
   0.4143080256904165    0.7497536666399492    0.5628484867888757 Fe
   0.4179441403567157    0.7464040434458896    0.8114524167914949 Fe
   0.7558033098733876    0.4200924393511090    0.0631107070201592 Fe
   0.7564752207121677    0.4167235476278279    0.5631512654007975 Fe
   0.2497571015806428    0.0820802247711683    0.1881780058486704 Fe
   0.2551553566000789    0.7424121041084143    0.9373392959131486 Fe
   0.4961200902605055   -0.0022415421119486    0.0008190153497176 Hf
  -0.0016039642550336    0.8326789998236044    0.7516713530008990 Hf
  -0.0010662140069428    0.8337560172443689    0.5012659904246363 Hf
   0.8329644344833701    0.8344113995262131    0.3723772442929152 Hf
  -0.0001685756674283    0.1659562919394664    0.7509398723781746 Hf
   0.1675050201317858   -0.0014213868460692    0.5001473559731378 Hf
   0.1672487089976506    0.3334020467433255    0.0008876732503472 Hf
   0.1681161631792838    0.1665935065438490    0.3740261723220619 Hf
   0.6658617137708827    0.3346307803291662    0.8792875495278381 Hf
   0.1678466692220130    0.6669501556984979    0.0007941023225781 Hf
   0.8365015012317688    0.0019033698540840    0.2494642237025132 Hf
   0.3324191618245602    0.6677565538714231    0.3706316659986113 Hf
   0.4978944522767633    0.3328087232210568    0.2504193386596800 Hf
   0.3334360174800868   -0.0010393843085584    0.8737868011674876 Hf
   0.4989277231966200    0.6655841947559368    0.4992935311063446 Hf
   0.6669683514585907    0.3322512793524017    0.6258576204356751 Hf
   0.1689787030305930    0.1661835229626044    0.6240798065744625 Hf
   0.5026513924075611    0.6652357166892635    0.0024559040066082 Hf
   0.4995136060153563    0.8370562446617419    0.6245297311738750 Hf
   0.6646787991137268    0.8317873159637317    0.2482815475955372 Hf
   0.5013879445087813    0.4975537032591052    0.1271106225887300 Hf
   0.1641809664327027    0.5003363350333225    0.3728505324913339 Hf
   0.3322702388346862    0.8352479830750635    0.5007566065009501 Hf
   0.8341195508695700    0.1684392144128762    0.1270117545101793 Hf
   0.6658811397429037    0.1695483862926795    0.7510411970514006 Nb
  -0.0000863964473044    0.3355840501315133    0.1255619971400957 Nb
   0.8352776614237518   -0.0015405149442332    0.7485693123474894 Nb
   0.6669921236433506    0.4945969742034882    0.2507408028796055 Nb
   0.3369184237596553    0.6676476373653487    0.6235501710087246 Nb
   0.1634203845019847    0.4991775519890430    0.1252797649186426 Nb
   0.1692649815423165    0.8327996717422664    0.1271372048586972 Nb
   0.3361790474686538    0.3343922664300262    0.8759070834168043 Nb
   0.8354987371586722    0.0011198172890141   -0.0005478143454538 Nb
   0.4998940822590286    0.4965860173997217    0.3757541798730650 Nb
   0.1659431833580118    0.8364491563290388    0.6264445409680330 Nb
   0.4997890444372055    0.0007750494195185    0.4965128679584064 Nb
   0.1626843993126731    0.3305854518701192    0.2517845719465005 Nb
   0.8300192296107114    0.6687330425808676    0.4990264372057834 Nb
   0.3359560404041781    0.4948807637331244    0.0012334261970497 Nb
   0.1663173531297757    0.1651512294386479    0.1284010716680674 Nb
   0.8339704352793196    0.8353925510482808    0.1227410619093231 Nb
   0.3334240449774977    0.1646787118236760   -0.0001880061356173 Nb
   0.0015785431913270    0.8299452362679340    0.2516497549585364 Nb
  -0.0008604155910937    0.8376498711255105    0.0011048462667295 Nb
   0.8356832575709856    0.6653919138348864    0.2484991421887016 Nb
  -0.0005413739048547    0.5011210543559821    0.4967407443995905 Nb
   0.8351862672366924    0.6682894538937579   -0.0003345401294834 Nb
   0.1707030482869305    0.0015169637435265    0.2518229476149071 Nb
   0.5001815483077351    0.5007539060780154    0.7534106959806454 Sb
   0.5031574807697492    0.8306648928639584    0.0026758572633859 Sb
   0.5000270316578375    0.4982138783815503    0.0021268253237827 Sb
   0.5003542105792296    0.8338528006443848    0.4975121227689078 Sb
   0.1643595430435566    0.8326915682189875    0.7501018310190947 Sb
   0.5010000520918221    0.4991338285868988    0.4982929849761961 Sb
   0.4996194085826172    0.8376499228820353    0.2481698895339031 Sb
   0.5013484486584182    0.1647667017170217    0.7487063724299819 Sb
   0.5000286414913117    0.5006599884490264    0.2519561302395059 Sb
   0.4987439981029796    0.1675523491002071    0.4973956188248172 Sb
   0.5009098670358519    0.1658151352377711    0.2499664352960970 Sb
   0.4991580217929156    0.1646905571090609   -0.0004450595127594 Sb
   0.3312579718502933    0.1639950570803653    0.1265930168822926 Sb
   0.8311709139935475    0.1657686113741644    0.0026822262106825 Sb
   0.6691676200268029    0.0003881671431814    0.2509636847671406 Sb
   0.6650698777738939    0.0006508260883797    0.4967862175044477 Sb
   0.6635400862241477    0.0017949850072100    0.7477388613816485 Sb
   0.6672980199126588    0.3368417075276456    0.0053072130801962 Sb
   0.6651564937906033    0.3274905856722111    0.2539865778042408 Sb
   0.6677599477449960    0.3341993076052689    0.5008781674548430 Sb
   0.6659573348532872    0.3332316266355361    0.7536835358268844 Sb
   0.6709864321367165    0.6645990076840378   -0.0007114736922406 Sb
   0.6660114451641677    0.6629164386488582    0.2471653797256140 Sb
   0.6633108590524774    0.6692865205445507    0.4955671893907355 Sb
   0.6652001754058603    0.6645654843846110    0.7501421239439697 Sb
   0.0006372808331895    0.1692576292163167    0.1229680610497133 Sb
   0.0015329643221328    0.1659631166783002    0.3725796027056020 Sb
   0.0000579550207011    0.1678305658760763    0.6256489819157963 Sb
  -0.0013338916331534    0.1687739174688239    0.8761944835599927 Sb
  -0.0033959534729515    0.4998239489619195    0.1261623100767052 Sb
  -0.0009385128643208    0.4954816839156870    0.3720681705850693 Sb
   0.8333920141985814    0.1681977831115961    0.2504424025316522 Sb
   0.8324440068730722    0.1659912364105769    0.4992063978968480 Sb
   0.8333545338105506    0.1627183497684646    0.7516391717186566 Sb
   0.1653827596783113    0.8334191692542600    0.5025301226372334 Sb
   0.8329812720677190    0.5015472459230844   -0.0007834138206788 Sb
   0.8338873882867525    0.4983154445183322    0.2484873238512169 Sb
   0.4977057862765568    0.8383680487966571    0.7502181507634665 Sb
   0.8346364514377065    0.5025622159123605    0.4993678961764069 Sb
   0.8317076500375166    0.8359719954259711    0.0006110757066328 Sb
   0.8334174949178704    0.8335513052262602    0.2473116032729164 Sb
   0.0012303235941563    0.8303517025316016    0.3746710205042096 Sb
  -0.0011849301244627    0.8379084036165448    0.1263543898742190 Sb
  -0.0011432505367053    0.4966491965801186    0.8745520182971679 Sb
  -0.0023245308028647    0.4969791430799701    0.6218055249181275 Sb
   0.8341569733401629    0.4985939357982131    0.7506008721365600 Sb
   0.1688935770195141    0.8350079728327210    0.2508488964538512 Sb
   0.1636706548673654    0.1671105908883022    0.0027679946255079 Sb
   0.1656958622172486    0.4993124939852386    0.7503893161988786 Sb
   0.6708191098262796    0.4978083989442075    0.6274437595020241 Sb
   0.6661532252766537    0.5023646045761785    0.8736702283283277 Sb
   0.6660891416539051    0.8307978571915535    0.1241974689342053 Sb
   0.6659663196583000    0.8352676524924698    0.3725910821719764 Sb
   0.6647259818942273    0.8329157755488653    0.6260746885148508 Sb
   0.6676956369834255    0.8340643055864536    0.8742665285249406 Sb
   0.6650302079198281    0.4992112042065679    0.3737157015877542 Sb
   0.1652578144885000    0.0009774282326235    0.1271055971452563 Sb
   0.1671131744217431    0.0008765812537954    0.6259445163218388 Sb
   0.1663464703650422    0.0000695702745471    0.8769914208990093 Sb
   0.1667718101491182    0.3324911381334890    0.1271253529955166 Sb
   0.1703958376057213    0.3342190749816861    0.3745611947765132 Sb
   0.1658837397644881    0.3321514449490213    0.6193220040163316 Sb
   0.1671498695187494    0.3302928741589066    0.8760733948602178 Sb
   0.1690490678377983   -0.0007513202151917    0.3744914354964897 Sb
   0.1685844262459249    0.6673061686699467    0.1257935383050761 Sb
   0.6695445957346988    0.4956196521801689    0.1262602660986115 Sb
   0.6658292323676497    0.1664475690248310    0.6257682127044479 Sb
   0.3350197189217975    0.1660741457454410    0.3713196864810437 Sb
   0.3352125446110217    0.1665592378563301    0.6229565022336767 Sb
   0.3329713845940810    0.1665420484189361    0.8744826685310081 Sb
   0.3339978199710046    0.4996368199811207    0.1269218788700019 Sb
   0.3315299238353346    0.4979704394083024    0.3752345100550592 Sb
   0.3357829081124333    0.5003826769440958    0.6256599767618085 Sb
   0.6663321724909995    0.1689863618733072    0.8759797472091830 Sb
   0.3370631342582379    0.4981616942889803    0.8769763382206167 Sb
   0.3349673241661408    0.8371724116858450    0.1251944575847259 Sb
   0.3353352625731576    0.8364026631045492    0.3726632418789320 Sb
   0.3348228588806225    0.8376495610509890    0.6266299799310376 Sb
   0.3353230528685337    0.8304652246834728    0.8738849713369746 Sb
   0.6670135280305270    0.1687178785001921    0.1250279930839227 Sb
   0.6688021229026460    0.1709818009726981    0.3758563963449723 Sb
   0.6634060286958087    0.0000085176642280    0.0002654865954617 Sb
   0.1655646780431790    0.8341014491296768    0.0019679944565864 Sb
   0.1651813344208778    0.6671127719594470    0.3745099976175866 Sb
   0.1641965103269143    0.6661385880682081    0.8763152384742579 Sb
   0.8344480960657271    0.3334992045264650    0.3727157451465489 Sb
   0.8313721032647272    0.3314325073057097    0.6254048320482348 Sb
   0.8315736912927385    0.3355279884677808    0.8760142650818148 Sb
   0.8307576001298248    0.6711376411073595    0.1259938305581972 Sb
   0.8382127387800875    0.6671932553753199    0.3708053455314397 Sb
   0.8335808737120954    0.6617266051905107    0.6224853115459437 Sb
   0.8320056093567610    0.3340454828555208    0.1265953150422608 Sb
   0.8307778049675109    0.6677393440336665    0.8771304726052168 Sb
   0.1676108677527459    0.1657842360815997    0.2508285547279643 Sb
   0.1652683349142409    0.1637565068750671    0.4980225362953829 Sb
   0.1680344166512126    0.1672896744102597    0.7489967349032770 Sb
   0.1698101076978926    0.4996589178379725    0.0022713441252193 Sb
   0.1613446085200348    0.4970712072330024    0.2488778410081888 Sb
   0.1642056960695955    0.4989539547060153    0.4979662729345242 Sb
   0.0002307740289328    0.8382725039568504    0.8780745789795174 Sb
   0.1713256082790678    0.6675225915448354    0.6249221500009478 Sb
   0.8346452888453474    0.0017546427933285    0.8761474873886891 Sb
   0.8339122847985972   -0.0027540014070531    0.6255171039560441 Sb
   0.4997950293553912   -0.0021863850831401    0.1270636677087422 Sb
   0.4972075548023086   -0.0012090421778470    0.3711790285692466 Sb
   0.4995773024732836    0.0020661525133025    0.6213337907747979 Sb
   0.5010330481632526    0.0027451660390982    0.8727638565820122 Sb
   0.5021162074808833    0.3314424964189000    0.1252113252438583 Sb
   0.4989739139726435    0.3300383172719689    0.3753036438257590 Sb
  -0.0029820883788664    0.8348398587833069    0.6264206415864297 Sb
   0.5003570050285197    0.3357185622701268    0.6275611174798380 Sb
   0.4983671480956709    0.6628113933905527    0.1275082412068683 Sb
   0.4980761472579912    0.6662139312417392    0.3727995474370353 Sb
   0.5010988799561434    0.6713330432219164    0.6254888304706916 Sb
   0.5014309393702027    0.6643553903707501    0.8766855345630410 Sb
   0.8348416728809110    0.0029027958720567    0.1245192388922911 Sb
   0.8333274834479178    0.0010736713707164    0.3746289033651490 Sb
   0.5010743339632530    0.3329657554113782    0.8784680228997673 Sb
   0.3328716108974397    0.6708736707413179    0.7482002519303302 Sb
   0.8291583367854416    0.8323831369542984    0.7490862090480394 Sb
   0.3376576738223108    0.6710350270305561    0.2466003554632162 Sb
   0.3328890672838594    0.6690805131439949    0.4964865325769601 Sb
   0.8335600758824256    0.8382602768775546    0.4962687861480722 Sb
   0.0009572200406202    0.0032286464902671    0.0031705358389782 Sb
   0.0025233692687063   -0.0002277366146804    0.2494402913339340 Sb
  -0.0017291069357485   -0.0005222967243714    0.4966816932930876 Sb
   0.0009532044670727    0.3330687832717589   -0.0012014745274810 Sb
  -0.0045019522076709    0.3269482136447176    0.2499764476977131 Sb
   0.0013682170283559    0.3331195351781856    0.4958337248522210 Sb
  -0.0011391718023017    0.3320734376406330    0.7477945269896374 Sb
   0.0004443811916398    0.6694111286271790    0.0065654212551852 Sb
   0.0012184188335238    0.6672878885295760    0.2474827961750831 Sb
   0.0027990492688258    0.0005665627099613    0.7514087227978683 Sb
  -0.0038348475312372    0.6655565302048924    0.7534257732254921 Sb
   0.3259752652209605   -0.0002631088403571   -0.0005175723802515 Sb
   0.3362433572890123    0.0023542191610936    0.2511210611446737 Sb
   0.3344468195354214    0.0002863307135593    0.5012179152348714 Sb
   0.3387664450106138    0.0033013192939371    0.7495069831530218 Sb
   0.3360972745490169    0.3281221854677001    0.0003425574158843 Sb
   0.3306618457151586    0.3351882931444566    0.2495648423761957 Sb
   0.3351780683481540    0.3303886363269893    0.4968518946100567 Sb
   0.3353818401538564    0.3302680867748647    0.7515934013227621 Sb
  -0.0040570153283422    0.6655992269186788    0.5004236543413030 Sb
   0.3367047925276909    0.6623060639234083    0.0042016436697076 Sb
   0.8356050064386186    0.3338607560960697   -0.0005948005646194 Ta
   0.3368837852760698    0.3328035993921826    0.1255721859717112 Ta
   0.8333616932720112    0.3311834105391135    0.7514529620509420 Ta
   0.8283508912334444    0.6657579866339990    0.7528611136179016 Ta
   0.4977558963732465    0.1678948938831239    0.8725320566890261 Ta
   0.6662319544193213   -0.0017094369083721    0.8731171321757049 Ta
   0.6630587562572754    0.6671851186956509    0.3709422743923915 Ta
   0.6650360058577344    0.6659099179509592    0.1231295722962148 Ta
   0.4996183755387930    0.1723924030818738    0.6246977807034393 Ta
   0.3334270502067568    0.6641463884468621    0.8746018804534659 Ta
   0.3321265630070236    0.1678832843448597    0.4949423461046285 Ta
   0.1624546753953472    0.1664433240245093    0.8766143624904511 Ta
  -0.0005492293269336    0.6686304941708190    0.8818739144052110 Ta
   0.6683691832874314    0.5000323248540968   -0.0023670675723690 Ta
   0.3337413849927486    0.4985464000898673    0.4990821603131400 Ta
   0.6665755190015867    0.8338193349040618    0.4984309053624891 Ta
   0.1658573546204787    0.3349634936460695    0.7483730318001814 Ta
   0.8334753301950658    0.4990978934065980    0.1258401669289865 Ta
   0.6649483303496549    0.0020022723139698    0.3735039051987523 Ta
   0.8352413170843117    0.1677048237677574    0.3765389197422732 Ta
   0.3339668793137985    0.5035640518075361    0.2512163916106358 Ta
   0.6634747391183051    0.0013512221907920    0.1257588796735263 Ta
  -0.0016307954518118    0.6635153924792807    0.6253533793150483 Ta
   0.4983475595683001    0.6660965740684091    0.7531304982512053 Ta
  -0.0006017109288624    0.3329719594665961    0.8732102777342247 Ti
   0.0027058076274389    0.6634651497094637    0.3720086157990636 Ti
   0.3314119929696496    0.0007542245960408    0.6269917854937388 Ti
   0.3329458021356645    0.0024302902650685    0.3745869588072359 Ti
   0.0014217956323125    0.0011308906342418    0.3731535565988250 Ti
   0.3293137645106693    0.0005651431059495    0.1277066647741347 Ti
  -0.0015553653445486    0.0041112136977432    0.1265579662351754 Ti
   0.5010800706057165    0.4988942660505869    0.8773703385367262 Ti
   0.4992472855312973    0.8286408411578188    0.1256618166034300 Ti
   0.3352908311812572    0.1654996681270548    0.7469831690674492 Ti
   0.4972311299348075    0.1636082365176087    0.3726266335100020 Ti
   0.5032695255785203    0.3302414100864867    0.0012270177051501 Ti
   0.5016936628321134    0.3320660367033865    0.4991041103467026 Ti
   0.6646021341636729    0.1729559838866065   -0.0000451910353145 Ti
   0.4983488863485971    0.3317726564387219    0.7533658256105717 Ti
   0.6671518849272443   -0.0024828613860456    0.6229064501750310 Ti
   0.8341829263071675    0.4960155180607653    0.6222901278585427 Ti
   0.3335029235700003    0.8355331615612256    0.2501988177911165 Ti
   0.8350629285092563    0.0017419621663029    0.4993616763263908 Ti
   0.8338022182568126    0.3376720218640191    0.5019539321057436 Ti
   0.6672039778015625    0.6669793159286408    0.8731749505702256 Ti
   0.1678816842699851    0.8344628624514148    0.3731853258789715 Ti
   0.3351334109965664    0.1691778804719389    0.2490290848953298 Ti
   0.8331923779970436    0.4998602886646000    0.8765588893461854 Ti
   0.5018098990434448    0.6755342900425170    0.2512027799367092 V
   0.8258962522201385    0.3344798344789311    0.2494919607847903 V
   0.5025892656745425    0.8307173106756547    0.3690240942395003 V
   0.5002515877569522   -0.0017862089643084    0.7469781964245439 V
   0.5060861440092045    0.0059271458277573    0.2509809176451069 V
   0.1673731977456400    0.3255067635420757    0.4977145881736154 V
   0.1616833068099348   -0.0028031374291647   -0.0002394487086210 V
  -0.0069066720060098    0.1717166767748665   -0.0023879154288728 V
   0.0037884648837925    0.1605366294977520    0.2457390421784089 V
   0.3356215342095937    0.8410230669140938    0.7507826947126073 V
   0.6678165264975419    0.1645109100857825    0.2459250927439063 V
   0.6653293142734855    0.3393732941655198    0.3757953050869971 V
   0.6607748285128140    0.5060010414683407    0.7531968102861392 V
   0.6684174513530003    0.3315477413376198    0.1319569047707427 V
   0.3385784394369425    0.3276864941869870    0.3706954733868642 V
  -0.0026633901678345    0.6733572778085778    0.1280988335106817 V
   0.3326712078536027    0.6756441610718359    0.1250856270291332 V
   0.0076175630435181    0.3289899156004129    0.3739285025648598 V
   0.0020946085143646    0.0060359840057896    0.8804200000195358 V
   0.6692966336273607    0.8294532892751492    0.0027795238728568 V
   0.6638080192707331    0.8330930653156330    0.7561448893319286 V
  -0.0056419688108077   -0.0033640030204530    0.6265538379095038 V
  -0.0010886249389768    0.3347388608000305    0.6205984056332503 V
   0.0008877997073430    0.4882530099313521    0.2467905384127394 V
   0.1634267703814617    0.6651103986135979    0.4996416884062368 Zr
   0.3334566896455672    0.5001707218734289    0.7511289585828054 Zr
   0.1691248066832236    0.6672346149056555    0.2495500413304048 Zr
   0.1643022188954401    0.6662714916181227    0.7512775162809788 Zr
   0.6673360864179727    0.5008726949847084    0.5004401477462707 Zr
   0.6650576970630891    0.1683473743261915    0.5008088807907198 Zr
   0.1709019703627190    0.0001091991186918    0.7509720967926851 Zr
   0.3344009512830470    0.8300778982401805    0.0003839948480217 Zr
   0.8335873781277513    0.8335299722442677    0.8746369752374623 Zr
   0.0003742906957618    0.5002408202518540    0.0000919678542060 Zr
  -0.0013112171221220    0.1667572586931811    0.4980668645923893 Zr
   0.8311251151569123    0.8307719505158742    0.6217970416180615 Zr
   0.6679861540347701    0.6659997486000069    0.6228909127266272 Zr
   0.1673989891445540    0.4991362182379875    0.6243520953791279 Zr
   0.1671820469257462    0.4977498687946668    0.8761567192441976 Zr
   0.1683802958016181    0.8333037135545077    0.8764091717500465 Zr
   0.4996778160798467    0.1648773675925594    0.1247489409189874 Zr
   0.5026472499469453    0.5032308466422413    0.6258796421584490 Zr
   0.5015251856312123    0.8338373950349772    0.8753113375358414 Zr
   0.8333085647032394    0.1643790299572038    0.6258362275400082 Zr
   0.8328535888052789    0.1692550431253246    0.8776659838521014 Zr
   0.8321595094189960    0.5000062853248854    0.3733018000977268 Zr
   0.0000800452373535    0.4981484750347575    0.7495609375903852 Zr
   0.3320547235799653    0.3322826105554134    0.6250096648726117 Zr
