Yb12 Ce13 Sm13 Eu13 Er13 B384
1.0
  16.5604563306328885   -0.0000458658480207   -0.0000387422216569
  -0.0000458705327163   16.5618083346100917    0.0002887151183079
  -0.0000387077278293    0.0002887165243994   16.5628614424703287
B Ce Er Eu Sm Yb
384 13 13 13 13 12
direct
   0.3737169477153689    0.8742759126537012    0.9494080562362595 B
   0.8751348003843599    0.1247024109509116    0.3010045374982881 B
   0.8729469149203771    0.1260494060278128    0.0514762199172778 B
   0.6237730945014898    0.8728473622926562    0.7997860142800682 B
   0.6231675621459584    0.8746468055416310    0.5495823966777363 B
   0.6237474301352515    0.8743405320916339    0.2988420076689673 B
   0.6248018725859708    0.8732460427842690    0.0490098339189201 B
   0.6259492867324289    0.6259744054534057    0.8014637256957234 B
   0.6259962461100789    0.6239770922885092    0.5516076377697161 B
   0.6234617835079378    0.6247052228772676    0.3010684652951356 B
   0.6256979762127184    0.6244877723719244    0.0513575747262045 B
   0.6255416264611523    0.3763458097200648    0.8006752645565953 B
   0.8756197707652621    0.1244864559092863    0.5501793997353907 B
   0.6263070688776500    0.3748974977838532    0.5511719255947244 B
   0.6265919773073033    0.3730249092462037    0.0517273593117225 B
   0.6252851424932284    0.1249155807278000    0.7997633612556414 B
   0.6239727525916647    0.1236863995683802    0.5500136285648285 B
   0.6238383041410988    0.1244738927001327    0.3004438250557259 B
   0.6268974865849222    0.1243258664487044    0.0504461523139110 B
   0.3739777987652371    0.8753395930690503    0.7988572861581493 B
   0.3743306222328293    0.8757251483881083    0.5483751687185379 B
   0.3756114015246059    0.8752663811814541    0.2989568622466630 B
   0.3741549157514526    0.8729763326471004    0.0495606026131399 B
   0.3765327786836400    0.6262202815582435    0.8017949541553618 B
   0.3748629581605299    0.6266621068518684    0.5515039568462232 B
   0.6243900817817883    0.3743235150873563    0.3013446995191990 B
   0.3761995633075351    0.6242272931922453    0.3019062796754364 B
   0.8754391668560977    0.1252981578105244    0.8004958583497213 B
   0.8759150041710625    0.3739886244824602    0.3007289560812449 B
   0.1234539957751977    0.8002253523670231    0.3726031063697411 B
   0.1240181214187363    0.8002635901202587    0.1240252618616202 B
   0.1246227540081864    0.5510838314253249    0.8756250009419428 B
   0.1245225576401677    0.5512886131607342    0.6233390119379103 B
   0.1245228415168892    0.5501711934696886    0.3751142178000869 B
   0.1247417906644826    0.5501180117786841    0.1248538092342709 B
   0.1283107971723490    0.3004349982012742    0.8725421661038384 B
   0.1262694509943597    0.3010265325785172    0.6240668758679432 B
   0.1255875827417375    0.2997800670077906    0.3728745307519704 B
   0.1273495934143171    0.2996134099398614    0.1241094694773291 B
   0.1245750638169567    0.0509134260341758    0.8747182657567584 B
   0.8757739457244303    0.3723739818658292    0.0511060939654616 B
   0.1253386889018515    0.0511893353787339    0.6220112075021300 B
   0.1242147128499630    0.0503609850868369    0.1227531744944950 B
   0.8730773112919022    0.8758139842274224    0.8005950496961495 B
   0.8743741322255173    0.8732835441954714    0.5500608085805659 B
   0.8748460900151824    0.8745527790821006    0.2996338307229977 B
   0.8727390446669178    0.8746173740292765    0.0497016524220716 B
   0.8741206054161260    0.6253038008111508    0.8004072159659168 B
   0.8741392960350738    0.6244157874156240    0.5504072773558770 B
   0.8756664691532230    0.6244614739393085    0.3001604459514453 B
   0.8749678517977675    0.6253473331704346    0.0503546771619220 B
   0.8763286478798331    0.3764180449782066    0.8003943396084255 B
   0.8741880651129242    0.3741020377426992    0.5505413462198768 B
   0.1249331260924457    0.0502764323947652    0.3739188124684316 B
   0.1256236425501243    0.8011393417465352    0.6225095344193083 B
   0.3756928597386703    0.6261478784665340    0.0525288856685205 B
   0.3746040463121778    0.3746779984169287    0.5502062435228406 B
   0.8743034042515718    0.6242115979362086    0.4504352622585919 B
   0.8759908127936366    0.6243749639306695    0.2001776073745982 B
   0.8765310167007311    0.3733957688812892    0.9509180975381780 B
   0.8755801300145767    0.3749421468534996    0.7004560084403995 B
   0.8746531432221883    0.3746209913582074    0.4506272142474373 B
   0.8764112850410477    0.3743773165416422    0.2010365465835182 B
   0.8740444001311600    0.1270816352841180    0.9513627997566930 B
   0.8747333793020070    0.1245239149079867    0.7001992984364682 B
   0.8753954686391636    0.1247191024469372    0.4503064306219481 B
   0.8756060950924608    0.1234654270850886    0.2015158851680841 B
   0.6238643771713216    0.8741198517647177    0.9495650799373552 B
   0.8744989786001528    0.6245659265034604    0.7004738620927673 B
   0.6240825092082340    0.8725583219486421    0.7002253261558765 B
   0.6238494352519477    0.8739077755070641    0.1990248791210441 B
   0.6259719279284379    0.6259665995368975    0.9516056272517920 B
   0.6258770553179118    0.6254889093378072    0.7019433293471981 B
   0.6261991403901787    0.6241325170036123    0.4514145568019091 B
   0.6245780645573652    0.6241716939773424    0.2014066951966475 B
   0.6270964018889336    0.3741705513330069    0.9511012021822867 B
   0.6253247138063471    0.3744953156221017    0.7009456490679279 B
   0.6264831636036400    0.3750737618075263    0.4511189242716229 B
   0.6247944334101391    0.3739552658625783    0.2016445546505705 B
   0.6272976045973149    0.1252062700556027    0.9501637968547391 B
   0.6250871690939866    0.1247893112292267    0.7000854427739263 B
   0.6235273821808097    0.8751045599924780    0.4492748958519254 B
   0.3764007358601131    0.3765112079407109    0.8008407620353399 B
   0.8750163741809976    0.6262746198084606    0.9504512271789245 B
   0.8747435246860502    0.8734660536824003    0.4499315368589354 B
   0.3760051952979379    0.3750162344508326    0.3007998838440192 B
   0.3755291109474236    0.3743520970382994    0.0515878336770349 B
   0.3759252006348953    0.1259052290890619    0.8001919457245493 B
   0.3741653824733114    0.1253234776755757    0.5499425142584229 B
   0.3751678674934964    0.1243672218219489    0.2997835387885867 B
   0.3747463795040432    0.1253308865707099    0.0502835540311105 B
   0.1244047208838808    0.8766944593260092    0.7978909912733914 B
   0.1242788251032601    0.8757094225012982    0.5469919471576445 B
   0.1231832552075869    0.8756238480169979    0.2978828465759306 B
   0.1256560098989428    0.8746179698821360    0.0483637641744914 B
   0.1250132424918508    0.6254909968211909    0.7996829170498150 B
   0.8752735931068646    0.8745944602353810    0.1995366652840973 B
   0.1254602576884442    0.6272887996100150    0.5488602537878290 B
   0.1259781198102242    0.6259504144215031    0.0505406225859071 B
   0.1261267674690165    0.3758437861482422    0.7988377190929693 B
   0.1255272120470563    0.3747304181053240    0.5484077997101867 B
   0.1254210166865132    0.3751349519792817    0.2989017819387046 B
   0.1263622231435514    0.3746092981348488    0.0493191092492678 B
   0.1255299826718758    0.1257185421964357    0.7986847449468454 B
   0.1265793493883991    0.1271058864424432    0.5483015469606830 B
   0.1251727812412613    0.1250104285309263    0.2980456364169138 B
   0.1252888051894455    0.1256325638685930    0.0483967202836438 B
   0.8725258603232244    0.8753890628021348    0.9503976993288251 B
   0.8736355297315695    0.8747813153065471    0.7003954115033889 B
   0.1238391780736004    0.6247942288739033    0.3000272687220977 B
   0.6241224276750367    0.1240374734251679    0.4500692763455353 B
   0.1252649148949120    0.8012502878417394    0.8724832216681204 B
   0.3745538852183419    0.0497663523601598    0.3749773122863823 B
   0.6249011853179048    0.1994505315671180    0.3759972512808041 B
   0.6253633348770373    0.1985845073339463    0.1262231427003736 B
   0.3753320284003829    0.9502011065170036    0.8742294363478155 B
   0.3749384773692124    0.9506921547191716    0.6231998027035273 B
   0.3742311569470900    0.9503556726152708    0.3736001362108157 B
   0.3752110272487008    0.9492148990577703    0.1244772485764157 B
   0.3751410569750714    0.7010883226117435    0.8765515690981273 B
   0.3747582168324102    0.7010039737508011    0.6269321904830969 B
   0.3752124240080550    0.7002789140600888    0.3758263686308570 B
   0.3768432897810718    0.6998556296027866    0.1276618990528050 B
   0.3761662398071742    0.4510004572206511    0.8768341947406162 B
   0.6264766985723527    0.1993808164678161    0.6247638347828497 B
   0.3756167125555274    0.4505902816595561    0.6248543196176181 B
   0.3765730540380654    0.4496123534173335    0.1271168494781030 B
   0.3744631499972957    0.2010560451749300    0.8750774617206243 B
   0.3739359768672967    0.2008336529688524    0.6255348319606998 B
   0.3740844992107983    0.1995397229508418    0.3745775917271772 B
   0.3750106973661634    0.1995600191167310    0.1257439442264078 B
   0.1238862279497724    0.9510504869541685    0.8742782380658188 B
   0.1241394920173950    0.9512486710892035    0.6210784411818909 B
   0.1243106756256303    0.9504387956832846    0.3732165082151869 B
   0.1242728089823068    0.9502157644754654    0.1223725936054203 B
   0.1259293762995922    0.7010101785211236    0.8742517418560544 B
   0.1259631083073482    0.7012683712300296    0.6239282232619294 B
   0.3754141646740038    0.4495982240675694    0.3758244248854966 B
   0.1234852138982027    0.7004810551059307    0.3737684735751297 B
   0.6272889168495585    0.2004861090718668    0.8748373728330326 B
   0.6252514223331503    0.4496516294682278    0.3754769552943757 B
   0.8748979372211714    0.9492494571127378    0.3748885510292277 B
   0.8736252231311205    0.9496036812361983    0.1248072397679224 B
   0.8739509740859287    0.7008878693299864    0.8753065213842418 B
   0.8738317585076480    0.6995664203967896    0.6251647466164084 B
   0.8752530972060403    0.6993589564272830    0.3755272382965217 B
   0.8749981613340484    0.6997967179395750    0.1251341959952602 B
   0.8768398072811489    0.4503665198896167    0.8762006038336853 B
   0.8749026258196178    0.4495066106623836    0.6253689428917376 B
   0.8750913416725747    0.4494504008877223    0.3754476041687380 B
   0.8767706544936443    0.4489889955906990    0.1252899628917720 B
   0.8752876237623824    0.2007967693361977    0.8753905736342178 B
   0.6252903705828106    0.4487745177934716    0.1271381834127128 B
   0.8738384550643058    0.1993435818291354    0.6254970043012267 B
   0.8746879425037626    0.1992336517913474    0.1281481444578707 B
   0.6234771781537272    0.9492549222074042    0.8738083713941691 B
   0.6229115659676564    0.9487809718501421    0.6259724464313124 B
   0.6239963572457944    0.9496699605036460    0.3729292146594679 B
   0.6247081611933845    0.9486780508631687    0.1242851135456986 B
   0.6261515930418604    0.7003739072721645    0.8766728635084863 B
   0.6258474217313991    0.6995385104913480    0.6260675035319779 B
   0.6243216919405038    0.6996375316027343    0.3764636259884911 B
   0.6250522099334933    0.6990765221790119    0.1255090416528323 B
   0.6262124479584953    0.4506048497118834    0.8758858161382336 B
   0.6258826986481862    0.4496725761878343    0.6266091488694816 B
   0.8748072545410943    0.1996998020637291    0.3756366206772824 B
   0.3753402477844242    0.0493827316380529    0.1250614925139553 B
   0.1247815503292178    0.7002178393301071    0.1256880486487826 B
   0.1244698728044859    0.4508073365895875    0.6228191901023047 B
   0.6250795925202045    0.5494501273599708    0.3754738692155881 B
   0.6252764967625484    0.5489436612607766    0.1272031480258455 B
   0.6266833582798941    0.3005674316304487    0.8751442868123592 B
   0.6260287175173653    0.2993177283853317    0.6258912462744763 B
   0.6254691918315360    0.2995183022399159    0.3767019398566070 B
   0.6257485197665550    0.2987015291264229    0.1267763029541691 B
   0.6249373930907125    0.0496132975663578    0.8743920581745714 B
   0.6226431824826801    0.0488059825812631    0.6257964702669199 B
   0.6237847266715167    0.0495546752384541    0.3743641832331274 B
   0.6248926529314524    0.0485089947201319    0.1248950707599725 B
   0.3733916628364125    0.8002356984105307    0.8738039569417382 B
   0.6257320733399382    0.5497155128441775    0.6276594672156898 B
   0.3729518895273820    0.8005433462238570    0.6246000285240176 B
   0.3756646549047615    0.7992695234747442    0.1253328773719233 B
   0.3759955194767058    0.5516994708409246    0.8772325623207996 B
   0.3756665637446208    0.5511568814864515    0.6260745959220277 B
   0.3749684185945046    0.5499019546516450    0.3768509600771330 B
   0.3762568744970046    0.5498727707694050    0.1274401141265479 B
   0.3754482757580880    0.3009747514558067    0.8751088911346174 B
   0.3745925007697312    0.3007943464170048    0.6260219569480141 B
   0.3746238571002010    0.2994527533787730    0.3750128816879557 B
   0.3748916706536745    0.2994447890728184    0.1261935015449898 B
   0.3765449146965999    0.0505790320458072    0.8746032384634309 B
   0.3757827292743883    0.0503793815718621    0.6250565097483911 B
   0.3748205398153849    0.8002868960225471    0.3743737569848221 B
   0.1250882767835969    0.4505365696897627    0.8753041837071679 B
   0.6259052485490961    0.5508397253800819    0.8760290614519101 B
   0.6236906253363022    0.7996036657249387    0.3751178429853219 B
   0.1248845858828712    0.4498243801939178    0.3743787412816364 B
   0.1245171721903411    0.4496576546184767    0.1244215866498287 B
   0.1269288185519378    0.2006208402217060    0.8726457913092767 B
   0.1266190711692397    0.2011762406947474    0.6245014732787727 B
   0.1256923437299165    0.2002788354747431    0.3724847220267120 B
   0.1258816769058080    0.2002604231852120    0.1235211026274798 B
   0.8732255727604885    0.8007378160664407    0.8754336031563680 B
   0.8736248828451514    0.7992974273475280    0.6255611645991501 B
   0.8748528549665517    0.7991977178057800    0.3749095260317261 B
   0.8747517028441369    0.7996528975473776    0.1244573255758107 B
   0.8755699029129025    0.5505906928222826    0.8757753312953362 B
   0.6244374664637394    0.7985964856042528    0.1237546559834006 B
   0.8748345426913178    0.5494398246160526    0.6256231131741716 B
   0.8763635297313284    0.5494387158994325    0.1250754265937833 B
   0.8759932899070768    0.3006735723721840    0.8752532621815763 B
   0.8743887829494110    0.2993185615917898    0.6257678775700417 B
   0.8753274444976076    0.2993939738713805    0.3756279430570818 B
   0.8757332036978092    0.2987280913978921    0.1272423257366926 B
   0.8746567161173600    0.0508939781613300    0.8766572272312626 B
   0.8760012117805178    0.0493176464584132    0.6248337854879636 B
   0.8754976290602354    0.0494890779124167    0.3755157045069708 B
   0.8742958851161222    0.0494726585884878    0.1253615566628442 B
   0.6242231798731702    0.7989868994543844    0.8755771228352098 B
   0.6242557383263924    0.7988921881698950    0.6246875778552158 B
   0.8747902243372890    0.5493731819435475    0.3751732648658351 B
   0.6238345025739642    0.1230619619578688    0.2006042248964873 B
   0.8725947084285560    0.9508627290724335    0.8760116333088347 B
   0.3729281779852075    0.8752809556921076    0.6990000085768494 B
   0.9504251534960878    0.6254157608439591    0.1251010431362380 B
   0.9516537300010193    0.3749606296597743    0.8758499923727506 B
   0.9499227946591019    0.3737418469641210    0.6242048855533111 B
   0.9505026241593396    0.3735217496753689    0.3755842228924429 B
   0.9512714791250989    0.3722696204327132    0.1251489364691851 B
   0.9501352378870859    0.1259061598407474    0.8770621558331044 B
   0.9503565420715622    0.1252448275438401    0.6243189860313886 B
   0.9498622955212633    0.6252234360531257    0.3753907982451764 B
   0.9504665910972875    0.1253130271700807    0.3754826875158025 B
   0.8746034696887958    0.9490963506488417    0.6248063103174506 B
   0.6988654460715086    0.8740659233155248    0.6256573008528050 B
   0.6990528546825323    0.8747684689182741    0.3742871559639319 B
   0.6994237622510914    0.8740559169784937    0.1237155629479410 B
   0.7008381776908007    0.6259240671053609    0.8760197010487334 B
   0.7005122592505442    0.6245452237021818    0.6273395890657262 B
   0.6999099950478993    0.6240734981473081    0.3759233776169646 B
   0.9496666599344770    0.1255401004531473    0.1251570308908082 B
   0.7003494451516852    0.6239505867949069    0.1264406983058876 B
   0.9496147821509925    0.6254003527757572    0.6242181199578893 B
   0.9491100600052172    0.8747712946407536    0.1238238152768394 B
   0.0491011656903275    0.8752490569081910    0.1220254868570835 B
   0.0501667831499169    0.6258383511350500    0.8754229115824043 B
   0.0499235176730652    0.6266471426403778    0.6233026071301661 B
   0.0494171380844265    0.6256596519076293    0.3750281367244093 B
   0.0501449275277886    0.6255100859371726    0.1247995612579079 B
   0.0518066707562153    0.3746304774593368    0.8747211318789494 B
   0.0501301682546745    0.3748748281060243    0.6233109308280637 B
   0.9497963117087098    0.6258273262433520    0.8756620320158421 B
   0.0504813693593241    0.3740357769220266    0.3740843133272160 B
   0.0503737941614543    0.1260650585583722    0.8751457989177085 B
   0.0506957905288081    0.1264410112616587    0.6228325718798267 B
   0.0504461117625352    0.1260799052037571    0.3740937041999859 B
   0.0498555005274254    0.1260484991451837    0.1222135532037853 B
   0.9483843684844938    0.8763650054614678    0.8762505242923945 B
   0.9492596304108392    0.8739009467145650    0.6241319365230510 B
   0.9494376313235509    0.8737377934221724    0.3749131568712116 B
   0.0511686019720864    0.3731501549471914    0.1234359382689192 B
   0.7012500306862912    0.3763219027044606    0.8750641231849643 B
   0.7005503068231359    0.3747866079731875    0.6264283391069959 B
   0.7004398766422003    0.3746548781509585    0.3758303913882082 B
   0.1994283705982123    0.8757115650633289    0.8721599278112174 B
   0.1994476298219999    0.8763932216382235    0.6220853765004754 B
   0.1991428722123669    0.8761718135880566    0.3723729260205758 B
   0.1995891256055525    0.8754113460229284    0.1244281919821267 B
   0.2002146368153406    0.6263846771411038    0.8752097892931184 B
   0.2000511306216803    0.6261856335029417    0.6242958879935758 B
   0.1993129682704504    0.6251379783504870    0.3747592438090240 B
   0.4502611111615150    0.1243187048443953    0.1252705893053154 B
   0.2002892511150142    0.6249401221161296    0.1262744476434709 B
   0.2001315538754324    0.3763455542295259    0.6233682061122661 B
   0.2002683274989056    0.3748230256315254    0.3731466948321234 B
   0.2009381211615135    0.3747764569791973    0.1254884126486294 B
   0.2006294592996447    0.1254632794758550    0.8730314905615666 B
   0.2006680095702671    0.1260274465594987    0.6243975985711744 B
   0.2002929800240762    0.1245242476364239    0.3722735899348566 B
   0.2003205610415377    0.1250755467142218    0.1244334957771333 B
   0.2012037798782248    0.3758738044219027    0.8740857214111855 B
   0.4493091354940884    0.1245658612483331    0.3752924600668893 B
   0.4497880542839184    0.1254816521329911    0.6251245317810514 B
   0.4506142768002500    0.1265435266534718    0.8751486386932741 B
   0.7006395892231794    0.3738622347113186    0.1280399392730610 B
   0.7008165889602758    0.1247463407554905    0.8745411932685676 B
   0.6997685527957004    0.1235002518588705    0.6250351933774257 B
   0.6994867947295491    0.1246069006645009    0.3748977425586626 B
   0.6997865745106429    0.1229230839626390    0.1269532736250732 B
   0.4489779237302766    0.8738697985209203    0.8741727844297571 B
   0.4488923086666674    0.8747661491211196    0.6240593322992990 B
   0.4495758578575396    0.8749374373002238    0.3736812326948641 B
   0.4500837978691760    0.8734019527277713    0.1239714986124935 B
   0.4508526353537795    0.6274964876659702    0.8775027270350385 B
   0.4506008099291764    0.6269291059366111    0.6267451636688666 B
   0.4499206551060881    0.6254462526380165    0.3767345728741635 B
   0.4510558471888679    0.6253039697622871    0.1272160860138827 B
   0.4509214143316410    0.3753805733637041    0.8759986226916218 B
   0.4503412623862778    0.3748255857250488    0.6255625914093936 B
   0.4500946050762728    0.3744469523708804    0.3758611129817062 B
   0.4506536214870506    0.3742081660985240    0.1265425172006560 B
   0.0490191664231546    0.8746427917715129    0.3734772776205675 B
   0.0494537261739377    0.8754132506742378    0.6219086662685562 B
   0.6987184281534881    0.8746284998508297    0.8749640968792578 B
   0.3003130464735655    0.1245503882361607    0.1254870410931967 B
   0.1246899341182122    0.6266203921609228    0.4491440961069550 B
   0.1240590937462727    0.6249012541472323    0.2001191353016614 B
   0.1265185728804380    0.3745670237859079    0.9491057702796860 B
   0.1249884102509036    0.3762824408696038    0.6986451449217207 B
   0.1254810069867459    0.3738403753829452    0.4483960177500214 B
   0.1256951318241797    0.3743814549981082    0.1991922686724521 B
   0.1256615962921570    0.1258032118633866    0.9485891503975052 B
   0.1247006369611791    0.6258873208739658    0.6990750596670067 B
   0.1255998495456802    0.1255739973424635    0.6986552159260769 B
   0.1249157108767889    0.1249902487205062    0.1981267439503587 B
   0.7980554409827605    0.8753778057428147    0.8753747870593936 B
   0.7989037831608825    0.8741884122185902    0.6259123558788112 B
   0.7995447593400069    0.8745448293938898    0.3745727997450939 B
   0.7991480816938249    0.8746409052841463    0.1244518312539951 B
   0.8001679655105732    0.6257545963606538    0.8752324197916902 B
   0.7997399794012396    0.6242353804600725    0.6265385598025723 B
   0.1261807544302305    0.1259510106142038    0.4483389265324802 B
   0.7999544545502080    0.6237181899395259    0.3753502473022955 B
   0.1255487059292214    0.6271202659326419    0.9502882626457066 B
   0.1246694710729276    0.8751271648040310    0.4474958454960752 B
   0.3738067499166457    0.8755399694471566    0.4486764224458405 B
   0.3761913930708589    0.8750507257120949    0.1994274018812469 B
   0.3750871083082546    0.6277374813587228    0.9524064624751428 B
   0.3761844725890537    0.6261297476177174    0.7017021608771727 B
   0.3735881067227425    0.6266173460474248    0.4513403512849808 B
   0.3768309024008448    0.6242840083749206    0.2022119126442948 B
   0.0490631443786266    0.8767723266688933    0.8746134073687565 B
   0.1229802418894885    0.8756895731931016    0.1979809888550291 B
   0.3759331551773593    0.3761747788492457    0.7004891536853773 B
   0.3760184023406105    0.3746044858190104    0.2012817369128483 B
   0.3747904173164827    0.1259228676645056    0.9500292917445773 B
   0.3753129303099199    0.1257365711281165    0.7005500043985636 B
   0.3735118956628695    0.1245970298922844    0.4499666814662274 B
   0.3756249784368975    0.1237486453753519    0.2000470410611076 B
   0.1249206950125567    0.8756807679482222    0.9482694673855201 B
   0.1250232185750484    0.8767166327857646    0.6974282474986743 B
   0.3740476718592466    0.3735013911159981    0.4501175319059174 B
   0.8004851560596415    0.6240855301422068    0.1255813077855469 B
   0.3756068797927608    0.3750962214773849    0.9512334308742187 B
   0.8002123913161566    0.3746517501162514    0.6264396277485839 B
   0.5502405905864588    0.1238323727507209    0.1248102795337542 B
   0.2992185865622982    0.8757366573739940    0.8738684517556172 B
   0.2988272707320543    0.8760841418840198    0.6229056535139585 B
   0.2992560360292869    0.8760984870042298    0.3734344429112803 B
   0.3000077157062914    0.8749325521864855    0.1250366795525547 B
   0.3005369055342550    0.6261961645302324    0.8766739833648679 B
   0.3003567144408134    0.6259011612406464    0.6262429234573852 B
   0.5491531097142536    0.1243705521614284    0.3754898338860644 B
   0.2996969771299370    0.6249793790645520    0.3762537034752215 B
   0.3003618156719512    0.3761228283395081    0.6247744892307346 B
   0.3001224346233413    0.3744961925234334    0.3744976836490884 B
   0.3008892432397052    0.3745942513264737    0.1267745695727678 B
   0.3005210648136677    0.1254191163567857    0.8745144879176681 B
   0.3000925873221754    0.1258503574359804    0.6257225998254031 B
   0.2996761933637706    0.1243053973420304    0.3741684312188422 B
   0.8014243750932090    0.3759941791246641    0.8749493722403223 B
   0.3011730998934578    0.3761898026451758    0.8759014310570039 B
   0.5495688772579189    0.1248986013270286    0.6251547450842796 B
   0.3008597086142382    0.6247139949080368    0.1275107477827643 B
   0.5506384103853242    0.3737751435134591    0.1262174669505272 B
   0.5509510556236517    0.1261842553496371    0.8751171188356202 B
   0.8008355548955648    0.3747050014907902    0.1272944742872882 B
   0.8002688657273198    0.1257774221185008    0.8749129468952084 B
   0.7999102588925746    0.1236727826488956    0.6253437148975538 B
   0.7997269012071424    0.1244515775764660    0.3752914576878397 B
   0.7992932958224617    0.1231200235029722    0.1278119970583753 B
   0.8002043038641786    0.3751835794288967    0.3756646514043687 B
   0.5485859387063768    0.8732256933003287    0.6245720753480889 B
   0.5486632374174358    0.8728494488648838    0.8746561268393865 B
   0.5495862125260633    0.8729861527540571    0.1240185078306086 B
   0.5508137567355285    0.6265519448273684    0.8770090606340389 B
   0.5506573550055279    0.6256077715250175    0.6266801357605520 B
   0.5497519642142629    0.6248488297410123    0.3761987129053684 B
   0.5503958645376352    0.6244490910294520    0.1264588187104350 B
   0.5512096765128365    0.3747895936503933    0.8760841980222360 B
   0.5506341519326601    0.3739158263839047    0.6258254439487370 B
   0.5501176474217394    0.3746820455485015    0.3762424545022987 B
   0.5490535677932837    0.8745092518791955    0.3733110242937721 B
   0.4935284527288492    0.7519412818589690    0.0008282931367992 Ce
   0.4972855418893158    0.7481295788798374    0.2551629297561713 Ce
   0.4986903263614613    0.0037730941072059    0.2596013635809555 Ce
   0.4936238821058268    0.7603249401425985    0.7466280074268968 Ce
   0.7597547937610344    0.0061419855803358    0.0030624103255491 Ce
   0.2419167960976821    0.2502291808399991    0.2510754666771257 Ce
   0.4996088844851874    0.4918591304589832    0.2518208580967857 Ce
   0.0061050472373568    0.7523131307866779    0.4969814064610258 Ce
   0.0009040425002626    0.7514387928564772    0.2422384284173328 Ce
   0.7514174848636064    0.4906441757527710    0.7431777690341913 Ce
   0.7554091098959543    0.7500774659540511    0.0001960629848489 Ce
   0.7496101146368661    0.7469551332823147    0.7445195491552354 Ce
   0.2544524174077535   -0.0004634851220322    0.4962549444544357 Ce
   0.2525694129458558    0.2529125712118035    0.5264695568952880 Er
   0.2473503579079322    0.2269989749398048    0.7548549511010839 Er
   0.2460155276762115    0.7542504635961201   -0.0269361570011667 Er
   0.2570018664446904    0.7437214033917117    0.5226155468994589 Er
   0.2463546370579408    0.7773151394651632    0.7460717244001843 Er
  -0.0201157802572365    0.2443682749363483    0.0141449956016817 Er
   0.5005076324949915    0.0308388037483942    0.7531638414716926 Er
   0.4997927275076757    0.0011361439637020    0.5269296610833936 Er
  -0.0271985533807418    0.2487478602664482    0.2528918199092158 Er
   0.0277827449829829    0.0009594597293257   -0.0022388801921722 Er
   0.7498271532875664    0.2233977839785813    0.7406180071855473 Er
   0.7506016705076114    0.4979122153083821    0.4739936615906698 Er
   0.7489804190429066    0.2507206493729252   -0.0319159154998298 Er
   0.7493070087850383   -0.0014299895638891    0.5000984870977340 Eu
   0.0004872311647776    0.7501267010059834    0.7514572998862897 Eu
   0.2497576479901397    0.5008745813260099    0.0029480055859803 Eu
   0.0010384329934805    0.4986549437172598    0.7488505688630958 Eu
   0.2498393779345813    0.5013904135100072    0.7488055900266387 Eu
   0.5005596436818819    0.4980569703668761    0.0010985756356827 Eu
   0.2494277565952812    0.7489952996911079    0.2499473598966391 Eu
   0.4996071124306988    0.0015216549164949   -0.0009930501045002 Eu
   0.7495216165983836    0.7507291066270403    0.2506728984590912 Eu
   0.5000775522753640    0.5032122245135806    0.7513283041454422 Eu
   0.4991671580401201    0.4998751735832159    0.5021952934359946 Eu
   0.0000198699391980    0.0024521184635472    0.7496958380713833 Eu
   0.7511943328028797    0.4978560566118876    0.0003598935205118 Eu
   0.0037787888665404    0.2549386485735178    0.4958742564575172 Sm
   0.7490305661064265    0.7381562120775482    0.4996599798047126 Sm
   0.7588712014111765    0.4963982602729735    0.2436472678920140 Sm
   0.0025904337240121    0.0109407588937050    0.4987744787950761 Sm
   0.2404410643586198   -0.0008746235585128    0.2447824860230539 Sm
   0.0009705720819022    0.4884969815858947    0.0014143987375651 Sm
   0.4996362179391466    0.2617199353817685    0.7509079707688371 Sm
   0.7461366027218569   -0.0110124149296581    0.7524130588819180 Sm
   0.7481617054463930    0.2582729736084836    0.5015891415849358 Sm
   0.7372241898240245    0.2480431841194254    0.2515799908018057 Sm
   0.4996293442402507    0.7608619301629579    0.4982190835883572 Sm
   0.2483463076159899    0.2452152628894295   -0.0065559841818017 Sm
   0.7587393918939325    0.0031132755746132    0.2513002788528357 Sm
   0.0003767375576127    0.0026333184116834    0.2480971834675256 Yb
   0.4988187832544957    0.2458845052509323    0.5002887594395752 Yb
   0.4980136074878810    0.2470802382985621    0.2514858370067035 Yb
   0.5016493056813883    0.2490279136576092    0.0003992813495992 Yb
   0.2565903558282757   -0.0007836926964568    0.0015062573111241 Yb
   0.0013162509548330    0.4962129345352867    0.2490503173524107 Yb
   0.0006081621859545    0.4977547336796303    0.4975041423637783 Yb
   0.2477457932187342    0.4993641943580517    0.4971711888900643 Yb
   0.0027522234466287    0.7523123303152996   -0.0011804050012001 Yb
   0.2465092307483455    0.5000992985809890    0.2531448502489427 Yb
   0.0005944672039077    0.2505859830228694    0.7479905402295368 Yb
   0.2538785448674146    0.0016662117288157    0.7514221047145938 Yb
