Yb24 Dy24 Ho24 Er24 Si48 O240
1.0
   0.0001188939866344   20.1269012341366320   -0.0260676495607168
  14.0252315048948422    0.0000829430657773   -0.0000045047709093
  -0.0000272028104031   -5.4293379620278328  -17.3827057480921283
Dy Er Ho O Si Yb
24 24 24 240 48 24
direct
   0.9243981219337790    0.3155106247325657    0.2378289238038660 Dy
   0.6884176363101353    0.6808688126280763    0.4396500381319352 Dy
   0.9196968012163486    0.3124173409654656    0.7395230472214486 Dy
   0.6425310732723182    0.8248055217943284    0.0595757784359082 Dy
   0.3573606354976981    0.6767351037292897    0.9387406221258088 Dy
   0.1906651467860972    0.5721555427866357    0.4404084925038242 Dy
   0.9227931146435573    0.8151996962136494    0.7369948759968524 Dy
   0.3103615004361346    0.3206575040959690    0.5596995679770485 Dy
   0.4220574116925062    0.4338239023938772    0.2390614002261287 Dy
   0.2462059612863796    0.5628386940758164    0.2629345326049354 Dy
   0.0236090882877315    0.1806101880308542    0.9387079582052649 Dy
   0.6915067159278079    0.6757837497948025    0.9389496783791813 Dy
   0.2449098133784984    0.5628680346841769    0.7606600681763080 Dy
   0.5741467843167009    0.0639282534323651    0.7618809406044754 Dy
   0.5210873395242620    0.0715184392220312    0.4362110204266270 Dy
   0.8117915306869491    0.4305280328824373    0.0615373089134458 Dy
   0.4781030637869585    0.9296511599594045    0.5626875079780150 Dy
   0.4771375039166223    0.9304445685847617    0.0638004534695342 Dy
   0.4795689662344832    0.4272796236011318    0.5640162444906008 Dy
   0.0791237144086337    0.6891658254390146    0.2628411458970826 Dy
   0.5899016919084082    0.8125606102878652    0.7385775176474476 Dy
   0.5227640228095681    0.5701451970799758    0.4403085086595660 Dy
   0.3113017125930534    0.8209581662992391    0.5610098759547171 Dy
   0.6453146474652645    0.3189039509337223    0.0613138780325164 Dy
   0.3122872699544154    0.8180556072822290    0.0670536348983431 Er
   0.7557628536119709    0.4360182312956797    0.2384806599147022 Er
   0.7522139724922547    0.4374720820872543    0.7391044380410389 Er
   0.0908167561286556    0.9365104363289523    0.7359963924199374 Er
   0.0777778500560673    0.1871711748207706    0.2626500004725142 Er
   0.7417729524340272    0.6868713016432593    0.2632569026786103 Er
   0.7409935726960194    0.1851790762655794    0.7625420220904280 Er
   0.7437915345560977    0.1853117802463113    0.2647493822207221 Er
   0.7564142658942959    0.9368090017412960    0.2360668016350692 Er
   0.7572242929257741    0.9361418555980237    0.7360367465385743 Er
   0.4139268946728947    0.6870433533071206    0.7615216701232600 Er
   0.9101253442722175    0.5649499664446312    0.7609710138346005 Er
   0.5874433103186653    0.8151530700875310    0.2379540535578974 Er
   0.5228235087113964    0.5683575762804279    0.9356327592998364 Er
   0.4093223586523963    0.6883093053952257    0.2636384306160927 Er
   0.1906776957734111    0.0742748421791104    0.4399478019733260 Er
   0.6880046121468331    0.1779238978448056    0.9365015267255511 Er
   0.6914005346590326    0.1742256496606752    0.4401092263788847 Er
   0.9087771490099310    0.5655638663001525    0.2648233253493515 Er
   0.3553108111677936    0.1798938351221140    0.4353922846653372 Er
   0.8561063817362602    0.5732813726632764    0.4392701455090779 Er
   0.9087290295348204    0.0638221033379415    0.2643661873517340 Er
   0.4787210947195663    0.4277113300374663    0.0621055120073418 Er
   0.5759289488340010    0.5641454300126243    0.2631151877891958 Er
   0.2569409634312376    0.8130756266258450    0.7351683589919320 Ho
   0.4267952718185604    0.4358802671626061    0.7366055386005990 Ho
   0.5738670964494016    0.0631009884347894    0.2640902713060567 Ho
   0.2452703951429450    0.0649996077628119    0.2630268578248629 Ho
   0.9235620742192235    0.8153528056717831    0.2358749444238532 Ho
   0.5891026453309165    0.3123993347469358    0.2389880630966199 Ho
   0.0906532296314493    0.4364612160031060    0.2367758973478039 Ho
   0.1472460962891128    0.4334062067107062    0.0646743842387198 Ho
   0.2548465548214932    0.3111822660824367    0.7373190603870690 Ho
   0.3556145477780336    0.6792112010304999    0.4378333718787236 Ho
   0.0202326887877578    0.1802501337529624    0.4374448808445768 Ho
   0.8117309107734108    0.9302849975013797    0.5598128427439519 Ho
   0.1894093761571940    0.0665462852037839    0.9373685431736114 Ho
   0.5204567982049402    0.0720488036889523    0.9371884432491790 Ho
   0.8091098568914938    0.4262660750295525    0.5594354729090267 Ho
   0.8534784712053918    0.0661466203101468    0.9367340357510952 Ho
   0.1412524822478984    0.9251188955206092    0.5575333057087448 Ho
   0.1415487602916786    0.4291653222303591    0.5601406365892844 Ho
   0.0226607031399627    0.6832139046216142    0.9379034503320139 Ho
   0.6443471545693662    0.3199609878423885    0.5624788333997052 Ho
   0.6444481929253892    0.8208061912512543    0.5631855057201678 Ho
   0.3136388446042298    0.3179289478837250    0.0655629881006679 Ho
   0.4100962889262626    0.1845506298252792    0.7615319272287357 Ho
   0.0213930457611642    0.6827146450769738    0.4389854258626326 Ho
   0.0065360732830498    0.0660562080723339    0.6941422593060822 O
   0.0013925112631103    0.0739361751584687    0.1934786328952249 O
   0.8304892153353743    0.8221796034967948    0.8063173431897321 O
  -0.0031280891035656    0.5697610143161006    0.6907579540050908 O
   0.3300030798895186    0.0662367647258094    0.1916590386412373 O
   0.8254625056340632    0.8186051161434214    0.3070028211345792 O
   0.8293190696276104    0.3197538744405309    0.8094209911899181 O
   0.3379051639152178    0.0692304580997616    0.6906652843224513 O
   0.8275712518439882    0.3191185794443867    0.3069474325869718 O
   0.3373422384002956    0.5691205345413265    0.1918179066365666 O
   0.4985516249774790    0.8152378335235771    0.8094706719725011 O
   0.5001320529029292    0.8117106740879586    0.3080674665599300 O
   0.4945004228218772    0.3170961514316716    0.8079214412556566 O
   0.0044165291629514    0.5706970651964832    0.1918939168906416 O
   0.1716050493416807    0.1837951910975915    0.6931223814173801 O
   0.6711496378930264    0.0699350942759253    0.1933536439843740 O
   0.0148889823260452    0.8647886710559928    0.4513797699718436 O
   0.0045969851631812    0.3588098140715657    0.9443948990412794 O
   0.0169081984457843    0.3659543078950143    0.4520026145710496 O
   0.8279566057237135    0.6169433372861288    0.5494633394640425 O
   0.8198143009633740    0.6139785307016539    0.0494578131889937 O
   0.8216305513735329    0.1134271628615514    0.5511716192569209 O
   0.8288539729535975    0.1180528780674118    0.0488073952397600 O
   0.4959507556923055    0.6113324649215328    0.5536389263663114 O
   0.4905550478180485    0.6160531615465921    0.0458933842351411 O
   0.4937600870646461    0.1113087822510470    0.5514311122676125 O
   0.4861456480964606    0.1153801088603618    0.0469016838632596 O
   0.1618004786918666    0.6085717639590598    0.5532469780785254 O
   0.1586657542589360    0.6056467211623884    0.0524568127980581 O
   0.1588200377843238    0.1110271247853483    0.5504374642503409 O
   0.1591603554056421    0.1185757414718185    0.0453565997805213 O
   0.6711865875964979    0.5633319421244253    0.6930581572775204 O
   0.6699114411744652    0.5664428989803743    0.1933175391334396 O
   0.6709932607948593    0.0670317324697846    0.6912087993686162 O
   0.5012139847763990    0.3192200579976123    0.3085100626276874 O
   0.3381259283167666    0.5671397613524811    0.6915359032845537 O
   0.1650736696422589    0.8190921580479282    0.8057341296275109 O
   0.6625709661547536    0.9341080268316929    0.8081410810298674 O
   0.1686472754048524    0.3196553315275319    0.8083263967611348 O
   0.5859294795196461    0.9851683879799213    0.0606260688021523 O
   0.8367344347335655    0.1826894341836504    0.1926647133619693 O
   0.0145392417264383    0.8624302740326280    0.9513864037172546 O
   0.5002977753419063    0.6858420082919640    0.6925732782096404 O
   0.5888124874781606    0.9765547608457461    0.5592755650721228 O
   0.5043118910540971    0.6794360916775778    0.1911126351482279 O
   0.5009416547050832    0.1809311898002318    0.6915691893473156 O
   0.9181705166412708    0.4862900627051227    0.0624496667123980 O
   0.9173148803947588    0.4813424944835396    0.5577972986377261 O
   0.9209477396881962    0.9889168995800138    0.0589915907578477 O
   0.5078902156428926    0.1825171838229566    0.1923740602127701 O
   0.1741612284915879    0.6832516811208166    0.6930891221932952 O
   0.9184941272329404    0.9887867190908757    0.5623046462353471 O
   0.1687962436501656    0.6785026231809259    0.1930988035053498 O
   0.1663852343733905    0.1800163905528653    0.1899954187941333 O
   0.8336883209364350    0.1856231629567124    0.6941013056160062 O
   0.5895788698694566    0.4762391695059309    0.5591191965320587 O
   0.5870256341625733    0.4780598045778536    0.0596813582168947 O
   0.2524248345803580    0.9770155592869856    0.5617586207928370 O
   0.1603483952511174    0.3175422069025521    0.3074054210766448 O
   0.9977544843459882    0.9315121265741038    0.8078284527819498 O
   0.9934877170316908    0.9340334910707672    0.3067049989763354 O
   0.9939163321376994    0.4332525047336117    0.8048076787628469 O
   0.9964589993596862    0.4368421851833004    0.3069069700854115 O
   0.6623828316745705    0.9313119643479933    0.3073575606937299 O
   0.6693390560232456    0.4308096760931839    0.8083372928538488 O
   0.1625810786960566    0.8146584678028890    0.3066839075531216 O
   0.6645047708076759    0.4326263932495292    0.3088298992623977 O
   0.3271489236380499    0.9360671644975607    0.3068605897587777 O
   0.3286437069189707    0.4294994524786236    0.8081101346894213 O
   0.2534603954396664    0.4749846392778807    0.5604628430834168 O
   0.3344482676384861    0.4371858355556635    0.3078587390253469 O
   0.8391952731950549    0.6823287561292504    0.6925913582985542 O
   0.2501459050053785    0.9809156002000864    0.0575121982343622 O
   0.8349018513676416    0.6816956683460152    0.1938933684637199 O
   0.3279262843594975    0.9267478105937961    0.8074786644539660 O
   0.3403718458491237    0.3620350084461914    0.4471704255608068 O
   0.3543299281341315    0.3114021980670902    0.1917861291165435 O
   0.3403814556013811    0.8630132152191891    0.4481539888372112 O
   0.3146293997280575    0.1927112732469206    0.8049465139786558 O
   0.3121355067750541    0.1876395271230600    0.3104856009518350 O
   0.8173046032349023    0.5551083676186878    0.8054273518576345 O
   0.8124422383051481    0.5600504460399827    0.3077182581521837 O
   0.8098520966632619    0.0570731215446470    0.8076650995361020 O
   0.8122753932154811    0.0597315368606827    0.3025197922369561 O
   0.4771243460322599    0.5574031793097893    0.8094681523939659 O
   0.4814063563381065    0.5605127090264365    0.3070045993737779 O
   0.4813994858990658    0.0611938438526860    0.8086762156039490 O
   0.4833952606726620    0.0597976230069004    0.3086424953323809 O
   0.1508254165222655    0.5599779288073138    0.8050617273851124 O
   0.1475192129738609    0.5585043197957370    0.3085623988520527 O
   0.1472542631431754    0.0520925869854541    0.8094768942387294 O
   0.1495440255591723    0.0643915303082948    0.3091262766935985 O
   0.6850526908795278    0.8133222986170496    0.6919761959549566 O
   0.3165463708145181    0.6878372534538800    0.3085191734680232 O
   0.3148897927674558    0.6911881255401952    0.8073482306012720 O
   0.6482151471479626    0.1900265841386750    0.3092622377877933 O
   0.6490984845107131    0.1858086325979498    0.8085423620942599 O
   0.8530220180744522    0.4417903137026103    0.6916477399149923 O
   0.8525703667138708    0.4441859071853649    0.1953332924876622 O
   0.5220760838845897    0.9412107050369979    0.6911546983730413 O
   0.5220197006010391    0.9421067464538023    0.1918031883316341 O
   0.5167948113158277    0.4395333588803629    0.6915503616335640 O
   0.5220498916907887    0.4411304833601465    0.1929059821692537 O
   0.1824631095350621    0.9356894511138846    0.6886540876875539 O
   0.6855669183473000    0.8087749804087064    0.1933246543074853 O
   0.1828465580079231    0.9452094632328948    0.1902304637386481 O
   0.1845297252553175    0.4435128721435808    0.1928924459094086 O
   0.9782203399393018    0.6920139598552580    0.8087258747688563 O
   0.9791636575020339    0.6908373462362192    0.3072579289178075 O
   0.9810622015608599    0.1954918642072850    0.8099158604968995 O
   0.9799453789738611    0.1914321521131503    0.3073285762405069 O
   0.6486376124495095    0.6944841030748830    0.8108181016204394 O
   0.6461581692858279    0.6909923168493919    0.3062122215419242 O
   0.1872418241344993    0.4406784806526981    0.6894084946400789 O
   0.6906698889146256    0.3065282471731921    0.6908691136985254 O
   0.6870829400024757    0.3085669373289889    0.1944860663028414 O
   0.3509291156736282    0.8035158210153985    0.6906116212617098 O
   0.8465490666678394    0.8821788309207360    0.4545842745570842 O
   0.8464683713932672    0.3812323103480961    0.9555985440240777 O
   0.8403462405358965    0.3870740466666649    0.4502163448871636 O
   0.5161556913231560    0.8797643674489505    0.9564661450762511 O
   0.5059169632707319    0.8870495287576456    0.4478126321418921 O
   0.5063770247991350    0.3844295155624454    0.9506680751928114 O
   0.5080192798303521    0.3870107515141148    0.4488712832097681 O
   0.8431216294533295    0.8928371407209280    0.9483957018902156 O
   0.1726190917270956    0.8919737266745218    0.9447860745436767 O
   0.1696943887400540    0.3862400740894886    0.9493963772203762 O
   0.1712278974900215    0.3877027646202856    0.4490533544431544 O
   0.6732039465064314    0.8635077717997576    0.9494272103286558 O
   0.6721750262563991    0.8598545846867577    0.4481186992557006 O
   0.6733898316455149    0.3590733916277523    0.9478221699962415 O
   0.6761724595214849    0.3669597596013090    0.4526585190680154 O
   0.3391160233328990    0.8610260053265919    0.9510843019269933 O
   0.1742181519858519    0.8885953619268874    0.4479317066928871 O
   0.3380914280311449    0.3662862648118910    0.9526976972796366 O
   0.3230090913043357    0.1391707500629687    0.0523850080685714 O
   0.3236974455275419    0.6372619407888824    0.0484767573644752 O
   0.3537600624500163    0.8034410417773866    0.1911018966582852 O
   0.3521986624331538    0.3088541103242265    0.6912026240342923 O
   0.2564731788901592    0.4753797143244682    0.0627484694015717 O
   0.0191739657611003    0.8141711823510697    0.6960438006304257 O
   0.0175384781677467    0.8074928078163605    0.1959156176743006 O
   0.0139705696762788    0.3098291432739584    0.6933683366238313 O
   0.0214911768928053    0.3103081638360429    0.1979395029025885 O
   0.3209831986414191    0.1338561148721739    0.5456386345232357 O
   0.9877681018422165    0.6337579056523360    0.5463866311737885 O
   0.9940347754447498    0.1387933761810898    0.5511520225535254 O
   0.9984041243949775    0.1391577955914916    0.0521840050622671 O
   0.6617060143109814    0.6355079365872827    0.5519262395403388 O
   0.6611729070788845    0.6348793543206436    0.0517260549983092 O
   0.6617975450489331    0.1358832749979348    0.5501267210663751 O
   0.6620034336613064    0.1392129044126999    0.0517300011196018 O
   0.3226986658938344    0.6332752814831819    0.5470534999762440 O
   0.9893495406831377    0.6355670155157588    0.0450649626903126 O
   0.9164223046808581    0.7398133128331829    0.9368469466065834 O
   0.7187935812054468    0.9599888534552014    0.6024676520096963 O
   0.9118374141458585    0.2222031214087176    0.9365127698161968 O
   0.9496127866645286    0.0366854074762895    0.8989487778604287 O
   0.9465503144406515    0.5361329296916019    0.3959507735017640 O
   0.9509007587911493    0.5410297239702180    0.8953396358529485 O
   0.1140835051989066    0.2108163063358825    0.3966889810648968 O
   0.1176570454405401    0.2092475157505720    0.8947499421199302 O
   0.1152679040229588    0.7121890486123517    0.3976391739335634 O
   0.1164836664147430    0.7135777884553350    0.8975275041124533 O
   0.4499009239502617    0.2118105031587728    0.3978137830681131 O
   0.4480096293378626    0.2080272164607883    0.8951998137218093 O
   0.4487085950801174    0.7104069503329360    0.3965547180727159 O
   0.4490785340775753    0.7099464396698995    0.8956986653477201 O
   0.7816407829137286    0.2120740599621141    0.3963983907049715 O
   0.7809551740256018    0.2112018111753516    0.8961863545125563 O
   0.7809875317303530    0.7105922079247540    0.3962114040088210 O
   0.7855699042051092    0.7145440130117011    0.8988784645853176 O
   0.0507651050000976    0.4630880015708294    0.1020735665252742 O
   0.0498564835324689    0.4626838694539567    0.6040252882227849 O
   0.9496449085233646    0.0404923593932876    0.3965336129690382 O
   0.0513909293522270    0.9620401091958121    0.1066373301409548 O
   0.6174254999847133    0.5358403998599295    0.8977524587933502 O
   0.6144576270420540    0.0393491061881707    0.8981572885270611 O
   0.2171837762515186    0.2914112651417451    0.1034689070391611 O
   0.2153821027767834    0.2888720881211561    0.6010059518866615 O
   0.2160819570859655    0.7843402072568219    0.1009700910948371 O
   0.2151080238303933    0.7893216605264454    0.5993857784090127 O
   0.9113522703138192    0.7241169348798311    0.4317454643828162 O
   0.5511615228641535    0.2878357362163420    0.6023171545084867 O
   0.5516520377823896    0.7895631218399425    0.1055469222495103 O
   0.5511404860579641    0.7884246333737441    0.6038140661081117 O
   0.8857136135294288    0.2929036720803977    0.1078244825286838 O
   0.8844843564338323    0.2882981523894717    0.6056363471180922 O
   0.8835932726314977    0.7871259240547759    0.1051379033133035 O
   0.8849584315660206    0.7925255709996151    0.6052778596916165 O
   0.2806425860837081    0.0389576953989352    0.3976729063064797 O
   0.2833990313959551    0.0379441018635269    0.8986175720545081 O
   0.2818244775558739    0.5376679429726101    0.3954026173282508 O
   0.2827004843581666    0.5420042091871710    0.8947214297752624 O
   0.6169723148832567    0.0386104850189410    0.3978971062116731 O
   0.6156975566190410    0.5409246618821376    0.3955663625863490 O
   0.0503895890068013    0.9621446357796583    0.6017806295904261 O
   0.5527164270590476    0.2890133620338650    0.1033879052688312 O
   0.3835961671228355    0.4588150233637269    0.6017425957980889 O
   0.4107688310986826    0.0243277723047805    0.4388700317116377 O
   0.4149152157011713    0.0087842386742392    0.9396261236441359 O
   0.4127360183433330    0.5238695871037559    0.4420732282573585 O
   0.4125074938042406    0.5181068841304367    0.9409841929048246 O
   0.7467928176483707    0.0173013228735333    0.4405282449263500 O
   0.7445750501380333    0.0241745340350137    0.9393353159839182 O
   0.7467174451358641    0.5246610264819384    0.4407512222575722 O
   0.7486790604623769    0.5149515706825161    0.9418449649711387 O
   0.0800752569765105    0.5146857271479294    0.9384719129339282 O
   0.2442498319701407    0.2296149648530511    0.4394168580721960 O
   0.2457176260790429    0.7286706181094642    0.4391918098718321 O
   0.2477430454163305    0.7381621342714473    0.9405890512797942 O
   0.5812479994041523    0.2277178836491750    0.4401484865486096 O
   0.5781775495661282    0.2270270819623058    0.9398056083893952 O
   0.5788160584220472    0.7263180144114667    0.4438784894625220 O
   0.5801738924079149    0.7209695354092945    0.9400629502743381 O
   0.9142410575085289    0.2332254244734886    0.4364239116300330 O
   0.3876420563107614    0.4644943452725916    0.1044912148445342 O
   0.2475426520144091    0.2349297814757815    0.9430093346980069 O
   0.0779337924068664    0.5293813551902647    0.4381962111838551 O
   0.8506222645528836    0.9400046149142938    0.6914372792905823 O
   0.0799753761078330    0.0244276347373626    0.4369415044527122 O
   0.3806128033015443    0.9608303247040691    0.1021618751699417 O
   0.0798106881723657    0.0221945762024274    0.9377244861890172 O
   0.3827347666469564    0.9587899045206898    0.6005356515266398 O
   0.7177985283785762    0.4584177770856226    0.1054123247469973 O
   0.7197709327299892    0.4596511777514355    0.6049401934750339 O
   0.8535603649440908    0.9415527082680208    0.1970860697899827 O
   0.0869419470849742    0.2715387891008733    0.0580696034419671 O
   0.0848355479025302    0.2653411560793549    0.5617887777997924 O
   0.0846214578666643    0.7589612856020923    0.0597152642201423 O
   0.7164610387515863    0.9602651107087421    0.1049024503077059 O
   0.4228792279293717    0.2772970722658888    0.0652143826646511 O
   0.4200932569782799    0.2696661047548051    0.5595593221498782 O
   0.4208185150010397    0.7730324734137918    0.0614802839432063 O
   0.4202682731088311    0.7694738938263710    0.5570807619502413 O
   0.7554797125350236    0.2725072688836582    0.0595663677371462 O
   0.7547506583377502    0.2724534523719134    0.5577535047121127 O
   0.7517532582543056    0.7701267839575525    0.0603680485867211 O
   0.0848998883028196    0.7626461595161663    0.5608720967891758 O
   0.7546773008674795    0.7720663080453180    0.5605295341388244 O
   0.0079135090722854    0.4553072962644168    0.8970446534341362 Si
   0.0099306627766957    0.9592805476362385    0.3988752485106208 Si
   0.0100695627024429    0.9573277935023253    0.8989451786222282 Si
   0.3410352062349468    0.9547733576237151    0.8979316814535331 Si
   0.3415706664058786    0.4573631263280250    0.8991398512431965 Si
   0.3418413606187523    0.9582325014254641    0.3989842114010675 Si
   0.0110789289895643    0.4604551749528118    0.3993931023632702 Si
   0.3446468327254075    0.4578531922934160    0.3998807988454638 Si
   0.8251295318638422    0.7099249190488214    0.6011300992329620 Si
   0.1577383801602640    0.7020936064665402    0.1018039519747075 Si
   0.8226011972958770    0.2078381948212707    0.6027478559433008 Si
   0.8255494833506916    0.2101127173233680    0.1014794120881105 Si
   0.4900007563786318    0.7067266629355310    0.6006205812583832 Si
   0.4905063773167369    0.7075000978395151    0.0995525278535202 Si
   0.4905883855159781    0.2067004981090899    0.6003553300606156 Si
   0.4908913905456176    0.2086377077507607    0.1004171398636959 Si
   0.1578040495063048    0.7044919596982879    0.6004155375274856 Si
   0.6770592910748525    0.4541092592870761    0.8984645054612029 Si
   0.1574013280389254    0.2049980807199330    0.6012785348758528 Si
   0.1577606627320521    0.2093185521187370    0.1005688586378903 Si
   0.8219862008124653    0.7085840757455646    0.1020926311571340 Si
   0.6763288918348898    0.9550583860118198    0.4000086036284767 Si
   0.6774274988824251    0.4594174866024983    0.4006909103197507 Si
   0.1742849069312075    0.2934881254936282    0.3993451187846825 Si
   0.6755971271801455    0.9584702770450896    0.9000404433405084 Si
   0.9883934802785608    0.5416289184732976    0.6010427680785583 Si
   0.9908123289088487    0.5441032148928548    0.1005120983525207 Si
   0.9917788734006034    0.0442619849695054    0.6022195541295527 Si
   0.9932267342578015    0.0459615114049525    0.1036347320847912 Si
   0.6584650900042365    0.5412159367426738    0.6013521931921066 Si
   0.6568093338781352    0.5409734701420315    0.1010694788379815 Si
   0.6578223097974845    0.0415553888203595    0.5993515253384376 Si
   0.6579085030930717    0.0449007960135979    0.1011912510601589 Si
   0.3230361086973506    0.5404594260801335    0.5993694641827247 Si
   0.3250324502692021    0.5430090074188104    0.1002444083785331 Si
   0.5122193337696084    0.7886327883949577    0.9004431833703616 Si
   0.3211119325936287    0.0429088049154607    0.1013847262007564 Si
   0.3234568258645205    0.0411250405410383    0.5996621291809380 Si
   0.1763062192740199    0.7933055786568857    0.3986939161355924 Si
   0.1751326201092961    0.7950040345924089    0.8965860185730968 Si
   0.5111070590302551    0.2919286427488571    0.3995668141373212 Si
   0.5078521856240618    0.2907078620879482    0.8993493377485141 Si
   0.1760437999454897    0.2936351131019257    0.8978637497894144 Si
   0.8425452318085082    0.2929748924827205    0.3994700629401913 Si
   0.8430751079109567    0.2899480278099457    0.9003295261016845 Si
   0.8423945247212182    0.7915056309662676    0.3991799207227131 Si
   0.8432274619731412    0.7974928611430704    0.8978026772590747 Si
   0.5103838244469352    0.7914383370150408    0.4001677649558513 Si
   0.1396236699488779    0.9213495896959696    0.0577041873637271 Yb
   0.9749029452515399    0.8246375867271238    0.5584530880442076 Yb
   0.8102426725831364    0.9279538705233347    0.0617567139363548 Yb
   0.3574966659956034    0.1748142335251692    0.9404776075290497 Yb
   0.1908378954727774    0.5737952196625027    0.9393857226231904 Yb
   0.8555155539427497    0.0725189973816919    0.4381869352534160 Yb
   0.8577379062402251    0.5745784965884658    0.9399797753660528 Yb
   0.9755042058750389    0.3240871055895793    0.0601249720839519 Yb
   0.9741581703834479    0.3244336706997488    0.5563015782670633 Yb
   0.9770383853797812    0.8232838040518218    0.0631470080103442 Yb
   0.0820270319037986    0.1857768849396842    0.7592745128580047 Yb
   0.4187779752804605    0.9373450761370622    0.2412557389329524 Yb
   0.4095008989242164    0.1845868168580025    0.2616365211522283 Yb
   0.7457761051989603    0.6865354419547055    0.7609757934598145 Yb
   0.0879870920527215    0.4373084639281353    0.7390125572194005 Yb
   0.0866789517198043    0.9371126144311674    0.2422874042685539 Yb
   0.4204802933131853    0.9356024872973762    0.7384363894551230 Yb
   0.2573312889649110    0.3131501596358711    0.2412198876354137 Yb
   0.2538546455474366    0.8128374959352712    0.2400835443697827 Yb
   0.5880025035059219    0.3138855493617939    0.7397997163389671 Yb
   0.2473414805438284    0.0615510262462164    0.7590470885544727 Yb
   0.9125564173528904    0.0640126862132491    0.7606390271889424 Yb
   0.0786133849197798    0.6866136816733632    0.7592440140112774 Yb
   0.5812457207760573    0.5615681073934898    0.7595132006958069 Yb
