Yb12 Ce13 Gd13 Dy13 Y13 Ta64 O256
1.0
  14.9308137698249812   -0.0028199533513863   -0.0068439136760536
  -0.0030142802560630   15.5026943322455928    0.0019884202997317
  -0.0101364420302243    0.0027730984019607   22.0227547973302578
Ce Dy Gd O Ta Y Yb
13 13 13 256 64 13 12
direct
   0.8443248226843337    0.4362027475466961    0.5138693352714957 Ce
   0.6340725521566524    0.8267520486732136    0.9805010738846666 Ce
   0.6085124748614295    0.0651781504510399    0.4937425289584812 Ce
   0.9053077614839026    0.8239435724021195    0.7641395908764138 Ce
   0.8746107335469349    0.8120454551603393    0.2577604696053716 Ce
   0.8543369982898824    0.3132348253383838    0.7609623046586148 Ce
   0.1052959283205213    0.4302470956984144    0.7308008949443626 Ce
   0.6014635947245035    0.6882150032648042    0.7311226953538917 Ce
   0.1232431223468851    0.3097245083393535    0.9836424784018669 Ce
   0.8894449387170641    0.9337211778502926    0.5136317713146910 Ce
   0.3747362314062639    0.6896211813573524    0.0187871331010694 Ce
   0.3897296168425861    0.9356529878017719    0.5145998571081845 Ce
   0.3619166205819828    0.4334925097464638    0.0188608291018855 Ce
   0.4026802390222944    0.9391666700172498    0.0131635893648100 Dy
   0.8554739888882366    0.0644731388832175    0.7657004249692345 Dy
   0.1075280733712261    0.0618766318163799    0.9888671085403167 Dy
   0.1027930328589764    0.0608103895719359    0.4846167686141479 Dy
   0.3704978127692373    0.6898029928889322    0.5029521059264587 Dy
   0.3780387088648806    0.8116990647412875    0.7534401029208778 Dy
   0.1528337222171751    0.1884015576695876    0.7364115027922423 Dy
   0.1404010833771688    0.1862937905440292    0.2372300466387403 Dy
   0.1079699728984456    0.3274090696040575    0.4800371212196983 Dy
   0.6465012745273667    0.9393368363268004    0.2316531659506790 Dy
   0.6539258469855707    0.1860685433228584    0.2357366436460288 Dy
   0.1290139954198139    0.9455542649050476    0.2324471682463737 Dy
   0.3560999196271221    0.8018385701810999    0.2582422438701957 Dy
   0.8848588865562328    0.5732460515369661    0.7676977962953935 Gd
   0.0953982770160152    0.6888405772765556    0.2380489281648141 Gd
   0.1199487667573014    0.6785663315536165    0.7310198456059861 Gd
   0.3909465843303132    0.5604772865514952    0.7677985136071418 Gd
   0.6286549712651308    0.1801781982276714    0.7342033708869452 Gd
   0.3636788604401631    0.0650211503393920    0.2679520583946955 Gd
   0.6119558574437598    0.3136991684567043    0.9824602580450432 Gd
   0.3663152600104264    0.4266302233569226    0.5130921220047980 Gd
   0.3966560070643746    0.1847060414260916    0.0127029880974110 Gd
   0.6221799333667889    0.5614304487096013    0.4940476515436817 Gd
   0.1481708991958456    0.9362825723597454    0.7401342020836614 Gd
   0.1322640791652070    0.8114400224290698    0.4796450048323606 Gd
   0.8683108934101811    0.3132876265316996    0.2564072995740260 Gd
   0.9674258217892684    0.4194270800119157    0.2878647386689827 O
   0.2285332781385475    0.3152297745286782    0.8863472692419214 O
   0.2119292155743187    0.3093708740183658    0.3910568966863821 O
   0.9734676871111331    0.9360771009708878    0.6109169519987403 O
   1.0235536621441716    0.9386967237862472    0.1258058056554550 O
   1.0041922507756689    0.4326161956657351    0.6425719528778381 O
   1.0316454313162271    0.4393179294762986    0.1382902541725814 O
   0.4690034287827712    0.9348594902277155    0.6111436703086757 O
   0.4873540577259817    0.9355297624147074    0.1069237201135554 O
   0.4667321774545859    0.4333562940900310    0.6090064076553137 O
   0.5198331223093281    0.6843883966490644    0.6378763403730572 O
   0.4717811569712230    0.6874240264887898    0.1145120106898650 O
   0.5237970426191989    0.1839104147293091    0.6350838209825806 O
   0.4753454456719494    0.1875753793499625    0.1108290088009108 O
   0.0190976630421730    0.6840169939089592    0.6400385948608672 O
   0.0146783800459764    0.6886909381811714    0.1415058826013532 O
  -0.0170490262391922    0.1843516518544492    0.6040415239798668 O
  -0.0242161367416277    0.1914327078353876    0.1083187648059449 O
   0.5212819450245204    0.4371230566715806    0.1394038578747060 O
   0.2199180782826989    0.8114586103673508    0.3792306388911169 O
   0.7258498579957602    0.3099705358684513    0.3844209442438837 O
   0.7665193437107756    0.3160732085669801    0.8567353584969457 O
   1.0154329054017452    0.8133568685342356    0.3783703518655985 O
   1.0323477869306483    0.3164795319865656    0.8910722634855751 O
   1.0161257029401149    0.3130906204949587    0.3867090464188573 O
   0.5363245567078384    0.8106532667915562    0.8888136961618427 O
   0.5204783779396168    0.8145425432942475    0.3868724521405062 O
   0.5305814147959536    0.3166330828700766    0.8867895688564140 O
   0.5221294737135089    0.3107105341177792    0.3821607997703969 O
   0.7813327630930581    0.5661725921278171    0.8644627306396984 O
   0.7628535976454920    0.5626823515539563    0.3793456782698273 O
   0.7790532964696150    0.0666163273548417    0.8589838719438337 O
   0.7715080127539518    0.0606408796653824    0.3603176614411145 O
   0.2452449363900582    0.5644187432886136    0.8921404590526157 O
   0.2405840105705416    0.5605043393226333    0.3949395211895851 O
   0.2820289152802846    0.0655825549968260    0.8598446246598814 O
   0.2711811418117497    0.0611021656304577    0.3546954610206668 O
   0.7334864196344391    0.8149887695414545    0.8892094209443340 O
   0.7199064797302629    0.8152707170362216    0.3907376583928820 O
   0.2323382245548857    0.8145367331050474    0.8877050011214185 O
   0.6946749045388890    0.7867015440745772    0.7054197711178114 O
   0.7230867658132312    0.3152404011227488    0.2122454730591985 O
   0.7103406533220006    0.3260047365519368    0.7101301933146612 O
   0.2943707477411209    0.6736076968807719    0.2951409361412246 O
   0.0658084479032438    0.6905797373932372    0.9490795630933047 O
   0.3041707150728617    0.6829417627126704    0.7948864037478233 O
   0.7797382913007761    0.2005875926352271    0.2905866180526119 O
   0.7799879112128318    0.1943215760180955    0.7788944066750351 O
   0.7834377709561843    0.7073638425458780    0.2973392882586841 O
   0.8121312534986224    0.7088714063304370    0.7958964598472853 O
   0.0487173015816611    0.6777790892550655    0.4575165301584027 O
   0.4677845790231245    0.4232593958542460    0.2855755974385696 O
   0.0379747573410228    0.1956953568674521    0.9711725239637614 O
   0.4762884911738323    0.4207699828392781    0.7918367639185104 O
   0.0369633143863792    0.1942877536527693    0.4679267095193755 O
   0.9625611305286099    0.9609598873323999    0.7922688027838283 O
   0.4412542397041766    0.9163753085722194    0.2904929219922312 O
   0.9449979593360446    0.9422137135956486    0.2946092845866114 O
   0.4588329085058223    0.9185718429567760    0.7964273020644417 O
   0.9733989131269727    0.4088463590035480    0.7880997477552971 O
   0.2874493770653774    0.2091468270761007    0.7874752864952186 O
   0.2729478223288799    0.2099684391167077    0.2879156641028144 O
   0.7150070223201105    0.9534995886383234    0.9582205767980840 O
   0.6935827211027698    0.9608975412155850    0.4558385999161924 O
   0.2123478333045947    0.8015189225950579    0.7147857821120362 O
   0.2119251311532432    0.7843530881837270    0.2063664009801988 O
   0.2166988062740774    0.3324446872627152    0.7076188510464948 O
   0.2154945878470556    0.3400610349778502    0.2078797628313359 O
   0.7697259904338407    0.5567726712322264    0.5365286532805579 O
   0.7782281023945038    0.5480569643400071    0.0408867821550089 O
   0.7941592072761694    0.0605353382563110    0.5495509996018573 O
   0.7925034722485484    0.0658450576077431    0.0430499026072380 O
   0.7167605346549284    0.7944429065190051    0.2042300200174702 O
   0.2897775018317847    0.5726606312705156    0.5414651655673225 O
   0.2995603081698024    0.0463718678697260    0.5501183760556414 O
   0.3052110377249376    0.0625192703156023    0.0507725839681080 O
   0.5430368896050286    0.6624269550566375    0.9600846002220180 O
   0.5287828611950713    0.6726075583419253    0.4587676539887293 O
   0.7243393962603484    0.4335873134615546    0.9552030573174654 O
   0.5335896213406492    0.1874246943908761    0.9623299688015053 O
   0.9960088805125472    0.8160111817935471    0.8571426678824384 O
   0.5212957100867327    0.1656477739007957    0.4523020603459246 O
   0.2921864883338025    0.5628752072334794    0.0327154898801538 O
   0.0007229469783808    0.0620510441365352    0.3952077679534123 O
   0.7224910718850308    0.4410731244726439    0.1335251792454354 O
  -0.0316399913436762    0.5638817775679601    0.3617580410079992 O
   0.7013385822527064    0.5703850418673753    0.7097010816639996 O
   0.7153365096167094    0.5804864950471140    0.2144120363647668 O
   0.7167797223700962    0.0608084945213465    0.7207858144121954 O
   0.7231585654459912    0.0608486800899571    0.2170192109385862 O
   0.2014963732311205    0.5428741725150701    0.7097796600005573 O
   0.1967595405643745    0.5600628674102017    0.2035879745016969 O
   0.2253148871775257    0.0615791377143584    0.7211023944600414 O
   0.2216906497008765    0.0628027900755727    0.2207544081739188 O
   0.5253383862247559    0.8261309882437755    0.7056586643101359 O
   0.5491444618004715    0.8188837616493462    0.2012931684062898 O
   0.5322172828786215    0.3304761037061570    0.7014289310662547 O
   0.5527048433289010    0.2899838766952378    0.2041889072578324 O
   0.0340626424232361    0.8363994044058468    0.7080746771306552 O
   0.0319159862323479    0.8242556941886072    0.2141491598042377 O
   0.0478324430293240    0.2880951883559780    0.7028292753583492 O
   0.0427377060338340    0.2940881996754841    0.2052233585063771 O
   0.9398742749694236    0.5550315693270877    0.5492802620772339 O
   0.2920539520265055    0.2968134875408247    0.0391299349243351 O
   0.2881904289485535    0.2877463605290163    0.5372071425197900 O
   0.2935216439463395    0.8319474617612860    0.0395539859441722 O
   0.2838272619546285    0.8275404889089010    0.5410896820980517 O
   0.9508315073435457    0.1900890154119889    0.7990024806659419 O
   0.9511960236332582    0.1887871112469902    0.2959925603949812 O
   0.4759576046600322    0.7024346839292566    0.7869669018251100 O
   0.4683075392311040    0.7058521985994183    0.2868190897033311 O
   0.4692878565270462    0.2020224839360054    0.7875624437980814 O
   0.4456328961420116    0.1991851499791264    0.2845259842345551 O
   0.5431980152971403    0.9396113956295251    0.9644414533456290 O
   0.5183803615192232    0.9523466936743309    0.4613473346900116 O
   0.9521926520475458    0.5693905021621705    0.0464752527062834 O
   0.5531757366791492    0.4552681906316371    0.9580009420970482 O
   0.0438679711113085    0.9166333534181230    0.9600671469369302 O
   0.0231199181883618    0.9254150459739104    0.4672031903175608 O
   0.0552469297944026    0.4688643367998196    0.9523846654995114 O
   0.0486859339420162    0.4547920160813826    0.4547408574284346 O
   0.7842840019785203    0.8343105986818798    0.5400970768745662 O
   0.7748604400769846    0.8233812847026321    0.0315166185300230 O
   0.7904387570792131    0.2923638996840507    0.5407254321767183 O
   0.8005155149188568    0.3180062278048620    0.0432128322974497 O
   0.5303259541774636    0.4499343399422648    0.4602065916858414 O
   0.9640446491613150    0.0585282257886065    0.5311609330580175 O
   0.9729692129895007    0.0509147955562731    0.0362342397237361 O
   0.4597475833138585    0.5808089653108375    0.5430057167541403 O
   0.7130035478660977    0.4345731130334791    0.4659504471372168 O
   0.2321602953208625    0.9340171422887817    0.6440745985705200 O
   0.2247867384074724    0.9369639274556368    0.1406072352924922 O
   0.2690592980275171    0.4318529458234416    0.6093360575636151 O
   0.2644614766639585    0.4393948114388966    0.1066394419327190 O
   0.7543679063045705    0.6847637254309449    0.6089314311615599 O
   0.7783455225749792    0.6882152133288606    0.1094962894995542 O
   0.7222354953353676    0.1849545071717220    0.6388866350394961 O
   0.7720598546269797    0.4341743029648819    0.6149972979550883 O
   0.7518547582558025    0.1898311054907257    0.1375507499511441 O
   0.2754417658584551    0.6867999579293559    0.1086171162968550 O
   0.2185734129705944    0.1842402570670999    0.6391671061578641 O
   0.2446166545492456    0.1898396944294804    0.1459557244938081 O
   0.4785808488104432    0.5640217910248408    0.8590406581095426 O
   0.4690987443842187    0.5622088806938979    0.3609377523908389 O
   0.4884931463675507    0.0644400539460626    0.8712803057359295 O
   0.4696596253729418    0.0609167488801811    0.3570155293345053 O
  -0.0174138828431517    0.5660855740917345    0.8546935605616141 O
   0.2221413440647930    0.6824511423960383    0.6312808524195750 O
   0.0161941250844509    0.0672806973212191    0.8969668879288580 O
   0.7269424219303402    0.9367531277410902    0.1343948807542201 O
   0.2959133430446525    0.4441871939105230    0.2998926929201970 O
   0.4582269850510896    0.5442155980123267    0.0458994234989586 O
   0.4672564639831785    0.0732439867769701    0.5425227052040327 O
   0.4742818410016585    0.0619601016576583    0.0343694941979034 O
   0.7214567078961096    0.6764696227250271    0.9619439190734556 O
   0.7053840607296055    0.6850175197707895    0.4669560727093452 O
   0.7093265183414171    0.1972698244244014    0.9544176670801292 O
   0.6963465287017392    0.1693661594185986    0.4580176011900280 O
   0.2373538079150923    0.6943421931080500    0.9688477061683493 O
   0.7430741572443909    0.9330267061484980    0.6461831520734347 O
   0.2248436093811527    0.6955900873027387    0.4657471561020004 O
   0.2196094016622300    0.1516422637721434    0.4578389545763558 O
   0.7909596255308303    0.9183207003639818    0.7878797738037179 O
   0.7735327323844532    0.9147303093388852    0.2876383193232911 O
   0.7979210793123394    0.4443810787470115    0.7818764009181357 O
   0.7907563314418283    0.4328651429690427    0.2928368537451019 O
   0.2877894961745732    0.9191749705648226    0.7900695038339460 O
   0.2678717014123141    0.9155587594627294    0.2838237517594042 O
   0.3079012309853220    0.4392944337748269    0.7988565165761256 O
   0.2077574694589707    0.1717357343962475    0.9562679964523333 O
   0.2134862096220399    0.9585061681367372    0.9582818740049099 O
   0.8721500765940676    0.8018390514485985    0.6602455861693788 O
   0.2225805922106984    0.4329335320510260    0.9688424233894748 O
   0.8854994146899907    0.4308380894972046    0.9067024747557035 O
   0.8671594036951711    0.9261018375524473    0.4094621229208480 O
   0.8799038480755687    0.9356198178624379    0.9058888409071042 O
   0.1195603776584223    0.1713073399753964    0.3401394871038055 O
   0.1275565137677769    0.1792429736839554    0.8388139570538220 O
   0.1187179308434164    0.6724749329670909    0.3409405982019422 O
   0.1329875026674766    0.6817871943889424    0.8368409227638289 O
   0.6212524554129181    0.1706563081920163    0.3370619393523864 O
   0.6304498432470076    0.1783492104922932    0.8419000876920562 O
   0.6231918743352154    0.6712864242091451    0.3464601176316511 O
   0.6348082441351345    0.6735047594241919    0.8395478727817479 O
   0.1226495665899058    0.4474408024898049    0.3403872449206104 O
   0.1318851933768728    0.4499785518773497    0.8348393804814014 O
   0.1162113728723803    0.9535571054717334    0.3363189104817401 O
   0.1310953332782054    0.9488330903687809    0.8439417210669401 O
   0.6224164087016134    0.4533157474891049    0.3442068413992214 O
   0.6332921934349769    0.4540383375440454    0.8426418163238611 O
   0.8731751033906340    0.4237728452884397    0.4115787586751720 O
   0.3817455651570624    0.9252396607189417    0.9111889038619675 O
   0.3658195032581463    0.9230830673466182    0.4083363244268113 O
   0.3797626946566635    0.4293523039984495    0.9123228513558549 O
   0.1946047331712422    0.9502333476723245    0.4525404750157844 O
   0.3763636555626277    0.0568093775950941    0.1633926339779574 O
   0.3722738488466640    0.0752586298890231    0.6600171831852495 O
   0.3738158079728532    0.5542277131001666    0.1653007122248954 O
   0.3687687981203453    0.5719646049721496    0.6624275555623952 O
   0.8790078498597634    0.0507713403703292    0.1572670327940750 O
   0.8750081264186778    0.0673352734227761    0.6634576431266587 O
   0.8767364228079698    0.5485507897916108    0.1576149282870081 O
   0.6170364208777636    0.9514373566787907    0.3365163079933258 O
   0.8715540586247922    0.5683867005974154    0.6634229865167482 O
   0.1212361892919757    0.3169650322038095    0.5860518710059948 O
   0.1283900612561410    0.8030306370743623    0.0848356625903233 O
   0.1195555630988503    0.8175257756909111    0.5873967253190227 O
   0.6263655514484963    0.3015089992157318    0.0862357492349937 O
   0.6227124191037673    0.3253931323093202    0.5865572187715947 O
   0.6232418978855444    0.8007530592335481    0.0874051729748000 O
   0.6217512590863266    0.8186050613956836    0.5884972074643493 O
   0.3724681496851387    0.4167781901572410    0.4071427849802327 O
   0.1297032098456735    0.3036714786239477    0.0890199361360496 O
   0.6307038669373355    0.9528791095301572    0.8424032106626592 O
   0.9798917780557300    0.6972953956477855    0.7784170821690573 O
   0.3781831003303369    0.2066611768820057    0.9046927213039140 O
   0.0506256130874073    0.0730047147906797    0.2059196482825018 O
   0.0535005455788054    0.0706372360693686    0.7012388884317633 O
   0.0239940027991448    0.5624532206294707    0.2191886422799851 O
   0.0272089284285185    0.5532345410330723    0.7195087490602844 O
   0.5460738346414546    0.0521257781388595    0.2069530380988577 O
   0.5381311438009398    0.0478984701871386    0.7144250943022321 O
   0.5346379528986220    0.5757386660384521    0.2162842075928113 O
   0.5255446046075726    0.5519148719876960    0.7155884169185910 O
   0.4682028900942898    0.3292791773878259    0.0349823488157521 O
   0.4619056078322398    0.2955708071089973    0.5318206205129745 O
   0.4684253868666696    0.8046432554057518    0.0280412839343897 O
   0.4586147649646466    0.8037659126889615    0.5332010244829187 O
   0.9601934411860397    0.3325793014204802    0.5366491983138906 O
   0.9483160333903952    0.7984939800339120    0.0453347698776408 O
   0.9520615549507490    0.7939955843827478    0.5410973183375485 O
   0.2240243441708169    0.4309126380655029    0.4715034562317754 O
   0.3695215377192867    0.2061153695335308    0.4003793607394848 O
   0.9571150309108746    0.7026496845331922    0.2883673369795196 O
   0.8755475307523497    0.8278327362258034    0.1537412488311151 O
   0.9815643982042653    0.3428467857744403    0.0344065794162410 O
   0.8784802076498366    0.3338787738519817    0.1525010984597727 O
   0.8724137333625570    0.3014418461438520    0.6582750946542343 O
   0.3713765331648042    0.7040653676407418    0.4028291380771082 O
   0.3838562452402025    0.7027969129268620    0.9065759674715156 O
   0.8709324066310449    0.1951683427948578    0.4118578259457021 O
   0.8721411837055616    0.7028603422135052    0.4131066529506129 O
   0.8849705557831458    0.6962514667145601    0.9131744857847762 O
   0.1302282845466530    0.0779357901857205    0.0904551904368354 O
   0.1228853698081719    0.0546262076273040    0.5877273138279331 O
   0.1289217003396221    0.5699576314785380    0.0878219703942949 O
   0.8804900879287172    0.1960470404421014    0.9105371311240201 O
   0.6257594285194299    0.0736945216461978    0.0978320183562710 O
   0.3691764002489549    0.7944756291025509    0.6507350753756609 O
   0.3735093919592510    0.8217807129230565    0.1582532174326027 O
   0.1203583406263580    0.5473649883762371    0.5923722327744947 O
   0.3788814857110407    0.3211459230658018    0.1566314528390808 O
   0.3724206706213055    0.2891218415267782    0.6508036920181213 O
   0.6192349626170801    0.5421966188958485    0.6007308313540339 O
   0.6226867734196464    0.5841434791856139    0.0991281042358477 O
   0.6232830960478473    0.0440045440217245    0.5973111291744960 O
   0.2547448614431073    0.1889857225802662    0.8749150889618137 Ta
   0.2436191049146636    0.1879935029515376    0.3761284497990537 Ta
   0.7488706277694940    0.1853105139026384    0.3770671086880328 Ta
   0.2529653903216995    0.6915626035763777    0.8746290063518468 Ta
   0.7558003930714707    0.9419491109175238    0.8751639504083389 Ta
   0.2426428567600347    0.4360022043567754    0.3798672999967983 Ta
   0.7427937476888722    0.9375753272335735    0.3756797856768472 Ta
   0.7566116838168770    0.4435698166118103    0.8708555697146234 Ta
   0.7438416503345352    0.4368388539303638    0.3726731643677473 Ta
   0.2608588001865693    0.9433449051545973    0.8764417176715832 Ta
   0.2444896387043329    0.9383228493749832    0.3712744808369996 Ta
   0.2504894473028910    0.4377101216916225    0.8755566065561835 Ta
   0.2405941325567152    0.6849065492383853    0.3748168823111007 Ta
   0.5015260986157685    0.8092102468954363    0.6201632862184084 Ta
   1.0042059065118278    0.5627361866134540    0.1268704301431451 Ta
   0.4974948316982633    0.3050923642421094    0.6173470213144060 Ta
   0.5049893532256813    0.3112782840567231    0.1272878082718517 Ta
  -0.0026292684329457    0.8074880806865341    0.6210256860349315 Ta
   0.0047158429117498    0.8154388552942629    0.1212238891452277 Ta
  -0.0036814397800882    0.3076548426826919    0.6225214595838409 Ta
   0.0005568759577706    0.3140180163583458    0.1221836999487427 Ta
   0.9980381425490555    0.5588249912497144    0.6243637243793985 Ta
   0.9975376122171273    0.0601041128596569    0.6253017004819320 Ta
   0.9983247170525456    0.0647842349566134    0.1237425428710402 Ta
   0.4904825260697402    0.5541100793168053    0.6233853985904172 Ta
   0.5012075011288957    0.5621352157871464    0.1305473149751950 Ta
   0.4941193115725444    0.0588153367550463    0.6341848940999580 Ta
   0.4981463111034519    0.0628604546959765    0.1256360199466343 Ta
   0.7581490887325834    0.1909257665963143    0.8762628125745522 Ta
   0.4997387728644644    0.8113481278246339    0.1229071184883793 Ta
   0.7467931645874545    0.6882436746768033    0.3826501093893726 Ta
   0.4939548107321927    0.9362687200466143    0.3670532551201385 Ta
  -0.0047916741477513    0.4418775330197840    0.3756668488850353 Ta
   0.7470036324925671    0.8111053246788661    0.6237450535701576 Ta
   0.7562149574682914    0.6917534459121888    0.8743431099164025 Ta
   0.7403616886797482    0.3078131985198567    0.6212211027787331 Ta
   0.7473836060257761    0.3169734163726041    0.1236054739214905 Ta
   0.2485114426815855    0.8134365742755625    0.1249008053034632 Ta
   0.2455473185678964    0.3064573917348635    0.6184542185524778 Ta
   0.2499906392641098    0.3116816194248086    0.1253978013633102 Ta
   0.7503965246155917    0.5613716293791110    0.6276606471331135 Ta
   0.7539973448661018    0.5633746193163651    0.1327672324578555 Ta
   0.7468749440510515    0.0574580443375138    0.6306836147304737 Ta
   0.7527378258360210    0.0646067691764889    0.1239929934041287 Ta
   0.2474833212928862    0.5563087453120277    0.6235029408818755 Ta
   0.2522767659998372    0.5635658570291130    0.1279015421631842 Ta
   0.2442161780081893    0.0584360281166015    0.6295996098325222 Ta
   0.7502273347566439    0.8132512606399955    0.1201968471908949 Ta
   1.0047686512768406    0.6914961692645406    0.8739200282501913 Ta
   0.2495649360873414    0.0628730732721225    0.1280555523913376 Ta
   0.0069583195094188    0.4426007875838375    0.8748795972363999 Ta
  -0.0025970121037858    0.9377878472081872    0.3733320519100677 Ta
   0.0075984884668623    0.9431524613200910    0.8776840799191592 Ta
   0.4961319242158025    0.4358832078792101    0.3745450570196187 Ta
   0.5015297777255592    0.4405158023326690    0.8782804729997361 Ta
   0.5078000607594925    0.9399532165053600    0.8727878264648058 Ta
   0.2425294278193233    0.8064956860574677    0.6263011135637245 Ta
   0.5063524229820079    0.1900186557587037    0.8725364621535682 Ta
   0.4970313808153666    0.6898677155215825    0.3750431807069681 Ta
   0.5077427356715325    0.6888391285445915    0.8791202843520325 Ta
   0.9990472942072232    0.1896397750470503    0.3751316453557307 Ta
   1.0059702082325179    0.1914659173754923    0.8771319816002582 Ta
   0.9940096328546022    0.6866556072084529    0.3813297991201475 Ta
   0.4977108711938625    0.1884254424154317    0.3639314528534229 Ta
   0.3762099413135258    0.1784092470338730    0.5005364499970139 Y
   0.8951442078827879    0.1875369003169338    0.5129745945869906 Y
   0.8551696181767747    0.6851016267384340    0.0174195629898687 Y
   0.1000639858000068    0.4371269246519937    0.2370508773757955 Y
   0.6167267359078661    0.4377834714291744    0.7416730260535080 Y
   0.3633364175802190    0.3218228243589768    0.2584496581878413 Y
   0.3827389095639345    0.3134538845765319    0.7520622126392932 Y
   0.1541054010932686    0.5701428370343233    0.9869472070796577 Y
   0.6377823371322205    0.5606194285603185    0.9985909108179688 Y
   0.3970445168366201    0.5616479891808808    0.2692819978557326 Y
   0.6263914717736405    0.6899975828038855    0.2463331473310437 Y
   0.8689644190283972    0.4381437467619542    0.0091718174589523 Y
   0.1568357940183347    0.8215846943224839    0.9829585122319280 Y
   0.6221225922505380    0.0694394662700635    0.9946208334430516 Yb
   0.6129920991281197    0.3120173477325138    0.4732862542435725 Yb
   0.1504349654127410    0.5636730765495290    0.4870026339499850 Yb
   0.6177681663542395    0.8126197789604669    0.4766177993911631 Yb
   0.6416913296416679    0.9317552653371669    0.7377178505367995 Yb
   0.8579263877624735    0.0653578345035458    0.2662908223827608 Yb
   0.6224677374698158    0.4355114067881801    0.2334684416993071 Yb
   0.8809091931286751    0.5624200384472573    0.2685877554480742 Yb
   0.8435819698830411    0.6873354149035970    0.5165253920041455 Yb
   0.8901578808330056    0.1854057446578812    0.0161805323458712 Yb
   0.8749988267037732    0.9400231264838980    0.0091047926770534 Yb
   0.3717077947582453    0.0653065220564239    0.7688199158622571 Yb
