Yb16 Y16 Ho16 Er16 Tm16 Lu16 Si48 O240
1.0
  -0.0031675926970439   20.0288453432192561   -0.0806641649560873
  13.9238118185000150   -0.0021919506232778   -0.0010919227964235
   0.0021886661015598   -5.3557815196452498  -17.2958592506359423
Er Ho Lu O Si Tm Y Yb
16 16 16 240 48 16 16 16
direct
   0.6458527467112787    0.3195874867555049    0.5642546945425972 Er
   0.3528204706625911    0.6838633291116835    0.9371934868310869 Er
   0.3541808837942473    0.1789718230566008    0.9419890830128215 Er
   0.1925606765523382    0.0727751962999763    0.4400261561780001 Er
   0.2582986715272212    0.8134323905353682    0.2355630660462358 Er
   0.0854456951821092    0.4376543309562786    0.7359079897434364 Er
   0.5898383326279151    0.8153863659690216    0.2391351363512217 Er
   0.6902014766296602    0.6744337498124968    0.4407759870780376 Er
   0.4216888576339249    0.9382101411933725    0.7382629747855025 Er
   0.4088113674995570    0.1826802702308727    0.2593407162826024 Er
   0.8554330499028626    0.0715401949513033    0.4355897832610769 Er
   0.8529471226308311    0.5677251832601454    0.4381016063500133 Er
   0.5774576550586699    0.0658152302358072    0.2607202939290723 Er
   0.9804689240839400    0.8210000825984201    0.0649950186327807 Er
   0.1467418737600971    0.9300216956489480    0.0616487341439491 Er
   0.8135020882467092    0.4301555392585281    0.0613496859489682 Er
   0.5191255819017839    0.0675662383737093    0.9373755679647143 Ho
   0.7451374854579752    0.6849937451394216    0.2617694161586346 Ho
   0.7447976796311002    0.6855353279428612    0.7615104795278637 Ho
   0.0930537199815067    0.9375218196497427    0.7388134421486573 Ho
   0.6456768225605929    0.8250683014425217    0.5620072348060667 Ho
   0.4104510040209224    0.6863074230968474    0.7618010952473706 Ho
   0.4213330648303539    0.4373711090854614    0.7370917744887592 Ho
   0.6862306371467792    0.1831941665340038    0.4344734138338721 Ho
   0.1428386457015429    0.4275572134907693    0.5633391285412078 Ho
   0.9208227552994370    0.8128142938874003    0.7384778372211492 Ho
   0.5775580348252886    0.5626016421498259    0.2619697169327267 Ho
   0.5785534886323699    0.0642147732256324    0.7637540392502686 Ho
   0.8132412247525543    0.4275841607064148    0.5663870432783549 Ho
   0.9224146984752493    0.3105915546380840    0.2366302006018743 Ho
   0.3116388437783127    0.8178293204079679    0.5618027700754988 Ho
   0.4725171884181682    0.4296177646117794    0.5587972768831309 Ho
   0.9812507092960291    0.3164189125678379    0.0637987376050563 Lu
   0.9808788291880894    0.8218562309010899    0.5656012818469175 Lu
   0.7576283238729347    0.4338500916952036    0.2351592919357815 Lu
   0.9218830149744136    0.3160900939383164    0.7378094967123537 Lu
   0.5925766327371058    0.3135781043038710    0.2337250849809238 Lu
   0.2577182098193697    0.8166422558776522    0.7378268949824899 Lu
   0.9083148839155029    0.5624940225103411    0.2630871934977083 Lu
   0.0766955247679513    0.1850660842792937    0.2634887231884999 Lu
   0.0714860177530456    0.6817338204352166    0.2613350867841744 Lu
   0.2421968049907014    0.5639230142569975    0.2632511258404935 Lu
   0.3162418765006786    0.8186516249955365    0.0655588575315024 Lu
   0.6873896143720835    0.1794971142094045    0.9377049641969516 Lu
   0.4807629479017441    0.9296884585645028    0.0656139266917226 Lu
   0.8145686115097616    0.9345080254598321    0.5654268686210729 Lu
   0.5202519909724055    0.5679969549058759    0.4353756460939527 Lu
   0.6482796897950817    0.3190382982281161    0.0645290607702834 Lu
   0.9951268626748357    0.4330937342405752    0.3042659392915638 O
   0.1573636255286370    0.3211268579348540    0.8089350904367815 O
   0.1672405630228740    0.1117868487355978    0.0531402289671241 O
   0.1608532940920576    0.3188002611787319    0.3073604201948431 O
   0.1661057199160336    0.1124669579851927    0.5568883134783719 O
   0.9966778281042161    0.9342474803552766    0.8102892122941615 O
   1.0051085772396098    0.9316383759757103    0.3116585955222263 O
   0.1447419859408986    0.6276245598126980    0.5395054827249687 O
   0.1506490175759191    0.6154773397946943    0.0450296426450560 O
   0.4934603981074539    0.1108688733935687    0.0506163130384661 O
   0.4874541056061571    0.1160862852030300    0.5454283293258609 O
   0.4971818066009326    0.6126565238773833    0.0500029011237582 O
   0.4918921283478082    0.6121577652177346    0.5488193761729315 O
   0.8300105959510699    0.1111760464364389    0.0519466358604460 O
   0.8293560070328971    0.1108710312802883    0.5521668478831125 O
   0.9960976150530332    0.4281619472989224    0.8076226036018198 O
   0.1697426509908630    0.8181888008126119    0.3077940468738487 O
   0.6692658531127004    0.5686598439433829    0.6912982685463895 O
   0.5011504172942577    0.3198012530137576    0.3060439798720390 O
   0.0055919054171058    0.5624091565301436    0.1921876145101608 O
   0.0084827073216463    0.0689278008631809    0.1940001437853785 O
   0.0070797139724954    0.5692814791883311    0.6945155907870537 O
   0.3358883674357239    0.0657504858645422    0.1905020824866439 O
   0.3368467699813804    0.0631077589222410    0.6927619816859143 O
   0.8341216346603506    0.8136295680041631    0.8089772960722938 O
   0.3395458640053660    0.5683639039267226    0.1940847836317857 O
   0.8297639954987852    0.8145311393209265    0.3094649219296801 O
   0.8331611963145042    0.3102521301039292    0.8095801430758708 O
   0.8292691097777599    0.3242320013493853    0.3083041681706775 O
   0.3324783836896965    0.5723798527843025    0.6926077329980450 O
   0.4947188649106853    0.8180753833168439    0.8085407992863545 O
   0.5035822512246366    0.8133071983681490    0.3077763730164989 O
   0.6666920381779688    0.0668563701455118    0.1907889412404165 O
   0.6701970273725927    0.0718283720362408    0.6933229518001685 O
   0.4923304065515551    0.3195416639821249    0.8059351092623211 O
   0.6708044594121606    0.5639978635643932    0.1917503565995896 O
   0.1667147024289120    0.8157143703257345    0.8075293009800686 O
   0.0028217582794347    0.0708274359871763    0.6933045255792307 O
   0.7192731766316727    0.9649011431442617    0.6011652596256155 O
   0.6636260076218434    0.9331950011614500    0.3075015953806625 O
   0.5885020513097039    0.9838548611189113    0.5621066893932221 O
   0.5871327042128359    0.9782295147400201    0.0562927673169213 O
   0.5863514082211758    0.4835502069970948    0.5556254025118293 O
   0.5892649018061169    0.4724811995875818    0.0577827923561332 O
   0.2545384209035882    0.9751559347147239    0.5582746821711875 O
   0.2571983203080750    0.9695294621071965    0.0589123703211121 O
   0.2470715842924361    0.4939830800871316    0.5587803292052980 O
   0.2532111507711221    0.4897285309985088    0.0610176688441923 O
   0.9253132150150011    0.4693927139456187    0.0603008366018125 O
   0.9126797646073064    0.7290529848600733    0.9454220094943827 O
   0.9101714483440539    0.2255841768809004    0.9470489927803145 O
   0.9086802569727044    0.2205419801901385    0.4324829790859998 O
   0.5772350637767213    0.7261644650014697    0.9397834631680464 O
   0.5783416572824929    0.7133963881071440    0.4402094641495889 O
   0.5772522737306638    0.2310236204164947    0.9377463779058508 O
   0.5765371005062150    0.2285577673772328    0.4421037575410477 O
   0.2441124791361126    0.7283955273238770    0.9449579329936909 O
   0.2424092992114349    0.7226067933481288    0.4418626811363174 O
   0.9101898492190283    0.7209949510393686    0.4414783170007489 O
   0.9164674646783566    0.4978119423589102    0.5593484832978417 O
   0.9253322285457656    0.9770644280288071    0.0619693554416524 O
   0.9235904049526715    0.9747947937588286    0.5610642503627122 O
   0.6639185589193757    0.4319198555699111    0.8097942049932524 O
   0.6613362204114785    0.4300699262627313    0.3053992186238927 O
   0.3323233619391416    0.9274398875095959    0.8090353708394702 O
   0.3281657940646802    0.9307394868091476    0.3051908331220894 O
   0.3298250865121319    0.4411248494097970    0.8050969767065579 O
   0.3272394339879632    0.4330866625974421    0.3059720012976864 O
   0.8331284799896035    0.6866741484304091    0.6891550630663140 O
   0.8361471036770911    0.6772491540519089    0.1933114311843087 O
   0.8336831212465624    0.1820279040689993    0.6921846859356867 O
   0.8329111580041324    0.6064355807826138    0.0550599607985089 O
   0.8382157541485079    0.1876418867897663    0.1923832921322775 O
   0.4980642272277331    0.6851535695644468    0.6908735149605216 O
   0.5017591646137741    0.6806914536529934    0.1909365542086295 O
   0.5071667892708993    0.1782694709798404    0.6922600057305172 O
   0.5031877936212616    0.1854217591502625    0.1902800032269327 O
   0.1698625104420489    0.6810767913262352    0.6916517360280366 O
   0.1732759935890741    0.6800074240132419    0.1920858986273096 O
   0.1632057478974512    0.1835016371842503    0.6951964381225749 O
   0.1685363952490473    0.1814634164013720    0.1926470766930970 O
   0.6611457999067871    0.9348841215023661    0.8085146802884861 O
   0.8130414415332812    0.6214325730632322    0.5414856640722392 O
   0.8394324187805444    0.8922415510845987    0.9471873400190433 O
   0.0005695157363115    0.3566059888045789    0.9475683182967606 O
   0.3114438428986466    0.1891023487346518    0.3003647514285531 O
   0.8118984333801968    0.5625190183543726    0.8089957672388075 O
   0.8136896552965722    0.5551123682763965    0.3057042449273097 O
   0.8138448493403627    0.0642887750886191    0.8103775612835825 O
   0.8133194622980718    0.0570671192753716    0.3112141475213691 O
   0.4749343026284744    0.5570397357855107    0.8085539127840966 O
   0.4816654028441930    0.5596824797715462    0.3067493949629388 O
   0.4813323439970510    0.0550775574135537    0.8083777590929087 O
   0.4827028652646784    0.0622968014324683    0.3052848760757923 O
   0.1461835426435493    0.5600395929594703    0.8068192262730821 O
   0.1461696044280880    0.5581909746479592    0.3036486750098389 O
   0.1418646133168152    0.0603807672137138    0.8101415052493135 O
   0.1488696848418006    0.0616003807682469    0.3086492662556724 O
   0.6852969522117276    0.8083276934725283    0.6916093922207074 O
   0.6879809192573764    0.8078075374881104    0.1939273420003514 O
   0.6863586516827368    0.3019700496277258    0.6904247392026228 O
   0.6854481034364660    0.3149645918716117    0.1904515011464818 O
   0.3177356106110464    0.1940550268210940    0.8115458730421969 O
   0.3522746027472365    0.8107248818751818    0.6931553919206744 O
   0.3128205990722170    0.6886102478684399    0.3048111747748929 O
   0.6416518067637500    0.1955208538897561    0.3057952893793955 O
   0.8548328211292313    0.4373639012143868    0.6919878988024589 O
   0.8531102510893518    0.4409611966841335    0.1930331626462793 O
   0.5191083165090316    0.9411665685265941    0.6929893969957585 O
   0.5248632132586536    0.9426314127640961    0.1904493038789803 O
   0.5129720924518735    0.4400187698522289    0.6872972282952040 O
   0.5215523144730143    0.4396155535212927    0.1896692718373216 O
   0.1872206840021339    0.9381263010331770    0.6940425467229036 O
   0.1895227313307043    0.9417976312705808    0.1923524507581139 O
   0.1824440675280991    0.4468165770009438    0.6922945883581154 O
   0.1882983146613250    0.4422038818776308    0.1942232494562339 O
   0.9822778746236491    0.6935241350434928    0.8081772800037182 O
   0.9810626982700257    0.6801672210211153    0.3057213462720372 O
   0.9785266782955327    0.1936699738834495    0.8082263800233870 O
   0.9846473469496333    0.1939407133258997    0.3062056313786398 O
   0.6483883169341892    0.6918751376238251    0.8094437946050426 O
   0.6467867753360632    0.6887964823388415    0.3065381425980561 O
   0.6493517871291283    0.1882379822863860    0.8115521472378339 O
   0.3103247149877441    0.6935389140930858    0.8067818447628801 O
   0.0064846766482946    0.3567766844853452    0.4454726219699256 O
   0.3539062975449734    0.8034815101992681    0.1914363754281971 O
   0.3543121819421124    0.3095652681658959    0.1964880045099478 O
   0.5178468169344954    0.8811590907556816    0.4534013042398099 O
   0.5013730437520941    0.3883055480125631    0.9470984939656921 O
   0.5033017451324452    0.3908507225751277    0.4450983323692838 O
   0.1674274550299731    0.8912805743581231    0.9445793879945715 O
   0.1724414980936946    0.8852780843292781    0.4497611566096508 O
   0.1813901743662903    0.3826784022455349    0.9566529391764454 O
   0.1781550430258954    0.3832961314491767    0.4539963321643609 O
   0.6734208490234528    0.8620390426509422    0.9494492221397042 O
   0.6649068388490844    0.8573465630038268    0.4431570697744116 O
   0.6709764829190485    0.3625231150976824    0.9511599564629711 O
   0.6708579505402876    0.3573217507765942    0.4473622695315125 O
   0.3352592731948956    0.8581532505110403    0.9481532939024985 O
   0.3335793684823208    0.8574282734968333    0.4447701538476080 O
   0.3369762401242187    0.3599317238436849    0.9423018144383869 O
   0.3511063549664661    0.3675407040082804    0.4543451804999440 O
   0.0065405574535336    0.8647792420622162    0.9523789653358100 O
   0.0033792695424277    0.8584708731950176    0.4490837279536101 O
   0.5037050075897541    0.8858053398534025    0.9513263307785471 O
   0.3474299258963663    0.3095942201468773    0.6924596532742323 O
   0.8474629660756223    0.3845321891257547    0.4556090496327801 O
   0.8393066052249397    0.8839530834552320    0.4519464361876297 O
   0.0212065254616329    0.8106354405688242    0.6942008128678332 O
   0.0256971351942037    0.8041976734847591    0.1937145260795176 O
   0.0191064661870887    0.3092167948701606    0.6968914994102191 O
   0.0226860417681492    0.3064168872168972    0.1918553299661354 O
   1.0002449004412231    0.6481750321501556    0.5571051561187237 O
   0.9962589429224117    0.6348141345811731    0.0523301835929873 O
   0.9920085499835009    0.1389898870859897    0.5503472186578732 O
   0.9980211817913067    0.1405488742183092    0.0533206496862390 O
   0.6677842954028502    0.6403065398263771    0.5541875897641169 O
   0.6610068791030566    0.6359451837977851    0.0503587954905241 O
   0.6609453205177093    0.1423833977125954    0.5512177496456832 O
   0.6597863521472548    0.1412329176779089    0.0505604423549159 O
   0.3308674849700608    0.6440531142886786    0.5544298252885886 O
   0.3323010323773688    0.6444195894621630    0.0541177596355373 O
   0.3212429190970892    0.1350974684955817    0.5480159258246337 O
   0.3269678065652574    0.1329002718635510    0.0486604992287323 O
   0.2425044380610739    0.2197443696727969    0.9316626390221785 O
   0.8353973587494858    0.3899145959724701    0.9464397633610673 O
   0.2467837109953502    0.2266363050548622    0.4358785135232002 O
   0.8562959305264358    0.9418686037334305    0.6909096632511762 O
   0.7450765354759866    0.5159707615656614    0.4363515052518820 O
   0.6142374169988928    0.5354799934011850    0.3968965201816776 O
   0.6126414928307979    0.5400701097171937    0.8975398851620799 O
   0.9509485840992101    0.0375592713632909    0.3988162100163414 O
   0.9475547279459098    0.0420246723438212    0.8991835252005838 O
   0.9467357580656122    0.5354711172283192    0.3961115760139499 O
   0.1166943241052480    0.2074559554605542    0.3971268892730837 O
   0.6144163208091270    0.0410891408504063    0.8990297599730361 O
   0.1121966312227332    0.2117963605463553    0.8983694469283895 O
   0.1143491045192509    0.7109118275440620    0.8941835179855691 O
   0.4467195756317132    0.2119715341338648    0.3900610275525537 O
   0.4475385275129662    0.2077813170865573    0.8975413298888407 O
   0.4476743839588752    0.7130616780795332    0.3922959094697378 O
   0.4463879982740419    0.7090793004725346    0.8959765052211395 O
   0.7798008184395810    0.2127929165700008    0.3969839083012505 O
   0.1117098169685572    0.7127327185309588    0.3889500750078799 O
   0.6162742124381397    0.0414085338972179    0.3955210499160909 O
   0.2814678429456495    0.5419975631923479    0.8957362793069462 O
   0.2801458656643303    0.5380808737209757    0.3951033842008468 O
   0.7424553575154920    0.5245540647269902    0.9441761655030096 O
   0.2193605388449371    0.2917278807520405    0.1075499644459605 O
   0.2184532909551546    0.2917189387935845    0.6095409097575140 O
   0.2204462327601546    0.7875636747967377    0.1017603272999034 O
   0.2203058838178104    0.7897662309816306    0.6059716716909131 O
   0.5539256269383847    0.2882998096183433    0.1012386107815837 O
   0.5471636421315493    0.2931808141127716    0.5979216566712970 O
   0.5538725250760039    0.7897883486412055    0.1064520943675614 O
   0.5531195368492562    0.7868761951857448    0.6044753310243437 O
   0.8872881650137714    0.2900199280571437    0.1022310248731674 O
   0.8856402438625122    0.2893655062297776    0.6077601682350552 O
   0.8873124582549768    0.7870786247257818    0.1048142533141772 O
   0.8881991538637322    0.7876535968640314    0.6037780321110956 O
   0.2816889179797766    0.0370120152022078    0.3944619481314405 O
   0.2802649970413448    0.0371905599246797    0.8958857513237878 O
   0.7794590181198955    0.2115822723530247    0.8989821804161936 O
   0.7797637679981059    0.7072602133171401    0.3942320484220611 O
   0.9501216555196554    0.5387767767170206    0.8985129755930029 O
   0.0553306357022656    0.4562228086151665    0.1038070363995205 O
   0.4227225386108303    0.7757579604144649    0.5553463509932474 O
   0.7556795153583536    0.2721891056371248    0.0572935438551571 O
   0.7555343512810402    0.2720063969615461    0.5577020474097791 O
   0.7569220800045654    0.7675959476383403    0.0588299432866754 O
   0.7564624482450341    0.7872454251270746    0.5590508776531964 O
   0.0819756180805825    0.0191411454173376    0.4478050847587138 O
   0.0778272313257489    0.0274811530923969    0.9440878144937563 O
   0.0780273528562452    0.5165635149956943    0.4378861476432636 O
   0.7810874133588165    0.7131781480112092    0.8983501852191327 O
   0.4145992211117494    0.0093952455708043    0.4393472939777273 O
   0.4104828244562503    0.0191915136295641    0.9428489161380136 O
   0.4114834132362969    0.5296433867032393    0.4335050851143639 O
   0.4117561460962116    0.5219917128529584    0.9434179776901209 O
   0.7462758955150502    0.0163007670076804    0.4442601855171548 O
   0.7438599367812966    0.0264705047658806    0.9405696733223765 O
   0.4242178078207131    0.7758856391739406    0.0577184969853689 O
   0.4170108152965184    0.2687495856359216    0.5684703873871954 O
   0.0802839286349446    0.5108383018467390    0.9405373701673881 O
   0.0901288367917516    0.7900573463315435    0.5691730299354004 O
   0.4224021912046285    0.2743561557029782    0.0563988130287429 O
   0.0551155491946376    0.9615235229519491    0.1052125685637959 O
   0.0540788513091854    0.9658288290586909    0.6058635841277858 O
   0.0483165359631855    0.4627477907883108    0.6012324635223469 O
   0.3801258930079764    0.4637769486672239    0.6036910177526911 O
   0.3873176370184815    0.9568400397039147    0.1024933322626489 O
   0.3851663395948052    0.9596682376525759    0.6028342549019149 O
   0.3861455772266946    0.4643177441240234    0.1014927377241464 O
   0.7160723177162736    0.4573609848720541    0.6010866583903101 O
   0.7177026439892943    0.9622596780380849    0.1025131953327683 O
   0.8516487802331729    0.9396135911074612    0.1927750752266250 O
   0.0898139645217352    0.2724520841139299    0.0566998070385582 O
   0.0896690163558297    0.2714295845758477    0.5586259831029490 O
   0.7203717630950012    0.4586201354708399    0.1037547957973955 O
   0.0897460253087559    0.7778947389186243    0.0634441531941945 O
   0.0077105965711888    0.4534506169990102    0.3975417479903953 Si
   0.0073947074379791    0.4524365288559242    0.8997604712032953 Si
   0.0116798570306665    0.9553046317272377    0.4024360318166588 Si
   0.0095175410094509    0.9599502244015127    0.9029480130152199 Si
   0.3423331362749029    0.4589826047866582    0.8983430883584277 Si
   0.3413518790270736    0.9534263381480415    0.3979764981562700 Si
   0.3408281316365045    0.9544476175602817    0.9005079436300417 Si
   0.6744612162690283    0.4526091683265475    0.3985181832948845 Si
   0.3438478320158959    0.4596786177325318    0.3985458635924010 Si
   0.8215435496785909    0.7138182613620782    0.5977849120277905 Si
   0.4910243348664077    0.2084667448019617    0.0976496679631542 Si
   0.8246105787141165    0.2068055776679534    0.6005968049112763 Si
   0.8256298697087816    0.2075709967969577    0.0995709345677039 Si
   0.4897466712221112    0.7073580165147222    0.5992160672153471 Si
   0.4917055277196274    0.7074422905940653    0.0989671483473257 Si
   0.4905976592312639    0.2077915095856165    0.6014267152427544 Si
   0.1546769381893085    0.7144482434742435    0.6006958854930589 Si
   0.1573027038500446    0.7085142403348836    0.0996771383439004 Si
   0.1582698182496257    0.2075642742306606    0.6053067630685804 Si
   0.1589582807969201    0.2072384779639883    0.1002645979245382 Si
   0.6736140980988174    0.4582955097770947    0.9001111054608424 Si
   0.8271548186623525    0.7038599516878339    0.1014779494712338 Si
   0.6755354279521580    0.9552399049917174    0.4004365776687768 Si
   0.8436328863407930    0.7938336011641363    0.9013733077460304 Si
   0.1766575029448760    0.2909724279053786    0.3996238775914436 Si
   0.9913530142079464    0.5496686920966734    0.6007017097242201 Si
   0.9930187041488069    0.5379418077676920    0.0992310510325137 Si
   0.9908255869747543    0.0443741682357659    0.6010939443698690 Si
   0.9941214440757795    0.0442652799379229    0.1011366730452768 Si
   0.6586412392830204    0.5437725642258929    0.6001096278388635 Si
   0.6597874219388324    0.0467190949180037    0.6016902095348867 Si
   0.6558263751390919    0.0442551071675207    0.0987274923221334 Si
   0.3209649296156968    0.5482787863669285    0.6003243515735222 Si
   0.3261231055194296    0.5472388000263672    0.1002389173111029 Si
   0.3234440486289921    0.0399942195621919    0.6009160352002141 Si
   0.6577605101522643    0.5396718629129335    0.0985312487581142 Si
   0.8422037774963764    0.7893446394338949    0.4017155174040288 Si
   0.3254608593682091    0.0378296454219745    0.0988763866407038 Si
   0.1749300557851270    0.2908851945075316    0.9007693924521188 Si
   0.1761551979072055    0.7917781602668315    0.3984318879953738 Si
   0.1761001312343826    0.7939568394878737    0.9002466456282557 Si
   0.5083211365320314    0.2940737713546938    0.3971731875148491 Si
   0.6754539809568053    0.9588705919933480    0.9012622756089248 Si
   0.5144662278595737    0.7877402011720855    0.3994899175070007 Si
   0.5077733125295667    0.7920787974533058    0.9010012397445990 Si
   0.8417316105791490    0.2925137525678580    0.3994056580692011 Si
   0.8421460277191437    0.2916747208912442    0.9018987862573380 Si
   0.5057464261264701    0.2931766205181006    0.8975514955722905 Si
   0.0906780795754781    0.4344932762713643    0.2355761616682202 Tm
   0.7428971874889969    0.1872367881197717    0.7648547199361252 Tm
   0.4115597764032548    0.6870366850066210    0.2617906894196593 Tm
   0.0749806184796400    0.6869076859834896    0.7632340884906668 Tm
   0.0759407533813747    0.1879743578572601    0.7639809651602287 Tm
   0.1877020422574986    0.0704815417594954    0.9359768631126418 Tm
   0.5200460234341358    0.5707003648707072    0.9354734072712050 Tm
   0.6862614059535947    0.6777186381056078    0.9357136931592341 Tm
   0.0190489597938917    0.1815035513329284    0.9374917421619573 Tm
   0.4783142666936491    0.4287607643810586    0.0605414970351732 Tm
   0.8526595408792110    0.0701865325420480    0.9372314516801071 Tm
   0.1469024159295990    0.9330362694263432    0.5657014402580609 Tm
   0.1489950431153148    0.4272208453846314    0.0638448919843019 Tm
   0.2591271912388226    0.3135562858396220    0.2360218024906543 Tm
   0.2445026582040239    0.0637504105331860    0.2629917348060425 Tm
   0.2423303995370623    0.5650285683083691    0.7622487440528541 Tm
   0.0227050360022311    0.6777627552793327    0.4391378112030104 Y
   0.1859972155857204    0.5705074474344329    0.4376691080161159 Y
   0.1877635412897239    0.5699066772764508    0.9389539722966337 Y
   0.5205622222447591    0.0722715626337044    0.4348029440612533 Y
   0.7585273319230527    0.9385435850792248    0.2386421559799168 Y
   0.8545258355161494    0.5697840377869435    0.9360900187979740 Y
   0.0228558815464726    0.6766759152523958    0.9396796566161878 Y
   0.6465563572801443    0.8187144282791402    0.0622175035087625 Y
   0.3549121953138519    0.6826040415923431    0.4367740611016637 Y
   0.5899728552346424    0.8119250813549618    0.7386997513231864 Y
   0.0200739633753833    0.1817716613038725    0.4378775881996637 Y
   0.8144256901485472    0.9285916197348811    0.0650142381994538 Y
   0.4794134705658092    0.9289950944831384    0.5604604410484096 Y
   0.9084892675412279    0.0644069582995171    0.7632526472827691 Y
   0.0895382544533158    0.9348224023512257    0.2402568321977291 Y
   0.4236312869925305    0.4355484736972451    0.2350603941546339 Y
   0.3564661383425801    0.1780011508995928    0.4386408087699581 Yb
   0.9094926329504510    0.5631973974939620    0.7613809655227122 Yb
   0.9128665770449284    0.0622784922388375    0.2622738570299772 Yb
   0.7541176085947102    0.4358403507548435    0.7414295139524629 Yb
   0.2455452444227765    0.0646252167287150    0.7609899116139104 Yb
   0.3097022942097630    0.3252642158739825    0.0585133941288329 Yb
   0.3049485243054100    0.3248469016193420    0.5541182305034764 Yb
   0.9751164263440714    0.3223906546765473    0.5594747479771324 Yb
   0.9225739573920003    0.8135949824456318    0.2420014597190557 Yb
   0.4132339846279226    0.1845610458593984    0.7586632814057392 Yb
   0.5880774436814669    0.3144828083289529    0.7398966014770291 Yb
   0.7464422455623868    0.1870515488687365    0.2597101773110642 Yb
   0.2507491800626993    0.3161646717441919    0.7447327720524684 Yb
   0.4235832028774624    0.9352034749896635    0.2384650883061971 Yb
   0.5797400793612522    0.5605708093381176    0.7593433978518958 Yb
   0.7551395320786792    0.9370154424215947    0.7394895367793809 Yb
