K100 Mg2 Ti10 Mn60 Fe8 Co8 Cu5 Ni7 O200
1.0
   7.9638150772234848  -13.8001752161397135   -0.0013353784215414
   7.9235620816611618   13.7769615514702117    0.0065943922520179
   0.0075593178178865    0.0065867508735937   23.9023911756945715
Co Cu Fe K Mg Mn Ni O Ti
8 5 8 100 2 60 7 200 10
direct
   0.8070561184322742    0.2028810857089749    0.4980247637521075 Co
  -0.0111529436747215    0.6019422464383688    0.7533503851630892 Co
   0.2008560585818601    0.0060917910323981    0.2463674036753049 Co
   0.1864759877386303    0.7961052023936577    0.7508902396702184 Co
   0.4014880775576605    0.5941845560707120    0.2466414255030490 Co
   0.5989195225100920    0.1888875936577498    0.2508588702027621 Co
   0.6023677554466670    0.3959677408869491    0.7494134501561489 Co
   0.5941206122835720    0.3823714898183140   -0.0016054859416637 Co
   0.2108420733412440    0.1992001837834018    0.5002761330553356 Cu
   0.2079863852932272    0.2031381307533253    0.0018311135161750 Cu
   0.8072525069719624    0.8133394951005345    0.0013265862851804 Cu
  -0.0041071261136839    0.5994887999859227    0.5003978902614832 Cu
   0.7892817781511385    0.5868329231696218    0.2512342142224981 Cu
   0.8047757587722703    0.3947356428999082    0.4984619228759373 Fe
   0.2072709386010838    0.4131851149942825   -0.0017026293972209 Fe
   0.7989256805865009    0.2026739005519399   -0.0007080744607250 Fe
   0.1948708543506164    0.5929702713525267    0.2513628202484763 Fe
   0.8026833771869293    0.3997716882320004    0.7518674878935035 Fe
   0.6002719694954481   -0.0082151499541667    0.0003528235641768 Fe
   0.4079368949588355    0.4052811829826757    0.7506582454754855 Fe
   0.5992875044159008    0.5951202816051718    0.0008508636850897 Fe
   0.4663728289648313    0.3252236890591896    0.3747127410019976 K
   0.4727602834882514    0.9319790051775572    0.8739376435800348 K
   0.4703436893566768    0.9280858517165634    0.3718129126905081 K
   0.4556636847312084    0.7328207407842700    0.8777730902191484 K
   0.4638291800499034    0.7303312317141201    0.3714724299122701 K
   0.4769427642972357    0.5390218459609898    0.3658720987919030 K
   0.4667277331427606    0.3279811013383644    0.8746217077201913 K
   0.4601013219583694    0.1272510642218461    0.8745993538057821 K
   0.1395978187611882    0.0734760191341385    0.1214338244556884 K
   0.2687236000805928    0.9370742062418976    0.8771523356726860 K
   0.2641787879459068    0.9279019016855431    0.3730710846371292 K
   0.2515291570868082    0.7407236053347475    0.8731703864992421 K
   0.2632030742378126    0.7369862127183814    0.3765019098524944 K
   0.2617404935386179    0.5417488181815475    0.8724230756301177 K
   0.2702413287588528    0.5330460900797800    0.3693152769597149 K
   0.2732881855647872    0.3439314766244439    0.8819327270496506 K
   0.6773048964356658    0.1326547881495908    0.3764625099381903 K
   0.4673540057403610    0.1256047552891445    0.3651257006877209 K
   0.6626740978937866    0.1254677725917278    0.8734531988045481 K
   0.8738330296559349    0.3378033534743287    0.3695419762065417 K
   0.6645312274626649    0.3231928591385555    0.8710819168141672 K
   0.8820131589161155    0.9446017540473438    0.8744541414758469 K
   0.8801941223807864    0.9488237521542471    0.3774035012401660 K
   0.8545496883836473    0.7384523568424145    0.8750116186693938 K
   0.8579841249275019    0.7331892713626240    0.3673623866836279 K
   0.8568341547059620    0.5367775498323227    0.8779125960591391 K
   0.8590454652314732    0.5278518761932918    0.3773779301776110 K
   0.8708682069538152    0.3427808304743501    0.8778052761987726 K
   0.6616224065436783    0.3169898124632737    0.3759894453493701 K
   0.2802438086096029    0.3411499008500699    0.3752056775295283 K
   0.8765215987787293    0.1439915722434483    0.3801834073320701 K
   0.6752741299408243    0.9325390521700353    0.8774082831641767 K
   0.6699448148109584    0.9304197938736884    0.3767750105437187 K
   0.6641778630900146    0.7336462944774856    0.8779697417429477 K
   0.6716471093478614    0.7370356506571276    0.3744735335986518 K
   0.6584567220707693    0.5193029733885948    0.8755593079612484 K
   0.6649398173775135    0.5218844812095788    0.3735477236373221 K
   0.8633500004270767    0.1444467514885894    0.8717756603727689 K
   0.2616147041139104    0.1391189488003420    0.8780397053977173 K
   0.4688202993096082    0.5382213714968891    0.8763320043185553 K
   0.0701631460526644    0.9327419636626560    0.8789421112474802 K
   0.5312688149628766    0.6720911274111239    0.6242758474417686 K
   0.5340835475847179    0.6671626473000007    0.1237214986257566 K
   0.5415159169893783    0.4630622706431557    0.6291963527454754 K
   0.5389329697336699    0.4615840846688605    0.1247034642237306 K
   0.5336419218260388    0.2607762435054624    0.6270756017657342 K
   0.5311199895053876    0.2502181920348884    0.1284317160641621 K
   0.5378156469130173    0.0673373149319316    0.6254727986341582 K
   0.5282223746068364    0.0545195179843591    0.1252012039831997 K
   0.3320917702806065    0.8711807640232374    0.6291340912538080 K
   0.2674757786424727    0.1268892350068434    0.3739141128253468 K
   0.3152390165788032    0.6642245191765525    0.6247380113818856 K
   0.3214111105343213    0.6591980571792023    0.1225572201452977 K
   0.3490709159738461    0.4824800552603506    0.6240932567058048 K
   0.3409641345117945    0.4678624849435833    0.1331086141428719 K
   0.3384362444739735    0.2719640182003982    0.6203860232580569 K
   0.3440578589840845    0.2689726459718705    0.1256894545136452 K
   0.3268554406493403    0.0630710281307750    0.6249736940614615 K
   0.3257827394371569    0.0552334514688242    0.1310270646404316 K
   0.1287307832170625    0.8595197510282158    0.6247661659079983 K
   0.1261813318376182    0.8596165485817558    0.1237954344866650 K
   0.1199915583727563    0.6640278316548587    0.6221580309047693 K
   0.1254819996291821    0.6635079849673686    0.1258761916712868 K
   0.1371736202951166    0.4597234169898369    0.6256955469342492 K
   0.1317987367143275    0.4645251868342770    0.1293685896087548 K
   0.1437676946275694    0.2667040816036058    0.6182342852337394 K
   0.1465810001803658    0.2757745440942758    0.1236266756951722 K
   0.1371874791286943    0.0623831513084469    0.6301924544774591 K
   0.5350787134390725    0.8614990215187689    0.1252666437311871 K
   0.5258931717313162    0.8599140505111854    0.6237998062944831 K
   0.3285900596369809    0.8581572807545558    0.1212713421298057 K
   0.7321459974338281    0.0587286542675345    0.6188354092283787 K
   0.0632419175241432    0.9242405987498931    0.3711668741360423 K
   0.0481230682672129    0.7305829857179467    0.8749207334113295 K
   0.0539647853331214    0.7219116089811877    0.3803205952819685 K
   0.0597383823968799    0.5385487212039696    0.8792094750136731 K
   0.0692094417164107    0.5332986923895071    0.3755495811627011 K
   0.0673034367731099    0.3458456552004834    0.8699867816743275 K
   0.0753649854173146    0.3350053946385916    0.3698036474438459 K
   0.0704879642103866    0.1449430409770623    0.8750768611760932 K
   0.0825473012942643    0.1411902977289964    0.3769623598470173 K
   0.9307056772126906    0.8643134958768892    0.6311969584068496 K
   0.7314854641610130    0.0647367757351617    0.1226425400014560 K
   0.9181017835528766    0.6623918771621990    0.6234569578092185 K
   0.9200670716038772    0.6673827956352044    0.1323044141917144 K
   0.9385476399626966    0.4744409232668892    0.6208699954700290 K
   0.9297333783130505    0.4701787742866870    0.1234300250722056 K
   0.9409551796499956    0.8859902014571662    0.1249605285048705 K
   0.7398137584295785    0.8625482770301562    0.6233537204607443 K
   0.9354405691449907    0.2682935824371473    0.6254275703827937 K
   0.7484708688066714    0.8815979363088288    0.1226017504929178 K
   0.7285967278268755    0.2581906238360353    0.1290748599168651 K
   0.9299736141265017    0.2747054865899470    0.1278083128812110 K
   0.7198657208586643    0.6582714130152111    0.6246657808751133 K
   0.7428195661547817    0.2622236337413839    0.6271607379000216 K
   0.9396897376778659    0.0746104261018435    0.6275108499788120 K
   0.7257350728643150    0.4578756311241027    0.1210563020613009 K
   0.7349673765576522    0.6750131797422499    0.1282402829649781 K
   0.7359742610011683    0.4553816184071243    0.6263096131371966 K
   0.9478925766185042    0.0933669313400741    0.1259006700247791 K
   0.6044946096640791   -0.0020805078269563    0.5019344351531714 Mg
   0.2011987810182828    0.0017387774463814    0.0018026829725065 Mg
   0.2002255793194256   -0.0094520571320779    0.4963907913197246 Mn
  -0.0162845891542625    0.7937002249442082    0.5009578786870018 Mn
  -0.0072068989606521    0.8063704812290331    0.0035453184201473 Mn
   0.2074168973203000    0.4022221521928200    0.4993870059353663 Mn
   0.1895984295745645    0.6024971418739725    0.0007510827835311 Mn
   0.1956574666076187    0.5953255344664155    0.4982451656944638 Mn
  -0.0148339713642580    0.6051572921962980    0.0024241785245251 Mn
   0.1857330279722456    0.7961925334233586   -0.0000248182143482 Mn
   0.1956988667773478    0.7990148728431519    0.5015539081607054 Mn
   0.5948332599552659    0.7999553015317796    0.5000944534398577 Mn
   0.3976901983846619    0.1890561652028928    0.0024495618975714 Mn
   0.8091694865632180    0.0039274089324487    0.4994780131650698 Mn
   0.6047798472692084    0.8018683260861381    0.0000490420511432 Mn
   0.5990926130008875    0.5984437043685705    0.4972161663064724 Mn
   0.6054480874930285    0.3953283620835171    0.5016541875405313 Mn
   0.0037074406382931    0.3971469718191692    0.4997234110478099 Mn
   0.6106842190158088    0.2005176700095243    0.5017590734628714 Mn
   0.5982289401622051    0.1896415466016080   -0.0009874914701125 Mn
   0.7926213246013922    0.3923725500571281   -0.0006894912478316 Mn
   0.3954963088084248    0.8009301187996256    0.4998659893726697 Mn
   0.3950538736759835    0.7970024134003830   -0.0010307157680728 Mn
   0.3969954956297748    0.6045030213712332    0.4957522974439561 Mn
   0.7925314450042935    0.6060815200796583    0.0012313967794398 Mn
   0.7935752691748523    0.5958926074242542    0.4983571264341976 Mn
   0.3966699411228095    0.5993824835699001    0.0017238527843142 Mn
   0.4050732200021345    0.3968486416092789    0.0022214115613474 Mn
   0.4011888907619771    0.1929778902819561    0.4991953152074034 Mn
   0.3960596613042796   -0.0076197387852812   -0.0005627680442618 Mn
   0.0072818906616011    0.2031926277000531    0.4994536931707411 Mn
   0.7992906428169083    0.8030047814746406    0.5003997363084794 Mn
   0.0105406455199820    0.2144447827670203    0.2515068847033136 Mn
   0.3947186883280276    0.6025905179750782    0.7497134582006062 Mn
   0.3961860087247446    0.2010129145202191    0.7491776628942408 Mn
   0.3991163223620878    0.0000522648273727    0.7491374172324659 Mn
   0.3920247835807787   -0.0116242397750127    0.2479075628140143 Mn
   0.2072803844072151    0.2089989668512522    0.7523872593684642 Mn
   0.2085852768640975    0.2068736403206214    0.2509218004041966 Mn
   0.3937079886751123    0.7996158344715394    0.7498457201371691 Mn
   0.1979813888539561   -0.0034645888732994    0.7533860310251081 Mn
  -0.0032883560650273    0.8010206720520648    0.2487354908817064 Mn
  -0.0074823694827027    0.5943511807254868    0.2498241246990826 Mn
   0.0006355374460108    0.4083487577008778    0.7478854671035360 Mn
   0.0017287632775484    0.2017495648997605    0.7482826704777988 Mn
   0.0028463438439463   -0.0001205849176524    0.7524702986954616 Mn
   0.0093681267220830    0.0136282590241639    0.2494129015606002 Mn
  -0.0051246383578893    0.7972439498960971    0.7502569238530667 Mn
   0.6032159023004632   -0.0015123561526330    0.2510449253350002 Mn
   0.1877603073428825    0.6035759601032296    0.7496186497383995 Mn
   0.7938218847716337    0.5971273381012215    0.7491684379195936 Mn
   0.5950435301118520    0.1940044199515943    0.7498716782881804 Mn
   0.5951123964171172    0.3878344878606083    0.2514857251764925 Mn
   0.0092437224819006    0.0155052490357537    0.0017916554796178 Mn
   0.6029066485937501    0.5953273399789374    0.2497592526651100 Mn
   0.5991358404595316    0.5966136441178048    0.7501706189308653 Mn
   0.6111976619018766    0.8075175073530596    0.2492937609059963 Mn
   0.5981209776004315    0.7958258681981676    0.7515593289977058 Mn
   0.8119271597419707    0.8209663207240918    0.2487111098130309 Mn
   0.6019955153038156   -0.0068251608242994    0.7503493268367448 Mn
   0.7929417977104771    0.3940941322561911    0.2495995012435195 Mn
   0.8008491032723168    0.1978850575659176    0.7483103307967207 Mn
  -0.0013433342353493    0.4088974333047971    0.0021799207923645 Ni
   0.7982057458447276    0.7953124107675623    0.7510250767727111 Ni
  -0.0009710350377196    0.4015437268979584    0.2497530068090077 Ni
   0.8020620326067198    0.2033515192772816    0.2498915545707493 Ni
   0.2087481194323697    0.4033429844045530    0.2508363611947474 Ni
   0.3986291780902196    0.1950218956483442    0.2486110605510007 Ni
   0.4048070325139244    0.3956014793615929    0.2506781091541725 Ni
   0.5275552191382075    0.8596936043795730    0.4591164096160036 O
   0.7484184791968091    0.2709801531865266    0.4532618976156762 O
   0.7413436265593966    0.0580306021845048    0.4577709400504782 O
   0.5304336048887568    0.6689728811437766    0.9610371022641525 O
   0.5256274281553337    0.6752913793699222    0.4565367849368789 O
   0.5258670086496741    0.4579188245645421    0.9578318805821161 O
   0.7366852016637221    0.0643580463321194    0.9574004860878302 O
   0.5278186855290479    0.4721532379982928    0.4525500933074765 O
   0.5253396598588892    0.2459405973365801    0.9579679053383447 O
   0.5471097019096992    0.8655599390732117    0.9545949227570353 O
   0.7362552115997455    0.2547755113740376    0.9499050352619207 O
   0.9433191269514367    0.2826581769558227    0.4537759031332705 O
   0.7196871670450925    0.4436011528999100    0.9574318954846917 O
   0.7197424094312634    0.6499178710584818    0.4546427412663615 O
   0.7188588671277335    0.6464043952368663    0.9522933545396041 O
   0.9442275781967694    0.4671299366247054    0.4594118252869450 O
   0.9374030411215725    0.2714738179035424    0.9562858174062269 O
   0.7511008405996057    0.8763187013911502    0.4568715982079389 O
   0.5356672787123760    0.2635087515869715    0.4632202146798468 O
   0.7584438176144728    0.8862903452366000    0.9568514529854153 O
   0.9601398446525614    0.0799924083840293    0.4569011862809922 O
   0.9285391102296243    0.0818198510736399    0.9512740692685677 O
   0.7235470865761180    0.4463396798077984    0.4551263407491813 O
   0.5288288079751697    0.0595448026770444    0.9590328178813656 O
   0.5492881718089849    0.6785768348162734    0.2878100354472388 O
   0.3461056815749183    0.8718810317484673    0.9546100032561291 O
   0.9162419207553186    0.6687769396205727    0.7939977095318789 O
   0.9354389948568040    0.8837618802508987    0.2931931800156320 O
   0.9393561414033058    0.8680118676435721    0.7913863747595345 O
   0.1226827944126627    0.0387144692267468    0.4540102756607735 O
   0.1310374041455489    0.0721054420407666    0.9594461046574667 O
   0.1428796811488110    0.2697400038105298    0.4637788659113435 O
   0.1220149947492357    0.2845259214317538    0.9513990333309729 O
   0.1288705510301496    0.4517966659414196    0.4566517844662241 O
   0.9246884950171038    0.4766733502840681    0.9612826776566537 O
   0.1364880600767823    0.4775659409761258    0.9584193606048094 O
   0.1294454074284429    0.6675106730793050    0.4624965271512875 O
   0.1108301841559862    0.6719306086869717    0.9579578882353486 O
   0.1399128230189735    0.8648610163230698    0.4558250514496797 O
   0.1214321867810696    0.8581842936141203    0.9593214629372160 O
   0.3447203326058307    0.0573364073560756    0.4498016708761076 O
   0.3314943131773183    0.0755338540544342    0.9544122329190162 O
   0.3437118923787379    0.2717596974740790    0.4602618005101448 O
   0.3437701810941816    0.2657714110888896    0.9621372910206462 O
   0.3547304679364635    0.4803644296448913    0.4540510697803640 O
   0.3329777080621379    0.4836365582422403    0.9528704186248537 O
   0.3115138867099455    0.6580823513243655    0.4519428527963955 O
   0.3155738896971534    0.6748108967589331    0.9562428802353962 O
   0.3511796940454209    0.8769272935238769    0.4550686148674218 O
   0.5337819214746895    0.0710745509821420    0.4567670769762368 O
   0.9116053018067616    0.6743651712463365    0.4538387674697795 O
   0.2690100289175972    0.5312866021131751    0.5386172466435899 O
   0.9271273296295285    0.8617840513889563    0.4579627073728442 O
   0.4479728991131017    0.7243097538644682    0.0424795034674076 O
   0.4421439360795587    0.7227669180217259    0.5433524303200700 O
   0.4696195363322546    0.9189708856677928    0.0437803372054127 O
   0.4632247352509063    0.9448340419847897    0.5463507960249342 O
   0.6615601857714990    0.1279867229171170    0.0422643813792517 O
   0.6690065216689349    0.1356526998836687    0.5425584852179507 O
   0.6660454062624486    0.3161886717508265    0.0417116521436800 O
   0.6744884711284020    0.3192674133422226    0.5468923845377337 O
   0.6738296738745314    0.5454481264422282    0.0468535601965874 O
   0.6729921599797446    0.5205934447382886    0.5428595555326544 O
   0.4826373208677173    0.5323740669058638    0.5456298513816006 O
   0.6704624862844265    0.7420365132046753    0.0406160886851504 O
   0.6691691209114514    0.9297294622444222    0.0426122170907641 O
   0.6549576725878610    0.9150126375823245    0.5469940074087968 O
   0.8671545495231306    0.1405095044181510    0.0423936723058943 O
   0.8775991145103426    0.1338294082477708    0.5396237048063182 O
   0.8579930491877106    0.3342472592189099    0.0430021304574242 O
   0.8816180228422706    0.3415966890694562    0.5436418992486467 O
   0.8621405850917337    0.5494960630708641    0.0443215135549037 O
   0.8633813754372027    0.5336518131327004    0.5377385866189590 O
   0.8717437558832306    0.7557655044040335    0.0457615584490410 O
   0.8487339343505442    0.7391209960439843    0.5481570807812902 O
   0.6625356320782958    0.7329095885446272    0.5376567118719178 O
   0.4699211604205961    0.5223767383086233    0.0449231074439673 O
   0.4788559811379371    0.3494312967119548    0.5433695771240519 O
   0.4755533881089672    0.3165299791384867    0.0447644615791233 O
   0.9407388566961440    0.8780963514514958    0.9613455434774298 O
   0.0688612597304321    0.1469458759913514    0.0379833272054376 O
   0.0803570688710721    0.1207749789803052    0.5467879200394172 O
   0.0644672803824973    0.3306938840074797    0.0468777162852095 O
   0.0575125673043672    0.3258208483189012    0.5439866760850356 O
   0.0718320931728017    0.5355688139792707    0.0470195257666226 O
   0.0789724633568440    0.5206759555634562    0.5449003060991680 O
   0.0401592703012237    0.7303841909578690    0.0457001383908056 O
   0.0444100238272851    0.7282443321626186    0.5421066135454223 O
   0.0656671145133168    0.9273434122212005    0.0459770552715385 O
   0.0506660432723113    0.9235555947281514    0.5463864598583416 O
   0.2821541925841532    0.1332757016190625    0.0481189586132253 O
   0.2698240110756615    0.1254207760176425    0.5366043458310584 O
   0.2733614219008234    0.3380066126514559    0.0382488320280055 O
   0.2892076283284303    0.3615351151762383    0.5438235185278637 O
   0.2748438816296055    0.5295162590417540    0.0470802688284076 O
   0.9256948451369854    0.6615803681038251    0.2879226337188888 O
   0.2424386126605757    0.7280557032364742    0.0422496845426581 O
   0.2654870518367194    0.7464912613626427    0.5438074607505808 O
   0.2661942112610537    0.9240852827988463    0.0391816705315885 O
   0.2609585245635377    0.9287586889523610    0.5412994272325303 O
   0.4487587297876276    0.1158000967787530    0.0438258058465590 O
   0.4515157834120175    0.1230032945473929    0.5448612624226146 O
   0.9177726096585354    0.6821605090396482    0.9580607017250996 O
   0.9275460543417817    0.4736288076312066    0.7972420705716664 O
   0.8804065684360420    0.9513543925893323    0.5442609329732960 O
   0.9389069539311758    0.2715781966972608    0.7855555770460121 O
   0.4854456812945709    0.5386087110520115    0.2054741682091274 O
   0.4788005396321792    0.5346012220813381    0.7054066305751584 O
   0.4505631646299589    0.7310280733960250    0.2018821592462323 O
   0.4438000134296494    0.7250535685917848    0.7057390555102347 O
   0.4492211677185137    0.9187404943611397    0.2068534458271636 O
   0.4748737076790802    0.9251815861475393    0.7073459442290921 O
   0.6622060583404499    0.1200549741940329    0.2074083894338979 O
   0.6661957578839551    0.1261416909838046    0.7106642781373436 O
   0.6670779708315394    0.3332008115796348    0.2077063551136952 O
   0.4610740708987759    0.3274236573322462    0.7076202098340147 O
   0.6679846581840125    0.3199266023013746    0.7085395981823598 O
   0.6782868247417436    0.5300226734079536    0.7044830288067623 O
   0.6852709269974862    0.7608058744240208    0.2053604988299230 O
   0.6568855923000778    0.7281976663286331    0.7113417286479790 O
   0.6695628003152112    0.9364882990135132    0.2089128143531331 O
   0.6787612171960319    0.9224059067229519    0.7053261308927156 O
   0.8558370664827638    0.1267330046699409    0.2027856701674363 O
   0.9220016530689462    0.4699654850097079    0.2920329942500557 O
   0.8595908204733546    0.3402535436380749    0.2062155408506203 O
   0.8802471560666095    0.3524152015335994    0.7035872395040598 O
   0.6615760651895064    0.5207239907109703    0.2102013226812930 O
   0.4783361383675546    0.3305556000065578    0.2059366249171975 O
   0.4559951161917602    0.1157085898855208    0.7021450990296005 O
   0.4607753894685018    0.1135357200101468    0.2080509847802076 O
   0.8858738018211625    0.9713891870563242    0.0454850894150489 O
   0.0772045196888669    0.1437011847341005    0.2101332218866471 O
   0.0712481375570365    0.1374320754446539    0.7124538776018104 O
   0.0674609478931328    0.3270555547508328    0.2050864834687276 O
   0.0817915254143100    0.3267514111305218    0.7044291456673892 O
   0.0618687501043063    0.5364246323016783    0.2088161795673110 O
   0.0683924937377496    0.5305573893904083    0.7037749299727128 O
   0.0658450348939891    0.7216218447975660    0.2071571171858141 O
   0.0496942265677782    0.7314967799016462    0.7066575658802542 O
   0.0782184125939162    0.9348248501442580    0.2077041004160274 O
   0.0742049171318765    0.9263856830799356    0.7080840775708368 O
   0.2624143650749200    0.1384459742509141    0.2055363267353717 O
   0.2708066677217308    0.1526339760799702    0.7067354511538321 O
   0.2694312362419914    0.3232365329909898    0.2066315914746005 O
   0.2730392692508007    0.3504133004258030    0.7018642309076261 O
   0.2661289339469655    0.5361562462596237    0.2076184602735273 O
   0.2715785625321043    0.5289787341626694    0.7059420389959603 O
   0.2667647695100901    0.7298858543773343    0.2055129037358611 O
   0.2393168952040542    0.7293855949850240    0.7065833333342983 O
   0.2484431663643641    0.9059646523227657    0.2029842736748399 O
   0.2662866626521354    0.9391039397947751    0.7103016284134979 O
   0.8456071621548160    0.5178978466979446    0.2066971319871269 O
   0.8648101976092188    0.5393628004351011    0.7090624324178726 O
   0.8535021840913209    0.1304559506817016    0.7030984699471804 O
   0.8485814361919977    0.7185762120912049    0.7057862982425218 O
   0.5349828294812217    0.2657972172318884    0.2921722551836864 O
   0.5261953076632391    0.2551875660139346    0.7906734814325039 O
   0.8777659594371022    0.7642784656754620    0.2053975450435243 O
   0.5327293993059203    0.4713094033174171    0.7942902996195659 O
   0.5207893895752914    0.6749727444041815    0.7948605297254979 O
   0.5380580727665748    0.8638030976160801    0.2898601459662720 O
   0.5480274969444568    0.8692450086322393    0.7935080890975215 O
   0.7494058141503190    0.0663006469723033    0.2993667244729659 O
   0.7286905011433681    0.0506505382182447    0.7927029095757251 O
   0.5255844433926912    0.0694193615923109    0.7930958761115232 O
   0.7377915411731610    0.2710128563914097    0.2920731803534958 O
   0.7200214898862828    0.4410062805632802    0.2957315023828618 O
   0.7361883824384626    0.4684591358708086    0.7924396597563588 O
   0.7236917808857301    0.6518966966778776    0.2916948481295052 O
   0.7243602008505491    0.6532367876536551    0.7928688979405509 O
   0.7560229969865581    0.8838641680397091    0.2944239975366861 O
   0.7511555176937471    0.8788495768612508    0.7976992668555785 O
   0.9378493887913865    0.0876317572951160    0.2950835707992808 O
   0.9294661748513353    0.0794603821542901    0.7932924728558542 O
   0.9406994199806012    0.2691500606783593    0.2913567785927659 O
   0.7491375768585189    0.2653301386705953    0.7940009188609902 O
   0.5463270566315127    0.0587787038144167    0.2968234886661614 O
   0.5355564844321857    0.4476727777504234    0.2947892724983451 O
   0.3250176979285250    0.8641359338653949    0.2922135947704400 O
   0.8875352458130312    0.9645889580425481    0.2059905862394519 O
   0.8745626510145009    0.9450100635354932    0.7082124022493780 O
   0.1339880366889764    0.0727747353703502    0.2927815040831405 O
   0.1257639831995119    0.0545984208424682    0.7954275951553733 O
   0.1519983572853076    0.2688080267477645    0.2957337637143650 O
   0.1543260211625061    0.2846180176882561    0.7956644711642172 O
   0.3447556261710836    0.8746745342134098    0.7920620335904578 O
   0.1300279991296423    0.4708020904044155    0.7886684021558573 O
   0.1416144005944188    0.6725747284340727    0.2954594813746087 O
   0.1090948451660208    0.6618953945834896    0.7950002199876562 O
   0.1336272604969598    0.4711098429918177    0.2953619786668706 O
   0.1395635403249129    0.8576898045999249    0.7987204162067667 O
   0.1226398818289959    0.8446814381180134    0.2958507209859058 O
   0.3341314803486694    0.6802262960558055    0.2959268104191629 O
   0.3347482931358144    0.4750349543488380    0.7929081315166837 O
   0.3425778591993625    0.4706554074380892    0.2919541485964278 O
   0.3145121973714879    0.6754618143026382    0.7925290871985897 O
   0.3288933262036173    0.2784417068233267    0.7958676844767052 O
   0.3265777893075333    0.2577425596404592    0.2940306224030170 O
   0.3228587910420201    0.0764680497201038    0.7942149142704641 O
   0.3222097833171472    0.0507294129012963    0.2877145211814401 O
   0.8163781445310430    0.0135687789140013   -0.0039603414110643 Ti
   0.2078233408590591    0.3989870580284516    0.7450335217625371 Ti
   0.1888970629070668    0.7959123781959638    0.2519407494155397 Ti
   0.4127931728958956    0.4100088183372155    0.5007432901307964 Ti
   0.3900155229599989    0.7848760798518459    0.2437887686174034 Ti
   0.4120608209627056    0.0045967944591973    0.4961736142073596 Ti
   0.8155912847246554    0.0228434870544191    0.2534229678300361 Ti
   0.7968682045431879   -0.0091990429809508    0.7516156972443352 Ti
   0.0114126785927530    0.2253405521298704   -0.0026623342740810 Ti
   0.0124017318221863    0.0060131321677624    0.5044857024535683 Ti
