Ti29 Nb46 V69 Fe144 Sb144
1.0
  17.8277949833665730    0.0241206195242462    0.0132202000621942
   0.0243000077703269   17.7477438484006846    0.0770220867280686
   0.0176176557824089    0.1027049472462043   23.8434838600462022
Fe Nb Sb Ti V
144 46 144 29 69
direct
   0.1028459122263554    0.0255783318688856    0.0050251214736675 Fe
   0.2899273764377848    0.7052028500936006    0.1107034294307375 Fe
   0.2511932171284886    0.6829629562174216    0.3569560727932455 Fe
   0.3512793846285274    0.7708888005739889    0.6500393099279844 Fe
   0.3362104476300520    0.6874426874750803    0.9054211484857697 Fe
   0.7042177504072604    0.0442662491108713    0.1114576406120386 Fe
   0.6864547522595016    0.0330153267533092    0.4023400738248814 Fe
   0.3248774205785097    0.3283244369451687    0.9337991076474890 Fe
   0.6639649954185525   -0.0374089141394360    0.6030011162162476 Fe
   0.6299171976648443    0.2902831378999427    0.1184228309902434 Fe
   0.7278694350898056    0.4155965252723415    0.4045932334042763 Fe
   0.7036162411324021    0.3688202772728832    0.6692286016979457 Fe
   0.7039712489731900    0.3228599145606883    0.8526343745112794 Fe
   0.7115666003792289    0.6580532089050316    0.1063568574677796 Fe
   0.6732592014749335    0.6616045110619938    0.3484283110004437 Fe
   0.6427320438422587   -0.0221482933709397    0.8574472326982930 Fe
   0.7404658452252195    0.6418580438651270    0.6011450433812738 Fe
   0.3402318964430337    0.3315639684441725    0.6355637854218499 Fe
   0.2537200447503898    0.4345933683204925    0.0836444513498416 Fe
   0.0066224077175118   -0.1178325570254766    0.6619066896292228 Fe
  -0.0047380219378410    0.0293240096189847    0.9247940134095848 Fe
   0.0315397234412008    0.3728696911751559    0.1580992288799659 Fe
   0.0475120107860840    0.3089183425607793    0.3739792182952111 Fe
  -0.0188727344658479    0.3556231136485222    0.6261660236279295 Fe
  -0.0166483611804322    0.3159187912543253    0.9029587225808885 Fe
   0.2508225754643254    0.3891242835147795    0.3753251753313627 Fe
   0.0578319331982660    0.6855581939191937    0.1195113443038077 Fe
  -0.0344250491680628    0.6620693457764069    0.5904881934231163 Fe
  -0.0271549954162051    0.6747810495424744    0.9307034591054908 Fe
   0.2342890878117037    0.0570870828031229    0.0750759112569230 Fe
   0.3317935916811887   -0.0617373528962915    0.3629546975019620 Fe
   0.2769441451499778    0.0404897814374048    0.6179752472817140 Fe
   0.3509887115272590   -0.0202315303241824    0.9252942334359777 Fe
  -0.0864811887095388    0.6049734373067964    0.4042508544400807 Fe
   0.6282550294282844    0.6598500976114147    0.8742192464387832 Fe
   0.0651849464269711    0.2341577759785291    0.0847104935333490 Fe
  -0.0104813133456204    0.1684175575385594    0.2416126920522269 Fe
   0.2935040429374376    0.7973528776332834    0.5511128340373378 Fe
   0.2864901155980680    0.8300363249158944    0.7207299536875701 Fe
   0.7451539546988492    0.1477562139836103   -0.0381796950063389 Fe
   0.6494364952540003    0.1251835225556848    0.2346927495801848 Fe
   0.7230364394624458    0.2079808894430282    0.5911981581580076 Fe
   0.5299586826009270    0.0483293599468329    0.8134659498770282 Fe
   0.4036193034223962    0.8649551239089096    0.2825413265956311 Fe
   0.6597657123951163    0.4307077662857489   -0.0570081151399873 Fe
   0.6800409413196242    0.4486225627257736    0.5041777086515529 Fe
   0.7253329603126777    0.4845506752146194    0.7206508367447806 Fe
   0.5948712699259386    0.9105545893701380   -0.0529693357422962 Fe
   0.6239898353400751    0.8749198658760018    0.2080455694132670 Fe
   0.7520891999133813    0.7996043261038981    0.4890244553027711 Fe
   0.6999711326765126    0.8888837473902975    0.7778022854665970 Fe
   0.6150077084067184    0.4775469199633064    0.2523867493187897 Fe
   0.4348684070426609    0.7296321776538645   -0.0242436229095469 Fe
   0.3715018774665850    0.5419314948051988    0.7652400460087292 Fe
   0.3837257642951873    0.5289195135568915    0.4632932672042672 Fe
  -0.0081663874576421    0.1260568402999502    0.4763453770553868 Fe
  -0.0262577840035486    0.1355661982562794    0.7426742455778599 Fe
   0.0417992369372300    0.5676490078713459    0.0644261690331869 Fe
   0.0362846319062065    0.4814658970118645    0.2426441222333674 Fe
  -0.0613764904956919    0.5080423249394140    0.4678630155830456 Fe
   0.1017913302191583    0.5074006103291163    0.7002736542239605 Fe
  -0.0564665708243437    0.8073945029141406   -0.0135591021193219 Fe
  -0.1058102780855678    0.8178498391352592    0.2543806102187376 Fe
   0.1742858125387344    0.8508256741484918    0.5334972549097784 Fe
   0.0634866918704160    0.7580362304622734    0.7099067140814364 Fe
   0.3258478893417057    0.2186264421496722    0.2207342386285616 Fe
   0.3673377571604108    0.2504152255203586    0.5511087105738577 Fe
   0.2342213838971822    0.1277661207543016    0.7769189218421398 Fe
   0.3649544833708613    0.5882162577562507   -0.0237459291193285 Fe
   0.2735532079150115    0.4248680482685687    0.2689805873138363 Fe
  -0.0353098583605381   -0.0027723959146425    0.3430171269764087 Fe
  -0.0423021063073440   -0.1090590323649410    0.1564317315747312 Fe
   0.2814579307943585    0.1985336129305694   -0.0337749157888178 Fe
   0.8642209636411363    0.8694735708640793    0.6489517089183536 Fe
   0.4499714406071402    0.3055399543672703    0.4797337290311095 Fe
   0.5470869551479938    0.6851568156160188    0.0142328552050772 Fe
   0.4795127328127231    0.6688333363112380    0.2120478286843132 Fe
   0.5402552810046585    0.7553063240580485    0.5485316034802435 Fe
   0.5791576262948412    0.6846034597230767    0.7149427360093136 Fe
   0.8804990442300398   -0.0401215252225911   -0.0330749773663460 Fe
   0.5393061701113739    0.3246116379811443    0.2559042565268262 Fe
   0.7533407485769775    0.0433624371319887    0.2806171106523847 Fe
   0.8884507551354929    0.0115956748698345    0.7563414433703368 Fe
   0.9663766711247868    0.3027751253404840    0.0125215929068530 Fe
   0.7894503935984746    0.3283701080269661    0.2374550850353816 Fe
   0.8940890031760130    0.3310610460092040    0.5204840305706705 Fe
   0.8948183180233206    0.2757626793715789    0.7143838229717281 Fe
   0.7834207913583988    0.6079082455958839    0.0230906431920940 Fe
   0.9099989338878105    0.0255205899643396    0.5257008901858351 Fe
   0.8744806583732352    0.6682445645494747    0.2450959294600452 Fe
   0.5507688303336193    0.3317286521459913   -0.0299138011961343 Fe
   0.5023312490512520    0.0726546682559772    0.5081293851882130 Fe
   0.9444952622730922    0.7495932741794676    0.7751079266975179 Fe
   0.1387917414896385   -0.0695559019856293    0.2668395615309401 Fe
   0.1968195213795885    0.0030533369131741    0.5319326523152526 Fe
   0.1722868539073264   -0.0093550780374022    0.7864917996731131 Fe
   0.1947018330440039    0.2885399569039524   -0.0643382536888881 Fe
   0.1428988881343148    0.3752583602511939    0.2238225595516275 Fe
   0.4756985790043260   -0.0692506132918254    0.7544674010093643 Fe
   0.2676924029588513    0.4441359641559876    0.5801148396654119 Fe
   0.1577551605592630    0.6635154992822887    0.0489516409091421 Fe
   0.1045546786099210    0.7347462530596484    0.2014244727079378 Fe
   0.2563437090092633    0.6064347363792439    0.4545749619701447 Fe
   0.1296366932916351    0.6292252981373258    0.7675014901761081 Fe
   0.4975792538704734   -0.0295800218437358    0.0220826508125948 Fe
   0.5458371072929068    0.0178404535095183    0.2148813657848000 Fe
   0.1006173032156145    0.3632390710273600    0.6951443144715440 Fe
   0.7582376209317911    0.6648369753400927    0.5084183617947696 Fe
   0.4966369793031985    0.3346390404576393    0.7852912404489121 Fe
   0.1128102434940330    0.0939360549131816    0.0948497385865820 Fe
   0.5932111610003024    0.5254996892635443    0.8814777912058164 Fe
   0.4442862458632922    0.8758903872237541    0.1092718817318051 Fe
   0.4587057016848018    0.8887810567309131    0.3780364522946473 Fe
   0.5632563029471320    0.8515576487999675    0.6158977225222849 Fe
   0.4486644462392080    0.7760633120581698    0.8814166307319091 Fe
   0.7675134117869561    0.1184076287098427    0.1922710984365571 Fe
   0.8359781455607921    0.2056206106868806    0.3858286605127288 Fe
   0.9348857831789859    0.1316675452468450    0.5775568447943495 Fe
   0.9122201942004702    0.1072318324297461    0.8342218022990993 Fe
   0.7600362170476581    0.5070541677561718    0.0876492425619180 Fe
   0.8569139304456000    0.4807100705494773    0.3759420459257988 Fe
   0.8851322370658438    0.4513715612886584    0.5750774001295769 Fe
   0.8758070312201343    0.5590041345863695    0.9492225206553685 Fe
   0.8490452548268914    0.6593078345866581    0.7568393047785741 Fe
   0.8124356625760727    0.8452181558481451    0.3924696621200764 Fe
   0.5020427997935339    0.4877993036470036    0.6350928104414824 Fe
   0.4826290484681523    0.5373231117313347    0.3771494115217960 Fe
   0.8328015819237045    0.8469715003666271    0.1508190471609265 Fe
   0.5070007384647242    0.1476214711629499    0.8859139134325957 Fe
   0.1013933909371086    0.2404128974124662    0.2947584893533584 Fe
   0.5429701959961412    0.4953290789786886    0.1013453683637611 Fe
   0.1716379677847709    0.1556026318990530    0.8972080058106294 Fe
   0.1295312734178525    0.4774555022993470    0.1351625650656941 Fe
   0.1602811313419256    0.4989401105242998    0.4178281010087156 Fe
   0.2075626411091784    0.5362433518085276    0.6330478631320443 Fe
   0.1590112723319079    0.5222431623063613    0.8442187191458657 Fe
   0.1639120349145542    0.7837811745545991    0.1082397854041948 Fe
   0.1567178201090422    0.0915843432088428    0.5966563475419123 Fe
   0.1902776285967721    0.7878731151340340    0.6322851503502159 Fe
   0.0599717431699350    0.7787848957318436    0.9167434221451235 Fe
   0.4723678581365293    0.1818181759448018    0.0840059810967581 Fe
   0.4642934753233464    0.1440657008494663    0.3472643661348641 Fe
   0.5265038529715121    0.1159930981666845    0.6162942866930909 Fe
   0.1389984441818618    0.7770048948834458    0.3651217036299652 Fe
   0.2944524512836957    0.5695354614636979    0.0696347530603713 Nb
   0.4335112560178053    0.2156358950129134    0.6482132716679782 Nb
   0.5469216070177771    0.8802949325358911    0.8364641965741597 Nb
   0.3763931934063268    0.6285162787241866    0.3929241177149775 Nb
   0.5777465933032392    0.9425002870929030    0.1229252456056546 Nb
   0.6249974700455236    0.5810785056157877    0.7849070929951472 Nb
   0.4968976839503124    0.6246745114423289    0.9218576322681968 Nb
   0.6379290325442279    0.5582119129115048    0.0374826369295273 Nb
   0.6075917398589622    0.2569929003697785    0.6366769465964538 Nb
   0.5793245758775479    0.2042391262495281    0.2978431082813153 Nb
   0.2988013772488958    0.9662409192047927    0.7410065272156241 Nb
   0.1707105127610775    0.9342079620092109    0.0683062117026398 Nb
   0.4167280700299583    0.1719507874806158    0.4481900115772320 Nb
   0.2441521499998781    0.6499480827494984    0.8264294844232480 Nb
   0.5666257872676261    0.5941333302507216    0.2965152110651233 Nb
   0.9367587419853211    0.2441815888180000    0.8113061703684645 Nb
   0.0860623168791107    0.2432978776779408    0.1889319280252650 Nb
   0.8988669553364530    0.8993642944980265    0.0631643680592421 Nb
   0.7744482701537126    0.2011474039405560    0.8609140626773172 Nb
   0.3911153244344729    0.8274690756385852    0.7928411473419602 Nb
   0.7707650716910615    0.0200167875372860    0.8213207617919212 Nb
   0.4199822229461067    0.7326016299596446    0.0826973454123094 Nb
   0.4031021474954834    0.3976917346820498    0.5569826484790713 Nb
   0.7495539952541790    0.3397552841173222    0.5664097378279616 Nb
   0.1390507735811964    0.8799745087524032    0.7115795838395226 Nb
   0.7900340332727080    0.3505357494448551    0.7692172095672031 Nb
   0.3471924459426481    0.1251216191645479    0.0423923046169041 Nb
   0.1697917941640792    0.7014309480358231    0.5345337601453668 Nb
   0.1311607218011662    0.4074586741653701    0.3293344450773634 Nb
   0.1023430632723442    0.1315674041012421    0.8073469197224425 Nb
   0.0645702258101919    0.0757365126759830    0.2884014525300780 Nb
   0.1009446615013213    0.6373287535292788    0.6537981837750184 Nb
   0.3937355002595456    0.1017363936055694    0.5741070616443552 Nb
   0.7468295060003182    0.4985276174500791    0.6096451307974526 Nb
   0.5590655122819523    0.1082432467318044    0.4159094432875668 Nb
   0.7667740057809863    0.1890198750771121    0.2918610853505321 Nb
   0.7140391125322716    0.5713157764228479    0.9283619259488674 Nb
   0.5879647359396825    0.1226121179790561    0.1415278052180955 Nb
   0.2428121694557779    0.7604764219830188    0.4447797057841121 Nb
   0.8886386223718841    0.0713664790230271    0.2650559354315892 Nb
   0.9293513202763717    0.0094026263014707    0.6516645870106962 Nb
   0.8633771683876081    0.0948067562141988    0.9286905666910421 Nb
   0.7786808316804298    0.9623924945671344    0.6976953697132505 Nb
   0.4845638226083067    0.0518119742954397    0.7033912871691986 Nb
   0.2378848363115493    0.0472915631130810    0.9684920719385900 Nb
   0.8481753498948187    0.4054287857981461    0.6686003028688388 Nb
   0.1226933322988773   -0.0065911536100890    0.8930631174192900 Sb
   0.6406074965554482    0.0063510986963881    0.0228534997665396 Sb
   0.6606439677797596    0.5266161512953567    0.1594597222673643 Sb
   0.6378647592502571    0.7310798255659349    0.2528823900378742 Sb
   0.6053799695509389    0.4906847010727715    0.4155409881992153 Sb
   0.6895544538134402    0.7063235431809645    0.0005712990040335 Sb
   0.6048315313928163    0.4122844518034151    0.5899106418726154 Sb
   0.1095820875179136   -0.0489752227703264    0.6059379776717440 Sb
   0.7110973164541547    0.4624547214861739    0.8381199305710638 Sb
   0.6942901944702616    0.8209589960806161    0.1206998412296463 Sb
   0.6371003573421772    0.2904171458404790    0.7589374969507354 Sb
   0.6395635308153484    0.3265400161217180    0.4603408168705565 Sb
   0.7241334788861682    0.8353282919846803    0.6258569221380617 Sb
   0.6159175200144952    0.0414929479593187    0.3127054023209757 Sb
   0.6481741689889751    0.1092852054214565    0.8861135647870746 Sb
   0.2031558998176043    0.0164925001901062    0.3410174874480099 Sb
   0.6429402551267754    0.0256718121738675    0.5039874929130510 Sb
   0.7030096724287852    0.8582018431299491    0.8810071875027383 Sb
   0.6848642771006460    0.2846388473565184   -0.0459723886055174 Sb
   0.1621868648227828    0.0129976338132217    0.1759599632351024 Sb
   0.6341405475979536    0.0081997611026350    0.7513371673781637 Sb
   0.6833506240319834    0.8027651764015784    0.3873896564793874 Sb
   0.6651780854933805    0.3516975570841216    0.2901902167079978 Sb
  -0.0696593866898057    0.7871780604633761    0.8738451704856135 Sb
   0.6975670574847271    0.1820947960349310    0.4014161466838391 Sb
   0.3560235847552506    0.2458967416673887    0.1191674042150069 Sb
   0.0505437824642043    0.7751291763530896    0.5981593391008163 Sb
   0.3280371781230469    0.1860327529427684    0.3325921772116234 Sb
   0.2615883501600176    0.1902115178581092    0.6111678829453512 Sb
   0.0802263038010880    0.7983058901556053    0.4549826804307648 Sb
   0.3716225012008890    0.1209390315676451    0.9152341237983131 Sb
   0.3299671488702282    0.4729832254063190    0.1672290205388393 Sb
   0.3683871829755584    0.4652752067089096    0.3483665652351864 Sb
   0.3638211849341371    0.4982207802580570    0.6568401139651324 Sb
  -0.0518583081928904    0.7511888275709812    0.1718910075611665 Sb
   0.3614407622115666    0.5518816666133246    0.8733880749686305 Sb
   0.0295022319419203    0.4497197472402701    0.8709049758327457 Sb
  -0.0140798316790277    0.5250155817962426    0.6250168206753733 Sb
   0.3019420670012603    0.8473182409382444    0.1171519732403931 Sb
   0.0243285414436895    0.5138992155389793    0.3809243209462018 Sb
  -0.0163358741583514    0.5144683095881728    0.1512286697457008 Sb
   0.0093673925847514    0.1708863933093739    0.9052859230565801 Sb
   0.3569404812248128    0.7883548273322736    0.3631473193533802 Sb
   0.0403261496332271    0.1345457610383484    0.6479674165825118 Sb
   0.2882841168359945    0.8980742739532789    0.6277836444527568 Sb
   0.0692622033169207    0.1693078915111971    0.3872767902593395 Sb
  -0.0088776922841558    0.1268035123907434    0.1407152789381697 Sb
   0.7140815331931725    0.6556754302075354    0.7050393141717297 Sb
   0.3230736074741221    0.8388445603159751    0.9074368864723467 Sb
   0.7249496406340087    0.1815005810143363    0.0928834852266267 Sb
   0.6613317162442512    0.0995214852951126    0.6481175497343947 Sb
   0.6478230049779830    0.5822657488802507    0.5366041877308270 Sb
   0.8675049673957009    0.2235829837452592    0.1998930143532602 Sb
   0.1412721351702872    0.3583536136935495    0.4479221283144152 Sb
   0.1547008153286145    0.5115544722592092    0.0226098974159029 Sb
   0.1710375251238483    0.5137041598521169    0.2388997720949554 Sb
   0.1593719921769013    0.5397656999155286    0.5217610056262358 Sb
   0.2287849953039119    0.5233741961824074    0.7500140538754576 Sb
   0.1419395361078992    0.8094812707750396   -0.0014397723497616 Sb
   0.2159460117464328    0.8167575409823808    0.2280616013199306 Sb
   0.2203799065346747    0.9258492968888280    0.4462088307325994 Sb
   0.2181277517343627    0.8479436431523890    0.8112639895825212 Sb
   0.5037962295170898    0.1157516167283292   -0.0046899182419027 Sb
   0.4476020530875942    0.1309668458173726    0.2408988956620320 Sb
   0.5196336187759580    0.2111649944381809    0.5383089267697309 Sb
   0.4914635033736753    0.1824120494505976    0.7788364438500950 Sb
   0.5306164983048421    0.4728257619233244   -0.0311763889449189 Sb
   0.4879503972477091    0.5197334979868214    0.2037438141978929 Sb
   0.1807626378584088    0.2640048377823053    0.7532367507570289 Sb
   0.4751317700592378    0.5448855607242699    0.5407190470454717 Sb
   0.5354218651677828    0.8307001390173920    0.0348428333497249 Sb
   0.5466945792741241    0.8788573153083630    0.2955833558015563 Sb
   0.5137906289226315    0.8292892542174571    0.4650341923658236 Sb
   0.5750207684829107    0.8343571926106400    0.7201042529367471 Sb
   0.8541032832909206    0.2169669451806511    0.0165993134917434 Sb
   0.3547142172654288    0.6844880202368062    0.7409363244365204 Sb
   0.8442936190917596    0.1456233372571917    0.4914021250096555 Sb
   0.8299837136823924    0.1410394069252296    0.7494651350727286 Sb
   0.7827612506587444    0.4487702678898099   -0.0057179047331112 Sb
   0.8187265471043765    0.4675873052277750    0.2543586822174018 Sb
   0.8168330001680680    0.4441615480129208    0.4839261878057427 Sb
   0.8496041687796888    0.5132439754351827    0.7708523049829290 Sb
   0.8033337004245293    0.8429009208400310   -0.0210715564940348 Sb
   0.7669290866692706    0.8906557266201505    0.2475837571088213 Sb
   0.4983455701593688    0.4805438418707664    0.7976648083137406 Sb
   0.1516318940918180    0.3401810704687110    0.1035006851980668 Sb
   0.1289901610461022    0.1550067123539279    0.5026227957347418 Sb
   0.1544281101865601    0.1755708249406357    0.0118076845041880 Sb
   0.1094271862852743    0.2910717807936698    0.6082286929444796 Sb
   0.2288024764151801    0.3982113600858747    0.8712899052647414 Sb
   0.1855451058600036    0.6345872942056062    0.1547997866181234 Sb
   0.1335403890428027    0.6682076621026652    0.2997525661106511 Sb
   0.2618562544028425    0.6673506246124873    0.6274322252939867 Sb
   0.0987167489021364    0.6368400231812383    0.8879598697373225 Sb
   0.4482158005184213    0.0383421613642430    0.1221755224701479 Sb
   0.4292846108731285    0.0052492081201210    0.4327006237633495 Sb
   0.4999153319309886   -0.0255558445707646    0.5921337811013082 Sb
   0.4035599320337471   -0.0097807241163158    0.8289430805905018 Sb
   0.4994395984408794    0.3627709418942722    0.0816810411572694 Sb
   0.4930837941845697    0.2882070272869381    0.3788068693123692 Sb
   0.4817875501917578    0.3585585027028774    0.6760889176900328 Sb
   0.4507750053722607    0.2984161878296271    0.8913512689008628 Sb
   0.2031446861683474    0.1591257498116116    0.2451006086841459 Sb
   0.5551175163817763    0.6524004198018419    0.1191382192980547 Sb
   0.4812778196343457    0.7117772143914666    0.6393253880441363 Sb
   0.5158407834249289    0.7010351676402603    0.8102422397702269 Sb
   0.8333180385395107    0.0008179394688065    0.1481310613023130 Sb
   0.8164253483168243   -0.0127660632000150    0.3656688387918472 Sb
   0.8044498167125899   -0.0381690856074019    0.5730917231881861 Sb
   0.9117969066795973   -0.0384684017920540    0.8589285796091881 Sb
   0.7536213748845624    0.3690447905563516    0.1334749073685655 Sb
   0.8260685718915179    0.3377353866139146    0.3446919530163944 Sb
   0.8781155716307385    0.2556310626217581    0.6103702546419763 Sb
   0.8490215359706847    0.3435646775429662    0.8808679085800131 Sb
   0.8263343605166124    0.6037299530150061    0.1519137289321624 Sb
   0.8044273213156586    0.6078542893608802    0.3386239573736595 Sb
   0.8594710043283755    0.6248506239771253    0.6524807808601903 Sb
   0.7680540396682329    0.6728204554394894    0.8467481774669292 Sb
   0.5382011882594665    0.6691768772531340    0.3973394645690901 Sb
   0.3788957047184585    0.7071792460337774    0.5035492499241467 Sb
   0.8096866179737517    0.8057247691381473    0.7447571479220152 Sb
   0.2903597553360243    0.7076541149558764    0.0038154196130821 Sb
   0.8907109664442203    0.8398101137243500    0.4765312666576099 Sb
   0.3431552014302708    0.6450124246923512    0.2707793657392987 Sb
  -0.0422133428745100    0.0504439128082361    0.0240419969128397 Sb
  -0.0073892839534978   -0.0621038090468305    0.2516994661448090 Sb
   0.0012840891857074   -0.0202809072094164    0.4476805674229443 Sb
   0.0396359451368757    0.0053870905877215    0.7471117809526828 Sb
   0.0816075971497932    0.3599437649571994   -0.0304238219266204 Sb
   0.0094044232350274    0.4077737073326047    0.5254449427872501 Sb
  -0.0238917761974775    0.3883167342574235    0.7430466627757302 Sb
  -0.0357953896690162    0.6829813684751881    0.0359933464622760 Sb
   0.0092653143784414    0.3481122676406455    0.2646714153768758 Sb
  -0.0053628685887326    0.6486825019907727    0.4864338034836867 Sb
  -0.0054931954628888    0.6232263195073051    0.7527524179995911 Sb
   0.3498187477956039   -0.0461918451371354    0.0277168006735537 Sb
   0.3212380772884989   -0.0274551432163011    0.2560497101377620 Sb
   0.2807112514768836    0.0981915291699701    0.4845115801393471 Sb
   0.3374139919534424    0.1097593740983399    0.7033449832764274 Sb
   0.3429764356764687    0.4418393895847721    0.0000052201710638 Sb
   0.3975191979958778    0.3361789667217107    0.2467058344980907 Sb
  -0.0485403726526692    0.7104353994979934    0.3286429514349121 Sb
   0.3148886057166707    0.2998022601655118    0.4519780788313810 Sb
   0.3535468270620126    0.3066480328907883    0.7443737496382089 Sb
   0.9440717261635787    0.2288407464706411    0.3204895263764032 Ti
   0.8928923038162890    0.5353743760347934    0.0512175345912805 Ti
   0.8670528989928697    0.5856133904349217    0.5346576513580058 Ti
   0.4726376191013957    0.7398372015670062    0.2932940790817363 Ti
   0.0758306342087718    0.7586376264424043    0.8123006272264536 Ti
   0.5219716485220381    0.4321971179781653    0.3136834545917533 Ti
   0.5883404561544820    0.9424645777669962    0.4084993355354275 Ti
   0.9275040384463897    0.8668487529837641    0.3528104290968215 Ti
   0.5825877898138255    0.2350711773799921    0.0403068835826497 Ti
   0.2755092567945877    0.4543354729804395    0.4628729656910188 Ti
   0.2363495716231872    0.5471596905400221    0.3474610928493954 Ti
   0.2712456298863364    0.2357582750899310    0.8589287886729670 Ti
   0.8232632059968046    0.7115120036786241    0.4280374965015433 Ti
   0.9217160356732281    0.1019908067688754    0.3901576632945192 Ti
   0.5725034413222235    0.7665245550567896    0.9250691347716812 Ti
   0.6427110474010013    0.7207025683490553    0.4819344242846231 Ti
   0.5282814455323901    0.7935651918645322    0.1715967211552932 Ti
   0.4645824658377821    0.4286439770689933    0.4432306823625812 Ti
   0.2325173921625696    0.3955089746540600    0.6770313735042923 Ti
   0.7930405772310040    0.7570702856677738    0.3069213471831356 Ti
   0.1792838487562680    0.0661444257434598    0.6961809503941527 Ti
   0.3144777905320360    0.5656923715346865    0.5466881039154627 Ti
   0.8390764666716816    0.7452383475147130    0.5677340962201572 Ti
   0.9463509467636259    0.8800270571732625    0.7483487002098452 Ti
   0.5077915699253144    0.2531544095844128    0.1716289176759890 Ti
   0.0108250762514137    0.5499714612472473    0.9673822760182524 Ti
   0.1003811198097923    0.2894400883032855    0.8572074438657297 Ti
   0.4195591360343439    0.2657981349411458    1.0041405319924896 Ti
   0.7535366936848721    0.2435592995378225    0.6814294054724707 Ti
   0.8452438201681218    0.6853985288974027    0.9535103287530170 V
   0.2399471082501089    0.3020953940815761    0.2776733141840302 V
   0.9359984878756955    0.7537682417747454    0.6742998042353202 V
   0.2466390299571753    0.3275957813534691    0.5547814363286737 V
   0.6321816765529518    0.7160774919214147    0.6094472437564847 V
   0.4565983730841507    0.8891452343849097    0.9429334746793727 V
   0.7823119725095137    0.7392261386254793    0.1929133039625838 V
   0.9303268143844622    0.4129211908630053    0.9645997902463890 V
   0.9436868416328423    0.3786629273689189    0.4185168462558786 V
   0.4323351282866009    0.8739365728066242    0.6750991388373448 V
   0.9020810701059399    0.3825055719877162    0.1820131554928698 V
   0.6798953042602361    0.2508251293337487    0.2020190597228465 V
   0.7947353796127556    0.2916755217246068    0.4541547152696301 V
   0.2699522975857265    0.3022217784891802    0.0274619415312766 V
  -0.0533521010904019    0.2524589326020978    0.4395986503679587 V
   0.7238075393107709    0.6073082509822870    0.2447773460855609 V
   0.5759291920467867    0.3866935558717896    0.8707855165054239 V
   0.2148308318167474    0.1827302740562564    0.1251129576592924 V
   0.1943853732920005    0.2589708129342690    0.3701681349637328 V
   0.7418501380639980    0.9941932697084681    0.9384468556890554 V
   0.2619956399268916    0.3374085775120159    0.1790463552487193 V
   0.7452077711586562    0.9223273664355692    0.4571450268559956 V
   0.6829077844128388    1.0045924854118167    0.2013765716513808 V
   0.3629562509716792    0.8638423545314056    0.4638764589292224 V
   0.2331495089479959    0.5908211735005368    0.9386834380965043 V
   0.1993472369849204    0.7306172099677247    0.7272195669754419 V
   0.2004448551617328    0.7479066785794928    0.9038567243301370 V
   0.5180544886431863    0.0101249469204034    0.9131250306771913 V
   0.5870642490795818    0.3916784215744558    0.1759412483216493 V
   0.7412321978111445    0.5642773464460022    0.4363951756513336 V
   0.6028172715587745    0.4408992803934212    0.7102853939037902 V
   0.3781989631546626    0.7699641409818917    0.1985869237323560 V
   0.4560425081638053    0.9174436123946283    0.2032371586848160 V
   0.4832456167073940    0.5819536598293908    0.7107774656887268 V
   0.3327712984676527    0.9600384177437060    0.5303652932467083 V
   0.0363457512277112    0.8175916321490428    0.0824395092820913 V
   0.0645019139226867    0.8060571140558367    0.2806641790304283 V
   0.1381490033310954    0.6411232588996425    0.4191907337249901 V
   0.2567432297012795    0.0536094053776060    0.8487193740057966 V
   0.4633179549102721    0.5795567167041337    0.0423527997360904 V
   0.0197286986206461    0.6301757439958878    0.2282592692776486 V
   0.1257668229999176    0.4155091813759659    0.7824141857855756 V
   0.3739360100822095    0.4034311151600087    0.8300178010134164 V
   0.7953752230760095    0.0507395525163166    0.0331064012727355 V
   0.8097462318668662    0.1080023351703018    0.6094339733894040 V
   0.6416152182005636    0.4017222668769896    0.0474620179450715 V
   0.6997378375156970    0.5018268099426916    0.3275272167562372 V
   0.8201385520661697    0.7379664806217369    0.0736059305477258 V
   0.0362559198189679    0.2513879849563480    0.7205481091535184 V
   0.4297912879101598    0.8326013737796258    0.5691051752699234 V
   0.2257203222691324    0.8611919782765198    0.3347096997408314 V
   0.1192345345229542    0.4458523665732362    0.6107114453655174 V
   0.0339092225502589    0.0521859101825101    0.5491056756322924 V
   0.6599839369802185    0.7561228875590748    0.7949701532502750 V
   0.5886434061529611    0.2494780882176912    0.8640756608180915 V
   0.6105858111853134    0.5634652334571804    0.6562970756498668 V
   0.3778566564779232    0.6244285140749685    0.1591557837959253 V
   0.6317151813779076    0.8661937662909588    0.5336565229595166 V
   0.9503452947321616    0.2814414620659679    0.1038317045481432 V
   0.0140601295612296    0.4190149636904690    0.0631803184499357 V
   0.9971644358807312    0.2390683050711137    0.5371344368625941 V
   0.0272242162856919    0.9152926174938277    0.9804551667923448 V
   0.9128654544663880    0.6228680505136565    0.8529232340266680 V
   0.0842131708947629    0.9127608801236984    0.3568109467908132 V
   0.9532631754017994    0.9025799668317431    0.5715838521226175 V
   0.0916168467128009    0.8680435530127714    0.1717835992587224 V
   0.0376342302279640   -0.0243254160865680    0.1027534713265467 V
   0.9403088409521624    0.5547766478665457    0.2894680976537597 V
   0.4558656908061075    0.0028371223271891    0.3164198418989313 V
