Yb24 Eu24 Ho24 Lu24 Si48 O240
1.0
  -0.0002685906560724   20.1938855613050521   -0.0056627791615766
  14.0767482850453867   -0.0001869103077393    0.0011355974588069
  -0.0013322800055287   -5.4650471884690335  -17.4195726182350228
Eu Ho Lu O Si Yb
24 24 24 240 48 24
direct
   0.2571387846343794    0.3147652633272132    0.7402470021231724 Eu
   0.9756642322923162    0.3177390767002957    0.0631791786408196 Eu
   0.9734103234084610    0.8210277887522104    0.0550669282468168 Eu
   0.8586380684004655    0.0712184737038134    0.4446586481323631 Eu
   0.0769078946939155    0.1863103888078386    0.7558996490141543 Eu
   0.0758188259769482    0.6867475780037323    0.2626528957739682 Eu
   0.5278100201988636    0.0731235771916701    0.9409119870815456 Eu
   0.0769905116834653    0.6841303060875075    0.7581634049914723 Eu
   0.1933625466674298    0.5704482942778287    0.9398376942650597 Eu
   0.1903469283347201    0.0656965681896489    0.4390067974307662 Eu
   0.4156365497677332    0.6848241644127456    0.7584310645406410 Eu
   0.4252949666259189    0.9369442463871644    0.7407894289950123 Eu
   0.3075603976487203    0.8217064041910848    0.0584401215514967 Eu
   0.7543678061259710    0.4375929987175638    0.7416228409619269 Eu
   0.7546929304948518    0.9341299569259811    0.2432156224221102 Eu
   0.7542423698644144    0.9351959929517392    0.7403106438694667 Eu
   0.7563771067586962    0.4359277240469107    0.2436067707822187 Eu
   0.2456891495939114    0.0641863132995469    0.2557900723082021 Eu
   0.0268799780017284    0.1804752600526374    0.9402431905585176 Eu
   0.0263359786263937    0.1788197128350984    0.4416147349674747 Eu
   0.8071415890573317    0.9299321192887063    0.0584747508674044 Eu
   0.8066569310138525    0.4319590868161160    0.5566894624539591 Eu
   0.9206876805344882    0.8125141237263608    0.7407171710799576 Eu
   0.2469764996295361    0.5646982380316847    0.7576177853904827 Eu
   0.6397071992622263    0.3227210782987308    0.5576829273072659 Ho
   0.9102893655749228    0.0661218716644093    0.2600287967387259 Ho
   0.5734829686883133    0.5618841898570658    0.2614029751787442 Ho
   0.9774781358425367    0.8126679029986442    0.5610898704123353 Ho
   0.0763087952495418    0.1866798291488647    0.2610096570280176 Ho
   0.5760555332711178    0.0643189281790007    0.2641211234627410 Ho
   0.2589611310013721    0.8121182906968571    0.2381991675178884 Ho
   0.2446389174827404    0.0631508930167536    0.7618801212597467 Ho
   0.2586061373832274    0.3175637326944201    0.2379477009552051 Ho
   0.4135177797699973    0.1903969808716748    0.7630301957115027 Ho
   0.4117944372648458    0.6854019939846298    0.2646125960187514 Ho
   0.7405791726380191    0.1877258567127432    0.7611413955143705 Ho
   0.0881321230210500    0.4364670015394574    0.2387264063587380 Ho
   0.5872594903490854    0.8120441467810111    0.2354458974189977 Ho
   0.2463833260869126    0.5648843344026627    0.2668395375409121 Ho
   0.6449664728359110    0.3174116223075319    0.0637594643357475 Ho
   0.1467173544014068    0.4354141506111809    0.0647624620377479 Ho
   0.5214179391053089    0.0691927084086713    0.4372042677562334 Ho
   0.4764302874671174    0.4255692765909081    0.0626512784833129 Ho
   0.4763402356168757    0.9290137267585136    0.0588946788424610 Ho
   0.8575734207891039    0.5723903915299038    0.9417597062684523 Ho
   0.3590639539230376    0.6791146887649951    0.9379754778710205 Ho
   0.3592224296348792    0.1783804412612965    0.4389270696119379 Ho
   0.1916591874063173    0.0695795533793584    0.9431596386206580 Ho
   0.4253553072407187    0.4357950497054444    0.7346393121507198 Lu
   0.4250003947396058    0.9388528679444664    0.2353328990737312 Lu
   0.3573672639670689    0.1857358077703237    0.9409082940628755 Lu
   0.2554212391394094    0.8178332217031103    0.7353041556726414 Lu
   0.3120047663343990    0.3230478778495161    0.5624173386053157 Lu
   0.0909307756835960    0.9359720325258694    0.7363811639263697 Lu
   0.5870868025272515    0.3158242087829820    0.7362499543073294 Lu
   0.5895382085571692    0.8087242580977886    0.7378468175330980 Lu
   0.9199450182735043    0.8107405734333045    0.2381356607386952 Lu
   0.8106109810413441    0.4264720306300285    0.0639330651916699 Lu
   0.9114170011463417    0.0646891119315141    0.7624581075115753 Lu
   0.9107340902928003    0.5610706520097800    0.7629765959815695 Lu
   0.5859454825694103    0.3128585651530958    0.2396085403598564 Lu
   0.0898384342237575    0.9349465523625798    0.2354296280711135 Lu
   0.9124053226362278    0.5624648204429042    0.2636327595679117 Lu
   0.9781135054186270    0.3282714715711853    0.5625827474963899 Lu
   0.6464010497312568    0.8129888048854461    0.5619833040907862 Lu
   0.8542434200106912    0.0729087347565266    0.9353523059927957 Lu
   0.6460174616231710    0.8199301558094874    0.0648405570314644 Lu
   0.5228098283608408    0.5642143887664982    0.9387397434807797 Lu
   0.7390796422923344    0.1864340902707143    0.2647203298784918 Lu
   0.1898874771686983    0.5726613621965639    0.4415982539288777 Lu
   0.6859508909537655    0.6789693776118325    0.4308994903334661 Lu
   0.7407820541758304    0.6859307884643591    0.7664240914993088 Lu
   0.3353223064786016    0.5730548791094501    0.1906325088662482 O
   0.3360597929288580    0.0781215655348797    0.6930510285706137 O
   0.4950990453784527    0.3195605294942846    0.8064007814724015 O
   0.3419566503584054    0.0666978636745936    0.1918945590980554 O
   0.4968405304005663    0.8213699781854686    0.3050118032628074 O
   0.5073799891944325    0.8122067395349395    0.8117664132130209 O
  -0.0094726349964945    0.5649816391107841    0.6900679941505149 O
  -0.0032021939605375    0.5629566425876965    0.1929481085865891 O
  -0.0043955840023479    0.0607132916256148    0.6908100866086517 O
   0.3377449731535762    0.5615891829642589    0.6908329875939666 O
   0.0012037557903536    0.0640626583706896    0.1946248179066215 O
   0.8255023191565822    0.8092783655188406    0.8067914462160783 O
   0.8369723583453382    0.8123184603449050    0.3070491594731897 O
   0.8304324179865099    0.3125756047190975    0.8093426298761245 O
   0.8313042098265820    0.3071626225716386    0.3043379341274815 O
   0.6674044063721032    0.0710592840930301    0.1931797216984679 O
   0.9184401265302533    0.9642807367957494    0.5613592588987308 O
   0.6665855853960444    0.5618996593061812    0.1935021528667376 O
   0.0048131402803181    0.8629703280147800    0.4518548994300602 O
  -0.0029416438308721    0.3556938691789052    0.9390761540252057 O
   0.0134813133794015    0.3713095814740498    0.4558153903635504 O
   0.8225694512992069    0.6075487648798756    0.5499504298210849 O
   0.8224171490525375    0.6122732510253267    0.0488570924782123 O
   0.8200568657082170    0.1132947962411680    0.5496459059516752 O
   0.8169753758228265    0.1204079671982623    0.0404804399559652 O
   0.4909527727339077    0.6135580755636787    0.5494850630434207 O
   0.4997662748582585    0.6108650781490624    0.0501273163518644 O
   0.4886924047080370    0.1205553367971424    0.5462688010607815 O
   0.4970104703074232    0.1049118765712582    0.0580403259800097 O
   0.1672446406768827    0.6166122936832865    0.5518091837767671 O
   0.1565717412290469    0.6088214200693658    0.0541720045720249 O
   0.1478843867664357    0.1196294170635761    0.5425437081885660 O
   0.1565410252537905    0.1264683111288511    0.0439819062827038 O
   0.5064707386893076    0.3179190740412056    0.3101772950071698 O
   0.6728712636806510    0.5757119824180426    0.6934243418952448 O
   0.6716286262578752    0.0665674302370862    0.6939554389995237 O
   0.1629358161241075    0.8235323369963289    0.8057913989336416 O
   0.9958407605056117    0.9226491319154653    0.3063842826911481 O
   0.1650383898396262    0.3200168728939572    0.8073566196270134 O
   0.5841293504648417    0.4904223226172374    0.5651844036781133 O
   0.1726699136529081    0.6810492111165750    0.1969363520125076 O
   0.8406690881897172    0.6764840727709063    0.1949524689459974 O
   0.8406159426105013    0.1778819898559221    0.6940005902657417 O
   0.5890166624873313    0.9693724651822572    0.0638516520566463 O
   0.1745072082419922    0.1788092596791069    0.6901656400808343 O
   0.4997831091448847    0.1866899498628113    0.6922327326175910 O
   0.5800533507046237    0.9914520258145610    0.5607946869305045 O
   0.0134622472035954    0.8628056748627944    0.9484070435603666 O
   0.9157151420608194    0.4791645893759716    0.0590023143705558 O
   0.1648754704520224    0.1876531119968671    0.1885330556700155 O
   0.9223016299134723    0.4723324794182215    0.5541575538638025 O
   0.9191144328421160    0.9976670957164083    0.0528329681094754 O
   0.5045232771365052    0.6837557806623812    0.1892242752566687 O
   0.8333703083837533    0.1726529081314346    0.1885404531145849 O
   0.5882307478222245    0.4758663466873313    0.0569804670507088 O
   0.1724103982308943    0.6886342692453370    0.6929832311634064 O
   0.2494966850778065    0.9935789791170253    0.5651976648605566 O
   0.8355539759342839    0.6745012141936970    0.6932565088634411 O
   0.1650188437526020    0.3207613243932057    0.3049492354707364 O
   1.0013932937849650    0.9371898495308554    0.8065730243065521 O
   0.5094665716064396    0.6850640198350575    0.6938416142893836 O
   0.9951454009313050    0.4359392157044359    0.8047603490620817 O
   1.0005705532302889    0.4332711354593838    0.3089637995114656 O
   0.6603340668945181    0.9190246451225983    0.8084206558756605 O
   0.6568102421737554    0.9290838087454040    0.3082068697984111 O
   0.1610895457730201    0.8224157591758553    0.3085929673379285 O
   0.6591595742994534    0.4282854277232739    0.8091844136559376 O
   0.3267427204629368    0.9354234392138060    0.8061774817405624 O
   0.3331039539857941    0.9295008028199798    0.3072254233997795 O
   0.3432403970606664    0.4319419240584103    0.8093185193695454 O
   0.5071191982044070    0.1843968358198168    0.1948537976785090 O
   0.2536538984686150    0.4784752238740410    0.5555797746808526 O
   0.3250437821297404    0.4346607204319220    0.3087117439213123 O
   0.2510585986032929    0.9859737289597394    0.0633395700843264 O
   0.6551633031395427    0.4271977357735399    0.3099772800562290 O
   0.3398648555266988    0.3635645412063719    0.4519151321981683 O
   0.3503571803909196    0.3106740147316198    0.1962984850423134 O
   0.3477077248031167    0.8653679529042638    0.4521568616340033 O
   0.3169713396446120    0.1914008197847831    0.8102580853923941 O
   0.3103508979749425    0.1936172344989290    0.3099256854828044 O
   0.8140802994520172    0.5633023988250403    0.8095695243152293 O
   0.8182327573665894    0.5578116864556574    0.3043058715486573 O
   0.8173764895035753    0.0623468995359528    0.8070806048328979 O
   0.8126442185412901    0.0633181690115546    0.3039690148431686 O
   0.4784104105536157    0.5538941708614651    0.8099236518377793 O
   0.4804535723189087    0.5630918073325971    0.3010801192703385 O
   0.4813099825962840    0.0637621776151688    0.8070848548239887 O
   0.4826512989773131    0.0539611798463856    0.3069598863040072 O
   0.1477575017436463    0.5598199236234482    0.8059365846073206 O
   0.1477120972963958    0.5581952116626629    0.3110814196727062 O
   0.1454106129182122    0.0561778123719158    0.8043340061257336 O
   0.1430293508652866    0.0558506255739833    0.3017937644728951 O
   0.6850986577636147    0.8020910195013312    0.6908025729969177 O
   0.3145662974737267    0.6903772872353259    0.3037773689477661 O
   0.3138098171133753    0.6976262567904350    0.8066169634471314 O
   0.6466305769867681    0.1906659659955702    0.3035220383112784 O
   0.6463098083252892    0.1985647522055858    0.8001837012980055 O
   0.8510362577724282    0.4464034421896048    0.6939396967015690 O
   0.8531321597416553    0.4475335313245522    0.1904115413730666 O
   0.5197269830357558    0.9325061136515035    0.6961202716910566 O
   0.5172103643561883    0.9407372059511984    0.1914928383393528 O
   0.5176260917394935    0.4367133137264123    0.6975387053967164 O
   0.5234591151367233    0.4376540109307603    0.1895090178320072 O
   0.1868989580354435    0.9404772229760390    0.6989805551075374 O
   0.6828494178207309    0.8105977402152159    0.1918024599234384 O
   0.1842470268845776    0.9364422063081872    0.1972689926124368 O
   0.1858052218958852    0.4456280788525192    0.1942718435836193 O
   0.9787989315835552    0.6857822205968043    0.8033068558026940 O
   0.9760102471548179    0.6914660236937252    0.3027403135730721 O
   0.9817345919668879    0.1846120443083490    0.8064905467892589 O
   0.9831574092097083    0.1869969922243415    0.3066453639402966 O
   0.6500513991203186    0.6951957365775918    0.8056327801858456 O
   0.6421967474165717    0.6925251632875048    0.3077781148144598 O
   0.1890365854269013    0.4409586779675080    0.6941492471775681 O
   0.6823293563071376    0.3104577480927016    0.6912922963525314 O
   0.6853188674194640    0.3061402892034172    0.1954043562947325 O
   0.3521414323844954    0.8107639629494917    0.6983667843698780 O
   0.8349834463395840    0.8899737526105387    0.4417110516375958 O
   0.8409368085153200    0.3770327747590735    0.9536248970237461 O
   0.8287309980752214    0.3942124835963047    0.4351558802556116 O
   0.4997794963265734    0.8896802475474684    0.9445565246885916 O
   0.5099168579897436    0.8929299801814233    0.4473723445412828 O
   0.5032991792455572    0.3972737719267559    0.9452642570985278 O
   0.5185120031198408    0.3828621236348665    0.4556203138371489 O
   0.8513161630124300    0.8781888114025735    0.9534320389941947 O
   0.1831536598958127    0.8870055605177896    0.9519814626248320 O
   0.1775192689380249    0.3844914005478489    0.9515829775943776 O
   0.1722153086699030    0.3935094307573078    0.4442748270836674 O
   0.6799783021019675    0.8718333656267785    0.9606777575342799 O
   0.6766655709078374    0.8600729805131966    0.4533331401502151 O
   0.6714873681190165    0.3629916553726671    0.9523134979123805 O
   0.6787553529740423    0.3740184108894168    0.4588832302317945 O
   0.3493254747865377    0.8692064512784713    0.9507885108345557 O
   0.1822575884020007    0.8853588053933905    0.4544202729618101 O
   0.3531313750585602    0.3645534237852262    0.9521950881414104 O
   0.3235622501869486    0.1307209884951767    0.0425246132937116 O
   0.3220512391180279    0.6328424767948756    0.0437624229155395 O
   0.3544916048970159    0.8127861825584067    0.1950295451097531 O
   0.3561405505644550    0.3098333372371601    0.6896972670134448 O
   0.2544698075948459    0.4804471643600295    0.0630368822454789 O
   0.0209293745487543    0.8109530456837940    0.6935025180026189 O
   0.0166473044033386    0.8128756644684101    0.1947399790314766 O
   0.0159997740882035    0.3048764547633939    0.6874352923633927 O
   0.0232684560909498    0.3093414239827102    0.1950515398353521 O
   0.3242787914474144    0.1402512559974275    0.5480918638782735 O
   0.9895728683411871    0.6380492209195274    0.5536159952481671 O
   0.9819384570572885    0.1237918830573238    0.5454526480904260 O
   1.0061465978732445    0.1441980230875899    0.0628874053914663 O
   0.6588031763128848    0.6421759371823679    0.5490451934351259 O
   0.6574738753682342    0.6380138190170445    0.0550571373380592 O
   0.6605526678596799    0.1384100590401649    0.5545417198647656 O
   0.6503876842402948    0.1347952560006929    0.0478676265994450 O
   0.3251940622759104    0.6359209711250434    0.5504901374394440 O
   0.9828992783590538    0.6347339457103190    0.0488870252138195 O
   0.9135378787318997    0.7214594369567645    0.9329097355263219 O
   0.7089681798344030    0.9535991511237790    0.5997375954977474 O
   0.9082937689182488    0.2164195385711519    0.9423044585857809 O
   0.9480857231087114    0.0342571521849671    0.8951298168634383 O
   0.9501342992234392    0.5402683703755554    0.3929991547818872 O
   0.9460895672782930    0.5350353978726042    0.8940074537689344 O
   0.1189450125303109    0.2144233467071456    0.3921142317359550 O
   0.1217457402473625    0.2088630958690057    0.8955214022450998 O
   0.1174833136499288    0.7121743787231752    0.4000756615914298 O
   0.1174566680187534    0.7152923931574773    0.8972050493912661 O
   0.4505550566372475    0.2141513584575700    0.3957543506867800 O
   0.4484675608635961    0.2186966669167110    0.8980606817899925 O
   0.4513626732037179    0.7161002875346583    0.3948863952533630 O
   0.4555425342020388    0.7069149547214726    0.8994658934677390 O
   0.7824250204022472    0.2103481305729198    0.3942914406847011 O
   0.7795772659266720    0.2051465424962979    0.8921477632988616 O
   0.7790245929585132    0.7148134275044380    0.3949534006204911 O
   0.7825681876393449    0.7067046547000141    0.8990135106438394 O
   0.0502671639760925    0.4666527890265006    0.1051700179234452 O
   0.0509183644186911    0.4637143923094880    0.6075720053062403 O
   0.9481901188867302    0.0357984724625971    0.3901733087430963 O
   0.0506577471127101    0.9612732892113287    0.1070807545729316 O
   0.6160951251343603    0.5396909639930638    0.9010317183985684 O
   0.6214397257666693    0.0414350086003607    0.8942177289298572 O
   0.2203032312875383    0.2944037212596782    0.1065568702315501 O
   0.2177172564114414    0.2879575545079760    0.5973760733282354 O
   0.2161686987031885    0.7852775743058392    0.1066233831952950 O
   0.2196874258620860    0.7935025256853921    0.6078663389727659 O
   0.9120656591813786    0.7356119761383447    0.4447098430507634 O
   0.5503280007973951    0.2902693048054720    0.6062201710875532 O
   0.5512670742241951    0.7904959937555436    0.1003724189372679 O
   0.5536083297395243    0.7874356829054219    0.6010117436748590 O
   0.8802135242051745    0.2912641254197119    0.1061894194089965 O
   0.8831221260329256    0.2880721107193996    0.5995809664469655 O
   0.8819196685257661    0.7871075930863175    0.1075424404939691 O
   0.8833558616954162    0.7800273478719365    0.6023459362719248 O
   0.2859166310264172    0.0393354397526649    0.3958362539732708 O
   0.2784315152355362    0.0391151808646281    0.8934251582298333 O
   0.2803332944637315    0.5382370890873357    0.3996237046249931 O
   0.2871658769494495    0.5354338683920616    0.8937187370631204 O
   0.6154519222461141    0.0367513483719995    0.3992753488441460 O
   0.6148367591562781    0.5453810314082213    0.3964354859315030 O
   0.0510810464824117    0.9575408259208321    0.6083024542457074 O
   0.5503927226979238    0.2879007668113640    0.1021792868921011 O
   0.3832832767636077    0.4566343379258970    0.6035496671156351 O
   0.4140629325604105    0.0245299139133584    0.4360492360644822 O
   0.4085566277235007    0.0345611046932559    0.9364761035594490 O
   0.4136562123373581    0.5138900576878033    0.4387707923118506 O
   0.4156576495986082    0.5290214403113001    0.9420814585547768 O
   0.7454252051626044    0.0129630290787077    0.4371713633711762 O
   0.7529945637748572    0.0092195070426405    0.9282818540017541 O
   0.7425423577353636    0.5299246529056014    0.4299723866119089 O
   0.7489200163346819    0.5083009235677004    0.9407863246743614 O
   0.0781301527833694    0.5092318627049761    0.9433669317587872 O
   0.2496595888484956    0.2410505604611851    0.4412980078493140 O
   0.2467266153620610    0.7269949799830369    0.4357791246857441 O
   0.2491693349542783    0.7319226487121632    0.9316792456653870 O
   0.5828070752582646    0.2265372163256207    0.4431291960795484 O
   0.5794857597979072    0.2421098475213870    0.9403903745901643 O
   0.5831518063793090    0.7402631813151511    0.4398288727678630 O
   0.5856125881665566    0.7398136489370134    0.9500548444419000 O
   0.9148422986241419    0.2472988279341420    0.4476819373855800 O
   0.3864055163038117    0.4638698552224020    0.1036344424885329 O
   0.2516033433570597    0.2325044984512434    0.9362027931973002 O
   0.0828162051066231    0.5242002475205968    0.4392814247597165 O
   0.8542098313907289    0.9428891026996025    0.6977844331211012 O
   0.0791265201239843    0.0108942202525270    0.4365306469894475 O
   0.3849807330667133    0.9604895018653197    0.1031256154497038 O
   0.0829316505301522    0.0187330445736301    0.9389393090187816 O
   0.3815872509523677    0.9659737846560152    0.6035834003186537 O
   0.7184029215090896    0.4621625050867556    0.1018177565236571 O
   0.7117024258926101    0.4626906860240514    0.6023936782214410 O
   0.8562745546465070    0.9395010257051624    0.1956083675954764 O
   0.0914022478205286    0.2875496223339575    0.0574270710979413 O
   0.0835730432423285    0.2706443141904516    0.5679218400962962 O
   0.0849631295799666    0.7621315266930652    0.0644122330111934 O
   0.7171264336346439    0.9636808118144518    0.1069912259348021 O
   0.4207084856153811    0.2608480327611963    0.0597857602875066 O
   0.4164862325340530    0.2682396654188884    0.5580828062711046 O
   0.4213584665619195    0.7636019408024681    0.0548042287908060 O
   0.4199476205228136    0.7647768578950690    0.5653665860254733 O
   0.7521598570150448    0.2761173726111260    0.0648587241248670 O
   0.7518379515311640    0.2681440179194163    0.5690186753055196 O
   0.7511591949994476    0.7643195455456818    0.0689012600887759 O
   0.0867775429246197    0.7652503914507200    0.5612374067951502 O
   0.7520944690736053    0.7644082357360590    0.5631153607572210 O
   0.0061921610396405    0.4540207391510738    0.8965330100398163 Si
   0.0074746156654517    0.9516532386589163    0.3967586086541978 Si
   0.0121451700422209    0.9581055461877045    0.8983954130573610 Si
   0.3426603440951660    0.9633428380290991    0.8983789410471349 Si
   0.3508822925542875    0.4576083752502382    0.8996068001859859 Si
   0.3459252816757011    0.9567928062124365    0.3985227782789156 Si
   0.0122556283736324    0.4616835378939173    0.3994905004247222 Si
   0.3408535676751491    0.4584031132983359    0.4008745014430681 Si
   0.8224923224984214    0.7010693800989978    0.6014569816617141 Si
   0.1566079415564196    0.7037212577898946    0.1044390749846165 Si
   0.8244077388127078    0.2068110394749390    0.6028218128161072 Si
   0.8204782770277813    0.2081295821067687    0.0998159861902429 Si
   0.4929316606427735    0.7077897813384431    0.6014305283341872 Si
   0.4933430956516958    0.7054675346123173    0.0974781783966663 Si
   0.4885979296691746    0.2114441827509138    0.6013571647759195 Si
   0.4928226637624049    0.2032834903944218    0.1022693583764092 Si
   0.1602885359681859    0.7104301872212970    0.6002612747239610 Si
   0.6734553608273762    0.4565709702508933    0.9004529910698842 Si
   0.1564761117378561    0.2111515772276247    0.5992559517515895 Si
   0.1570824743026214    0.2164501048472333    0.0989105821007230 Si
   0.8230194261233238    0.7026736413662450    0.1034891044577535 Si
   0.6730640295125092    0.9537303713625366    0.4002383190164149 Si
   0.6730864962206692    0.4613203188632670    0.4000733957890010 Si
   0.1776990965918771    0.2985959444096685    0.3965445118494492 Si
   0.6771779412197054    0.9554073398323607    0.8978353837201782 Si
   0.9878109012709910    0.5411059740464653    0.6006517030351254 Si
   0.9858640533790830    0.5412136276799562    0.1013614994392537 Si
   0.9859590658681245    0.0320005926267672    0.6005224825312812 Si
   0.9929014847808867    0.0460861485688711    0.1026838765640214 Si
   0.6563340938043801    0.5500446728676663    0.6016454402103741 Si
   0.6564438588764924    0.5402991227926370    0.1024550713004025 Si
   0.6555800852014612    0.0421780543532821    0.6017310233188058 Si
   0.6542791445368698    0.0425621657052661    0.1019445956872390 Si
   0.3239675984144695    0.5398112114837268    0.5983919611458171 Si
   0.3256147331757636    0.5425876711788372    0.1013359642849807 Si
   0.5129468613703851    0.7931342206631741    0.9030103034522436 Si
   0.3251067816845186    0.0426407652055204    0.1000527174623847 Si
   0.3236284010600445    0.0483699757149654    0.6024030689895843 Si
   0.1774333463197543    0.7927270405898209    0.4003156585156995 Si
   0.1777350500869106    0.7950234246201080    0.8970799837397768 Si
   0.5139588836913489    0.2911367132859058    0.3996444491927912 Si
   0.5073096685705836    0.3010542152066362    0.8990032910194825 Si
   0.1801753305480220    0.2929662005633830    0.8985132472729321 Si
   0.8406077824922039    0.2939394278417754    0.3966321076604747 Si
   0.8413062685120911    0.2854481082635258    0.8999227488443408 Si
   0.8411127479757947    0.7911541519089130    0.3972509488336451 Si
   0.8434127436210074    0.7852322140021482    0.8991000845869976 Si
   0.5102651809335991    0.7975905662364116    0.3974605018629381 Si
   0.1405163607168247    0.4282400709823331    0.5571317803026297 Yb
   0.6916028736495358    0.1732708815951926    0.4415804072125614 Yb
   0.1406538881087762    0.9210440413102453    0.0582799846310434 Yb
   0.1430712915507588    0.9259141736229606    0.5619830176048859 Yb
   0.4765848771250220    0.4321247472898556    0.5587587438763221 Yb
   0.4715981677855295    0.9226252911519024    0.5568246718489189 Yb
   0.8062435953267032    0.9217340258043503    0.5583727772734599 Yb
   0.0214144452357646    0.6790498584390062    0.4394065626749107 Yb
   0.0251831352214046    0.6735311145960143    0.9416996660599810 Yb
   0.3596889896124661    0.6805714406282585    0.4421886287183465 Yb
   0.6883216458627394    0.1804457636988349    0.9374440230009047 Yb
   0.4159222994610024    0.1887419102086653    0.2598607501149480 Yb
   0.5193281286202474    0.5718910257838200    0.4361146679459546 Yb
   0.8574913609120020    0.5745415308004534    0.4385174193064069 Yb
   0.3132769332416265    0.3249957982681182    0.0628702937432926 Yb
   0.3091629031639281    0.8236252889495803    0.5566673547425061 Yb
   0.7433814346054990    0.6837796033714487    0.2602583354437817 Yb
   0.0841887926567641    0.4343299259579935    0.7393054189776258 Yb
   0.4230679138527554    0.4354146782514247    0.2395101416446335 Yb
   0.9207286616218643    0.3145332036615956    0.2405931965940229 Yb
   0.9199523016668739    0.3133712560547187    0.7395589720695059 Yb
   0.5805966481935316    0.5632326712731345    0.7631004222668257 Yb
   0.6899408696798294    0.6741559337839236    0.9422389167118739 Yb
   0.5804037742649684    0.0650930981808477    0.7595704958401805 Yb
