Zr30 Ti31 Nb31 Al72 V31 Cr31 Mo31 W31 C144
1.0
   9.1994678036419426  -15.9324196516522427   -0.0004914252503648
   9.1984303051718985   15.9318206467064396    0.0002397510308994
  -0.0002542027869907    0.0004265205732404   18.5703804351892856
Al C Cr Mo Nb Ti V W Zr
72 144 31 31 31 31 31 31 30
direct
   0.1445702542466499    0.8193611698388887    0.2453327334115605 Al
   0.3215595481468506    0.6549404112277786    0.2474543083111047 Al
   0.3357070778414158    0.8462627876853511    0.2513271516180851 Al
   0.5050529224330853    0.0058360185078556    0.2394318268306392 Al
   0.4705118573785124    0.1522854262936486    0.2359333354721264 Al
   0.4894933615719654    0.3317920222509023    0.2492883151951969 Al
   0.4946483269151057    0.4954480503409706    0.2449098672332253 Al
   0.5013653346635895    0.6645559903050188    0.2437826325179506 Al
   0.4774769453354424    0.8170132955361061    0.2439547837273065 Al
   0.6799087929158133    0.0162974119863822    0.2478726352772461 Al
   0.3395305610284244    0.5028609113386687    0.2511617177963977 Al
   0.6674847431751397    0.1608057969835605    0.2483303204807559 Al
   0.6608782156464988    0.5030495102606389    0.2509359484723990 Al
   0.6603633732963595    0.6615932683131261    0.2447744955115601 Al
   0.6766979435109526    0.8250744496842061    0.2487893019756294 Al
   0.8251901568405416   -0.0047820681039884    0.2477706713872927 Al
   0.8310952705035598    0.1584841334598202    0.2480703737819826 Al
   0.8147762973657420    0.3256799321077872    0.2603010227958184 Al
   0.8432704981783344    0.5199875380569686    0.2522527566563864 Al
   0.8064017554677507    0.6573199409970558    0.2502799926301269 Al
   0.8255667128982837    0.8202835805488731    0.2454464701285516 Al
   0.6885328523778036    0.3642095909789730    0.2549054035611172 Al
   0.3320270019612050    0.3343131373893359    0.2527443583555147 Al
   0.3266473910895505    0.1759727354596303    0.2561935355328017 Al
   0.2935401454596189   -0.0254758437957938    0.2642566948499226 Al
   0.6737165912731246    0.4988212928671635    0.7579832024700907 Al
   0.6685532960978379    0.6805970795958585    0.7581010149968095 Al
   0.6673485845143923    0.8350914991591851    0.7539706063809751 Al
   0.8289896987479778   -0.0022361519400737    0.7509053054046725 Al
   0.8353547282671500    0.1691066839121718    0.7533353858394438 Al
   0.8424443473938567    0.3300869187527042    0.7565905199996840 Al
   0.8342086433842643    0.4995768569584459    0.7600967521588529 Al
   0.8385385911699584    0.6644344869261017    0.7554895082819424 Al
   0.8393458049271593    0.8404596294846312    0.7449552942658162 Al
   0.0047291457011959    0.0139717105412003    0.2456073846489411 Al
   0.0010202541524023    0.1681520689280592    0.2413987146406679 Al
  -0.0183786136526761    0.3316912202716935    0.2349702666007024 Al
  -0.0364429341857007    0.4718521563149324    0.2459512566045340 Al
   0.0209503195109347    0.6412500393289142    0.2566120523120793 Al
   0.0209928604200428    0.8680801697555929    0.2372829008397354 Al
   0.1664430048104223    0.0227757691361748    0.2573936877050905 Al
   0.1670611772668931    0.1736277204018716    0.2507900730815477 Al
   0.1576258157191940    0.3243970640417052    0.2539820168252569 Al
   0.1790457443457755    0.4836033153824858    0.2508238241095518 Al
   0.1858313270352790    0.6960201800450829    0.2497415033023220 Al
   0.6714698282975052   -0.0014794723529236    0.7538687170794166 Al
   0.5019994371796133    0.8294509006890756    0.7549139446949523 Al
   0.5014911895690839    0.6691262920542760    0.7539430859001611 Al
   0.5145700140362258    0.5177634715189982    0.7533220094232921 Al
   0.5080779609668267    0.3299161207074423    0.7525330669303054 Al
   0.6750562683347257    0.3337271540479311    0.7535139088965545 Al
  -0.0094442732962773    0.0063518272247669    0.7520480081261499 Al
  -0.0056490534943225    0.1688982149196881    0.7533369463331787 Al
  -0.0045662850462449    0.3247137938934967    0.7607029304764285 Al
  -0.0046028296864693    0.5018678275424320    0.7614986610558137 Al
  -0.0063621260646163    0.6583456904940483    0.7593430176790040 Al
  -0.0079805974204872    0.8226739578340527    0.7561054821518566 Al
   0.1689502859756127   -0.0103560616379076    0.7544897121337051 Al
   0.1561815085698349    0.1776723239475391    0.7497267030034586 Al
   0.1673197283928551    0.3412821944551708    0.7510063009026748 Al
   0.6715180973964526    0.1679319789239916    0.7532912384014925 Al
   0.1514938442249278    0.6647640748167644    0.7504962632211116 Al
   0.1764268800037780    0.8360580784973333    0.7510313662539733 Al
   0.3281657923028654   -0.0069135246133301    0.7521763099960314 Al
   0.3385672437967499    0.1704584273557465    0.7554502005581197 Al
   0.3192475971289198    0.3217753525465465    0.7507037805179301 Al
   0.3273435394898934    0.5125145683328565    0.7504451654612730 Al
   0.3501363267914620    0.6748036309970002    0.7546653863344172 Al
   0.3361227150057425    0.8185613147135412    0.7487421116838230 Al
   0.5073858872890186    0.0074762417640942    0.7537461077837218 Al
   0.1657691726326371    0.4988301881311028    0.7619405587631857 Al
   0.5157231574217351    0.1714015996054659    0.7490685800077549 Al
   0.9429705653084514    0.2250825012629766    0.9254733475188538 C
   0.9457308932312147    0.3901057147654594    0.9278205861762235 C
   0.9440456169085567    0.5531911280305779    0.9318567197594188 C
   0.9462418647251734    0.7187095060070029    0.9294038848835976 C
   0.0524788486851522    0.2755879273749163    0.0631694952477624 C
   0.9395051771996366    0.8854244550393554    0.9260116766775131 C
   0.0507433927758227    0.1116649826576255    0.0733407523606654 C
   0.9399940250234302    0.0576559546025549    0.9222201475003238 C
   0.0522587596815362    0.4419035173241793    0.0646851726214969 C
   0.0573285221495584    0.6086930342929983    0.0611159119228544 C
   0.4489526165897071    0.3932674337287776    0.9272097477709639 C
   0.7764714982312347    0.8859989415103787    0.9286645678471331 C
   0.7790853248020939    0.0552071494997319    0.9248068312303555 C
   0.7773350071977477    0.5549982089129875    0.9293413448491594 C
   0.7825406736401216    0.3893285555012413    0.9309479864124321 C
   0.7820488947575639    0.2249118140420980    0.9301792459899333 C
   0.6168669542391095    0.8892335581961718    0.9225481042241791 C
   0.6121357509628376    0.7246930145204181    0.9288291566122543 C
   0.6130816513602634    0.5596867448672365    0.9350037459520308 C
   0.6194144260663021    0.3926983615391328    0.9397031490229105 C
   0.6184322569091811    0.2246690878423981    0.9337979423616438 C
   0.4454422704648516    0.8882045389651100    0.9193116701599342 C
   0.4438430237814512    0.7192768729671307    0.9223352557699503 C
   0.9414294743646626    0.7242033324910832    0.5683230576457371 C
   0.7695068277445144    0.7218713374152744    0.9319414706109133 C
   0.6163626841179034    0.0570991360420118    0.9279013413154624 C
   0.9367178380944023    0.8862596399200298    0.5660350080068483 C
   0.0555516052561606    0.1142557671227206    0.4320699260994529 C
   0.7245426320716936    0.7780769396911831    0.4289206037495989 C
   0.7232234315025333    0.9478015586730574    0.4247321835872940 C
   0.8896782696343014    0.1143489936459651    0.4291759332578193 C
   0.8862418145837084    0.2784144752956119    0.4303727303593500 C
   0.8879703387079958    0.4464209315328003    0.4343577275498666 C
   0.8861310345326127    0.6036590304702077    0.4324354046552546 C
   0.8876562788368141    0.7754256964197624    0.4280601938323537 C
   0.8876058740249766    0.9450731601181854    0.4276133008754576 C
   0.1109064116529213    0.0572085998472389    0.9152413386711094 C
   0.1074817891220203    0.2267835410584457    0.9238455974224926 C
   0.7219955606942411    0.6115362541575998    0.4283092470174981 C
   0.1067452416066437    0.3878954028544496    0.9265312490390908 C
   0.1086302266546515    0.7191162214532084    0.9315803284202353 C
   0.1061358429800130    0.8818696744481949    0.9231584932680301 C
   0.2771530284805817    0.0585741995157129    0.9213114044585285 C
   0.2783669033970464    0.2205491028495099    0.9199442236335772 C
   0.2761782175977018    0.3906869886736482    0.9233139871743916 C
   0.2815247017974828    0.5612798914006075    0.9260204089424650 C
   0.2806802341095039    0.7167479497984297    0.9280696643500073 C
   0.2789869450607219    0.8874992697643630    0.9239475294343611 C
   0.4508083332649123    0.0555919622290450    0.9231812392042751 C
   0.4485833758463075    0.2257859710528375    0.9304379713011958 C
   0.1131845020931911    0.5569517069080249    0.9283907309012509 C
   0.7239458224833414    0.4425441699981674    0.4302503323760967 C
   0.7252404904256297    0.2779896588302491    0.4300093454153519 C
   0.7249293490376109    0.1125366307215810    0.4339268114739585 C
   0.0625052876705240    0.2792483547257795    0.4297889091268376 C
   0.0565797778586161    0.4434683133966441    0.4278889000337264 C
   0.0540060342730176    0.6116132158846531    0.4314389201481594 C
   0.0543697067287985    0.7734258455853735    0.4307442220754752 C
   0.0590368295251903    0.9507230266970668    0.4332818647505129 C
   0.2206988497229215    0.1152874399326309    0.4354325281445196 C
   0.2241312317749053    0.2785001984155271    0.4309598987489978 C
   0.2228504833307574    0.4429490916828411    0.4312537473995268 C
   0.2216167643567346    0.6088036145466827    0.4328494604009573 C
   0.2196542705998187    0.7736294509403313    0.4333873199503856 C
   0.2280579049543533    0.9488294206911765    0.4332529523712617 C
   0.3905487647039502    0.1155614860850921    0.4348316488016484 C
   0.3836034703905713    0.2793534736769815    0.4290602026521775 C
   0.3850227744614023    0.4437784293869384    0.4295484573155986 C
   0.3836143399911383    0.6046390033764940    0.4300303037484153 C
   0.3890667759634748    0.7727326555845427    0.4365666623447628 C
   0.3861045270901527    0.9388041656911509    0.4374237555379915 C
   0.5564662574409264    0.1116785483119086    0.4373541612463871 C
   0.5533590530820466    0.2785302293053480    0.4290372458074133 C
   0.5527001255302031    0.4449094177584213    0.4266253920741476 C
   0.5562660182935018    0.6098278768611689    0.4259432609550955 C
   0.5564917274764917    0.7787230353131053    0.4261313257180628 C
   0.5571690507047857    0.9455625938866241    0.4356415181121244 C
   0.0539229582166450    0.7782366516768326    0.0649938526827334 C
   0.0529269144927670    0.9399511066038059    0.0737860244591067 C
   0.4453803674046390    0.5562530929269947    0.9253575527088949 C
   0.2817017318361345    0.5532307771100168    0.5751400428457204 C
   0.1175338814897610    0.3892124223262864    0.5794623499210015 C
   0.1111703877325483    0.5564527644585568    0.5701949193378134 C
   0.1135994301441356    0.7161990439174646    0.5718070938672051 C
   0.1123571818947279    0.8919566727992861    0.5714104614768198 C
   0.3897414256030864    0.7754581235849483    0.0689437118406291 C
   0.2783352130646012    0.0556773412114474    0.5758867268075732 C
   0.3885795406258978    0.6138313434431933    0.0625897017799756 C
   0.3941380406704902    0.4505479621017836    0.0693872548679527 C
   0.2720806237508226    0.2261617072681956    0.5694245233910200 C
   0.2767571212300958    0.3886261136967728    0.5750621060832596 C
   0.7237161507519222    0.4447360569221971    0.0659657661017394 C
   0.2799590346058867    0.7257693531283187    0.5699704087060624 C
   0.3925930221128525    0.2770935580142945    0.0699825674245046 C
   0.2790830403669393    0.8848205021992598    0.5745863371818930 C
   0.4531123555618149    0.0551894580534205    0.5691167075261524 C
   0.3946334407077662    0.9481665865463051    0.0705237806536612 C
   0.3985675404733434    0.1175804099641004    0.0662888704575504 C
   0.5587983003275100    0.1134780747150443    0.0622404042737773 C
   0.1086686709661519    0.0603506660191897    0.5700672098585555 C
   0.7199985649773070    0.7748396602818446    0.0653316743790922 C
   0.7246575679016561    0.2823290495806502    0.0639846350469554 C
   0.7247752869779844    0.9464170316000102    0.0679139236014678 C
   0.7238591864949435    0.1098942802308070    0.0644369086948613 C
   0.8885161030670552    0.1131363154949880    0.0670303736742271 C
   0.8970492783513332    0.2809106140195991    0.0626055722859830 C
   0.8905855937121799    0.4399135879592439    0.0644402439658429 C
   0.5567760304186156    0.9478413359808715    0.0683459937515668 C
   0.8880104748345382    0.6103226931777938    0.0691939151079545 C
   0.5563230655386224    0.7725590012723058    0.0698928861568207 C
   0.5555842315434154    0.6084898138709497    0.0614453486956587 C
   0.8859909855808978    0.7806017352861401    0.0679963929333755 C
   0.5527863028694169    0.4469101751923444    0.0597756850476714 C
   0.8833088023238694    0.9426694285179840    0.0678101406344861 C
   0.5565331084251430    0.2782119677634631    0.0619078026367475 C
   0.1118807274439025    0.2230235937588966    0.5722486756432726 C
   0.4509561272386441    0.2189364574639962    0.5665712860132019 C
   0.7156175942349351    0.6056603484890305    0.0664427406641803 C
   0.2251239972308930    0.4446628808226341    0.0679468690457629 C
   0.6073850279609272    0.5597402942756576    0.5709418099969279 C
   0.4448790983991247    0.3938666744715396    0.5707521873109526 C
   0.6081100165357369    0.3868024313462973    0.5736846048733485 C
   0.6118421160907898    0.2157886253861605    0.5673506717845597 C
   0.6102819824355299    0.8846439663440533    0.5741498774067588 C
   0.7754346381048939    0.0560794069624142    0.5783724598985972 C
   0.7766381591910966    0.2200502386646263    0.5715227762776365 C
   0.7768062770984648    0.3880259371112758    0.5720712101609768 C
   0.7794617491405410    0.5530522072024527    0.5664813813559737 C
   0.2262343583958170    0.6147504133162638    0.0654966657617947 C
   0.2214949581581028    0.2819736282722090    0.0753550457777496 C
   0.7787938008073393    0.7276100822828948    0.5680145676259492 C
   0.6115057176266115    0.0564073959318667    0.5689411039791746 C
   0.2247987351928957    0.1157272477760022    0.0744763910261731 C
   0.4438770147755127    0.8856331248234661    0.5683106511814702 C
   0.9423910464464608    0.5526311015093950    0.5690021046464300 C
   0.2171344233866434    0.9384169998208025    0.0722893106024075 C
   0.9388187061226110    0.3839489199431332    0.5764934332027741 C
   0.2213450427054353    0.7716884458708474    0.0624703209010867 C
   0.9410141489540821    0.2193769738691952    0.5791726411314733 C
   0.7791551136895325    0.8869429350598560    0.5727903492881397 C
   0.6135014542902161    0.7250923635592116    0.5767779606303142 C
   0.4422655413474423    0.7229979403408383    0.5792783515915814 C
   0.9431298704734600    0.0536870851388433    0.5788264239058418 C
   0.4429624424588481    0.5564334102928679    0.5758629739836085 C
   0.2175565181390972    0.2797743678057441    0.6244961084855413 Cr
   0.8806501781449380    0.2721896243727718    0.6275657099535856 Cr
   0.5048084905144592    0.1654147270891572    0.5027382865295348 Cr
   0.8925311161011102    0.4449477864003464    0.8792074121566221 Cr
   0.3900710414142862    0.6119816690034112    0.6290180152151107 Cr
   0.8858185033174442    0.9388556043057237    0.6246708620697983 Cr
   0.8905752183721520    0.2808377630612892    0.8765009370338566 Cr
   0.5059577943520407    0.0033897169020050    0.5017609351042044 Cr
   0.1109605874012416    0.7185762489146189    0.3822576093497966 Cr
   0.2728452741940138    0.2206220408318380    0.3786571374704338 Cr
   0.3896793240851177    0.7796710720534467    0.6234870929208506 Cr
   0.1671522178776657    0.6621304359197230    0.0010165921781458 Cr
   0.1071147774102052    0.8829051309272945    0.1193581798799070 Cr
   0.0502972784198629    0.2803112199748380    0.8741497683407983 Cr
   0.0533911328603959    0.4451684229773654    0.8775842884728163 Cr
   0.0534340637841189    0.7716884612760622    0.8767159594794207 Cr
   0.3332049973244042    0.6649246374693979   -0.0070768748618272 Cr
   0.2228247254726761    0.1129708565999874    0.8657601751937501 Cr
   0.5032825122860298    0.5015400093741158   -0.0002473372446688 Cr
   0.6703874519844352    0.3357020715552302    0.0035917450857530 Cr
   0.6667906473921626    0.4974586473405353    0.0028250679016418 Cr
   0.7184797791563282    0.7773427696876363    0.8776382750824891 Cr
   0.9469275055125326    0.2238392334158224    0.1172302753839191 Cr
   0.6644220454234890    0.6646543830242978   -0.0019493516566427 Cr
   0.6626370328570120    0.1608537868141661    0.5000108167213085 Cr
   0.9457286906573833    0.3869744431000391    0.1129933137007057 Cr
   0.8345910330104641    0.4993441369772815    0.4996907513954361 Cr
   0.4553527706658424    0.0637104154712478    0.1161022277438238 Cr
   0.7823386982018832    0.3914695890387136    0.3821705774542163 Cr
   0.3876252182870236    0.7717139393391085    0.8719153750457431 Cr
   0.5586979656250297    0.7761350560980514    0.8722599545082489 Cr
   0.7259385599309039    0.1133912090664605    0.8663175726578515 Mo
   0.7762262589065466    0.2206229086075943    0.3700432521364020 Mo
   0.0507607188101035    0.9395406042742098    0.8612170789082656 Mo
   0.0525060985184119    0.1142226740672726    0.6351093055580871 Mo
   0.7769601241333159    0.8883240824837526    0.3652601031961724 Mo
   0.5637758812405033    0.1144982481324996    0.8682660663683880 Mo
   0.0526215700843119    0.6077320764512733    0.6328243474737326 Mo
   0.0569301983214180    0.2736558091868542    0.6396309603500191 Mo
   0.2203657801812274    0.4471102995565336    0.8675606409865464 Mo
   0.5587210601919609    0.6151530091173317    0.8699629878596405 Mo
   0.1702477919911153    0.3351208119749819    0.5021923493069459 Mo
   0.3351951236503378    0.5051889781191058   -0.0077218840243562 Mo
   0.1687468356465371    0.5012542308894323    0.5004898205241668 Mo
   0.3329564613666753    0.1703920882379909    0.5001192965562664 Mo
   0.4991710920029589    0.3325373929620577    0.4974990824812850 Mo
   0.0025640677074967    0.1669715070704421    0.5056242404401429 Mo
   0.0005098930537186    0.0012131308368040    0.5021906847759389 Mo
   0.6649374511285441   -0.0006734755664120    0.5025066347200763 Mo
   0.8305487927194970    0.3325459871295757    0.5032326684788050 Mo
   0.7771496870540967    0.8877615989517192    0.1301147596491353 Mo
   0.7716701059659130    0.7204821170313123    0.1267865100808800 Mo
   0.6101796038064898    0.7154435791281931    0.1276851749667794 Mo
   0.6067936756349626    0.5553913480022431    0.1266361141104268 Mo
   0.4458237333423601    0.5581097485606766    0.1279054358034755 Mo
   0.4449449878614664    0.3896958393510112    0.1298800470470146 Mo
   0.2806526039358809    0.2259072216648851    0.1348828116231530 Mo
   0.5537217696565266    0.6150820915009366    0.6381666797856399 Mo
   0.1068465151980116    0.2229281410349320    0.1320658695424396 Mo
   0.7197884531094578    0.9410220492722720    0.6371428211859242 Mo
   0.5589150066822424    0.2733654877106560    0.6319155247435334 Mo
   0.1078084071335536    0.0543516055051448    0.1349793980448679 Mo
   0.1096566315272520    0.7203459905639470    0.1254846361570697 Nb
   0.1677271465194471    0.5011801683788450   -0.0034339035160682 Nb
   0.1074797482363113    0.3830414003000555    0.1284939085465557 Nb
   0.7214466298959545    0.4421595864829151    0.6359179890131741 Nb
   0.9449042901382276    0.5520124880895276    0.1268919473250502 Nb
   0.6142215498916581    0.8904615161753476    0.3606487984067622 Nb
   0.6688570295725637    0.8350849237030332    0.4998321345725403 Nb
   0.6654911576688485    0.4995429223683882    0.4991286518776079 Nb
   0.6152210530066936    0.0571716743103380    0.3709470668561977 Nb
   0.4401421440983280    0.7141636399937363    0.3652704307532344 Nb
   0.8822236998932783    0.7735314474303271    0.8680727681856812 Nb
   0.4404155998504842    0.2244431329224169    0.3673323368195012 Nb
   0.5549494288390796    0.9412077061209965    0.6347903515078380 Nb
   0.2785310258375173    0.7209722652182142    0.3716973837273934 Nb
   0.5555916041120132    0.4481129683892283    0.6359862587266697 Nb
   0.3360575617094629    0.0007019396435377    0.5045335887702382 Nb
   0.1670660943552643    0.8306208554609273    0.5033777257318272 Nb
   0.3922017189144111    0.9401389005825022    0.6360281150158728 Nb
   0.6659501329849198    0.3313239335830473    0.4993763208025419 Nb
   0.3959201678275142    0.1099403847990212    0.6350305620733147 Nb
   0.3880369501275657    0.4485993621853095    0.6402920893929849 Nb
   0.6108058095030363    0.2232167579093079    0.1302964095021583 Nb
   0.8861881189699187    0.4431989696070484    0.6376654622528976 Nb
   0.8311435888588742    0.6657873363194096   -0.0006456719297895 Nb
   0.3949137442535791    0.1140979528833878    0.8644345807925105 Nb
   0.2754241191615711    0.8827702796818895    0.1325725216827253 Nb
   0.5647917523553044    0.2821553270439285    0.8728643454037690 Nb
   0.5628362654308667    0.4484080413539228    0.8718743090792410 Nb
   0.3346905426830494    0.8305119831956562   -0.0058847870046808 Nb
   0.2211080177081306    0.7718687423788017    0.8667655257552730 Nb
   0.8887687694567706    0.6103009550228485    0.6322281869797083 Nb
   0.7205792295692328    0.1113217850083762    0.6314066881906384 Ti
   0.5007665320395670    0.8333080246841736    0.5027465884860689 Ti
   0.1669448251857022    0.0024664512658468    0.5039444563205359 Ti
   0.5044898406399244    0.0026896108761788   -0.0063438839914756 Ti
   0.3310116524808591    0.4985668148484115    0.5029872670144463 Ti
  -0.0008596642594177    0.6644429043180354    0.5002929538615543 Ti
   0.2808385271440003    0.7226494445783366    0.1247261776139822 Ti
   0.2820314820429118    0.5575902133853603    0.1227433355739735 Ti
  -0.0011111355820641    0.8330099972306990    0.4979520085800201 Ti
   0.2817634920699201    0.3935982805149982    0.1297479966342694 Ti
   0.0011636417736485    0.5008486998034902    0.5020951101634954 Ti
   0.8348246492882131    0.4998872675641446   -0.0018259474602801 Ti
   0.3906962039229689    0.4478416026335456    0.8662462927132881 Ti
   0.6687316682162844    0.8325818951735761   -0.0015268009272674 Ti
   0.3373232218984066    0.1695584130604304   -0.0036484523315818 Ti
   0.1646730844921528    0.8293009424730754   -0.0031493064872515 Ti
   0.1652034047193022    0.3359541336460464   -0.0040851710483243 Ti
  -0.0024937583313239    0.8298094226004034   -0.0038525872974131 Ti
   0.7820670977359416    0.3905760225189304    0.1248222408971033 Ti
   0.5002168485174467    0.6647353666600886   -0.0048870390562798 Ti
   0.7738959862495430    0.5538532476764747    0.1250679395818576 Ti
   0.9454380850552083    0.0586811210541090    0.3719899191176465 Ti
   0.7760152197033751    0.5501235885093049    0.3722556157113797 Ti
   0.7205866720165843    0.2737466195374399    0.6287412909093619 Ti
   0.8323491097806057    0.1680063774368045    0.5010797359790314 Ti
   0.6699457930546020    0.0016025079034111   -0.0044782029131306 Ti
   0.6137578926897256    0.7220308182523133    0.3693977371752892 Ti
   0.6105507424538318    0.5556986531201226    0.3689561089321823 Ti
   0.6136112249942907    0.0590603928559083    0.1218218070512533 Ti
   0.8333793705828081    0.1674455375368387   -0.0034959249774389 Ti
   0.9407341880469646    0.3888489925718520    0.3738022058654605 Ti
   0.1145461925554601    0.0639453090440084    0.3789684176666716 V
   0.8276690422242148    0.8296194011232599    0.0009254680329643 V
   0.3345179685884004    0.8319000386588233    0.5042305311683217 V
   0.2252082048769428    0.7747768265210609    0.6281263424390777 V
   0.1658594948835774    0.6650649118558799    0.5030282262356383 V
   0.1628748728644517    0.1670228129626923    0.5022956310827617 V
   0.2243915252706219    0.6123798075069191    0.8713185367113145 V
   0.3901439169582225    0.6134937099643404    0.8712528904679578 V
   0.7813198148347774    0.0564377324918515    0.1225111746635135 V
   0.3919266017712478    0.9424573345981596    0.8654730111981715 V
   0.4491318713796559    0.2246859409432556    0.1196205270462768 V
   0.7252557814740672    0.9437574851186563    0.8708506297303066 V
   0.8846609697044694    0.7800668341423750    0.6236745701361787 V
   0.8869490380212246    0.1142690931733757    0.8698876223054157 V
   0.8913662719045505    0.6090814776031742    0.8760097518950666 V
   0.5547221909526765    0.7772123057609490    0.6345549273032269 V
   0.2250314849236684    0.4433641894860968    0.6311424841200920 V
   0.9405185523240743    0.5508509931222405    0.3774109773354920 V
   0.7765357885649518    0.7216398716883947    0.3747390946087570 V
   0.8391704672959096    0.3351334379992592   -0.0051921121956491 V
   0.6717821345941659    0.1727070639586777   -0.0034335676561186 V
   0.8326622567079126    0.8310184005732946    0.4965068739123055 V
   0.2766731481800761    0.8834122490073026    0.3806782318995942 V
   0.5004332559044372    0.3328599642679906   -0.0011952320965684 V
  -0.0020661937659533    0.3349806706437814   -0.0075980080411565 V
   0.5062092203799349    0.1701441873197028   -0.0015750347974103 V
   0.1181421197570033    0.3909300065302361    0.3747625526264061 V
   0.0011086991531667    0.4988255623453584   -0.0035581508146348 V
  -0.0004171426566312    0.6644132503888520   -0.0039476730502423 V
   0.7782152878611343    0.0592003102066284    0.3721877974857484 V
   0.2756734522122871    0.3872257509983081    0.3725727811520739 V
   0.6094949345798993    0.3906366286547137    0.3670877736040271 W
   0.1173062030502580    0.2239685645849520    0.3697413850500763 W
   0.8817678878772423    0.9406209781911307    0.8650836132146308 W
   0.2776383875041473    0.0629105690624265    0.3746801232042073 W
   0.7201684082439207    0.6113942047104840    0.8709077794143689 W
   0.5611081614658044    0.9462069547248069    0.8647002678571519 W
   0.7294870364292331    0.2802762158875876    0.8713154928717379 W
   0.2760135484597158    0.5513579429809429    0.3686291994513200 W
   0.3938330941930159    0.2809887830761423    0.8666959873183223 W
   0.2198087959309297    0.9399269847163068    0.8669127777691986 W
   0.2192499494883210    0.2795204610124698    0.8640558437553248 W
   0.4400816936876469    0.3892448806592286    0.3667456040626608 W
   0.0522762438358254    0.1157116208502253    0.8633441330901341 W
   0.4411949320102536    0.5506176605987314    0.3649709283907374 W
   0.7269037314818653    0.4446263190170828    0.8729785772226564 W
   0.0545196805409556    0.6091168416473229    0.8735608712184868 W
   0.8297366697970240   -0.0004107565937876   -0.0043392477792276 W
   0.3306760915289735    0.6645732370040052    0.5064715711428092 W
  -0.0048652154457432    0.1689812190608133   -0.0057423448619106 W
   0.8345884450158173    0.6677544815592692    0.4973642928725678 W
   0.6703131060233350    0.6699357693618418    0.5011848623731894 W
   0.4967892734627014    0.4990078653417142    0.4999882875361998 W
   0.3303205774479553    0.3345896513832483    0.5014011264991289 W
   0.9393415239829288    0.8896560703879762    0.1298851090178287 W
   0.9387495176401945    0.0555907633625456    0.1303296707113211 W
   0.4440394274327112    0.8910657360929959    0.1294074600431413 W
   0.4430567670751489    0.7174489444766821    0.1284923446794864 W
   0.2244355601053567    0.9421820856941592    0.6331503962205642 W
   0.8880979239911739    0.1117795618438796    0.6385737285495876 W
   0.7241487405354667    0.7821201293853357    0.6358437077149585 W
   0.5583501205252387    0.1094542062322423    0.6334078245944254 W
   0.1104237784144396    0.5528416581346182    0.1399236447618782 Zr
   0.4451344789260346    0.8868941743038657    0.3679747475920691 Zr
   0.2197940503570736    0.1148230250429171    0.6406372347831580 Zr
  -0.0035795459362401   -0.0015809774876985   -0.0049166529901258 Zr
   0.4402195781129623    0.0532363256007271    0.3659318009888179 Zr
   0.1654901373435625   -0.0008044245485618   -0.0027837029635455 Zr
   0.1659153145918522    0.1693465143297639   -0.0006249474573569 Zr
   0.3361148490168296    0.0011047520822104   -0.0028666555380465 Zr
   0.1180880052622246    0.8923356678231256    0.3651764415677878 Zr
   0.1089951800780852    0.5561245186846645    0.3567528889428085 Zr
   0.3362937440195171    0.3362430206672256   -0.0014496717650932 Zr
   0.5024674807290519    0.8324365406482229   -0.0058543646385750 Zr
   0.6130931941999384    0.2258166072408808    0.3599215025051779 Zr
   0.8327585463617478    0.0016173079520428    0.5025617202295058 Zr
   0.0476841938438755    0.9438620208610439    0.6385606579377814 Zr
   0.4997606226891736    0.6668934061976611    0.5027288461576253 Zr
   0.9492092756153967    0.2271982333471158    0.3604660674865580 Zr
   0.0556233168725779    0.7744486327908541    0.6388593221510033 Zr
   0.9444343057386446    0.7147639861593525    0.3552593758392363 Zr
   0.9456097190532963    0.8921627559112023    0.3613077468181425 Zr
   0.3917844454502514    0.2788416872372266    0.6340591161556610 Zr
   0.0539719660296022    0.4421773192411523    0.6446705180433172 Zr
   0.0019245105347135    0.3328078243928944    0.5058196369285961 Zr
   0.7227667077436535    0.6150505983791836    0.6381435079787406 Zr
   0.9439168236873559    0.7234424660549102    0.1413858223503792 Zr
   0.7858943444278566    0.2262238947419342    0.1312983017367289 Zr
   0.6123748356982897    0.8883811014357001    0.1392222092940094 Zr
   0.6068859922788452    0.3896534017806332    0.1321390068589386 Zr
   0.2846702958866587    0.0588880226407232    0.1394452236003390 Zr
   0.2274311438768149    0.6140372410454193    0.6415617657228018 Zr
