La11 Nd10 Sm10 Eu11 Gd11 Dy11 Ta64 O256
1.0
  15.0139616842160830   -0.0006730264284624   -0.0049066269040025
  -0.0007058001360152   15.6708131066755865    0.0025511204634911
  -0.0072768942315550    0.0035645902738537   22.2061815941620715
Dy Eu Gd La Nd O Sm Ta
11 11 11 11 10 256 10 64
direct
   0.3454472561312110    0.5601194099148811    0.7629506571599576 Dy
   0.1081965527637871    0.3038935664644601    0.4857205735649194 Dy
   0.8634502281549715    0.8118498522843490    0.7565753763659047 Dy
   0.8522920917087272    0.8112129936934317    0.2696524790754693 Dy
   0.3905118162447221    0.9419759916429146    0.0055673304788957 Dy
   0.1062031698400173    0.8027801879788335    0.4848998687762101 Dy
   0.3451423108129683    0.3094980872336808    0.7659772068703168 Dy
   0.6231871556900942    0.8121501589681325    0.4954440397449003 Dy
   0.1343984487099397    0.1884006753633394    0.2448331519109072 Dy
   0.6495045773676505    0.4419160650456986    0.2306738133799929 Dy
   0.1377939130324592    0.5594830184791009    0.4865845965009000 Dy
   0.8679930805828959    0.3108834540833584    0.7573900350048087 Eu
   0.3607480689614480    0.8073909536529518    0.7638188096157974 Eu
   0.3789603947694396    0.0597274482524331    0.7600570483705289 Eu
   0.3736229094645981    0.1909560007881906    0.0146055655162863 Eu
   0.8691065242467243    0.0594933843363323    0.7702479722954915 Eu
   0.1240994508688071    0.4438595780315167    0.7288688234454866 Eu
   0.6208780961692778    0.1938690345532001    0.7403929567671337 Eu
   0.6304961848448856    0.6839095461929178    0.7420791885128656 Eu
   0.3847563605670345    0.6961538619689224    0.5230881087746716 Eu
   0.3894983478419389    0.9427079078969614    0.5077707951689990 Eu
   0.6207011192223344    0.5647143439876315    0.4850112971458906 Eu
   0.6124558455346537    0.3065873601040486    0.4901279872690535 Gd
   0.3958398446443139    0.4367895525486694    0.0145359117405320 Gd
   0.3995998191398806    0.4403058427415561    0.5143646681782287 Gd
   0.8785060276175262    0.9387407454222464    0.0035966163925240 Gd
   0.6059101311559359    0.5624440212396979    0.9843393621128851 Gd
   0.3688061264359686    0.5586511454178232    0.2561559485305707 Gd
   0.8873173366100656    0.5597439374350467    0.2669848224404877 Gd
   0.1388433536506423    0.9430856306808411    0.7274714360172490 Gd
   0.1368888954848672    0.0577307955617790    0.4858569673250450 Gd
   0.6321720679042888    0.9421537566898158    0.2315546926807162 Gd
   0.3974820849020394    0.7048497685073489    0.0196167180777042 Gd
   0.1324512345924412    0.6869087134822791    0.2466753827833795 La
   0.8740208054579909    0.6868398246711591    0.0196804433975878 La
   0.6239502823127231    0.9389102103763889    0.7317739145004949 La
   0.3815347341311940    0.0589171905412131    0.2610945783559276 La
   0.6306470008252384    0.8135826375574733    0.9881835650850012 La
   0.3645490360223322    0.3134936021005236    0.2669437632341203 La
   0.8740989532097529    0.1904344119130666    0.5202868128491742 La
   0.3742086514508974    0.8035463444161265    0.2662318451879561 La
   0.8758658824825440    0.1854119508545462    0.0186757784026546 La
   0.8792687063434231    0.9413474549564248    0.5053088816728467 La
   0.8736220690887712    0.5619953929336321    0.7637872159535467 La
   0.6327065292702220    0.0607430125339900    0.4892843742367959 Nd
   0.8803029911633157    0.4415564539885579    0.5023681667697003 Nd
   0.8784748833086030    0.6899080914461146    0.5208866522686412 Nd
   0.1345208870023956    0.4383833823009005    0.2286331496788308 Nd
   0.6171790442466681    0.1929954335125073    0.2397504939030393 Nd
   0.8755255377462656    0.4388505830677126    0.0008498491715950 Nd
   0.1352846800162800    0.9446284534104703    0.2282293561110000 Nd
   0.8902732745835051    0.0602710875668720    0.2660858446080065 Nd
   0.1059739798529222    0.8055812259137759    0.9850414231483000 Nd
   0.1330572318006392    0.0573286768166940    0.9849977591737853 Nd
   0.7699982579091336    0.8126815931933385    0.3608357741840056 O
   0.7149301797097044    0.3090792150176309    0.8852779137391530 O
   0.7658354094956334    0.3119438165407210    0.3568277690401487 O
   0.2453241713077326    0.8076357061805700    0.8660454702223424 O
   0.2672800627130864    0.8075494873287379    0.3656207044440840 O
   0.2516684973956086    0.3097697182919462    0.8591529448172596 O
   0.2679324082102637    0.3113209254654273    0.3649924570822924 O
   0.4869826606729407    0.6903755038158119    0.1182714993381281 O
   0.4782750445296235    0.6900784205431479    0.6191290192638802 O
   1.0300217087676951    0.4391386408382417    0.1368373298980583 O
   0.5032586706704769    0.4399992598200221    0.1062387764066141 O
   0.4929407556635739    0.4402769683463220    0.6073900130687845 O
   0.5374735786129125    0.9389044852828270    0.1386425346834593 O
   1.0281100384429533    0.9410862923456789    0.1371343542890654 O
   0.5273146870542443    0.9398558907828057    0.6354887491230548 O
   1.0290063975764456    0.4416458642928218    0.6317425212230455 O
   1.0225237199722583    0.9411528330125225    0.6254663411687692 O
   0.7156735921111042    0.8100817348867673    0.8881545233028539 O
   1.0062312938780988    0.8134209233337492    0.3967189670223406 O
   0.2380362246261091    0.0588716882175772    0.8924656446240071 O
   1.0209606647075804    0.8102545325723296    0.8878954232043473 O
   1.0200580199907374    0.3116078173847778    0.8857586654341487 O
  -0.0051858881030556    0.0633458012007185    0.3545908798939324 O
   1.0099687540150890    0.3139447908574215    0.3945710370430370 O
  -0.0285033327306585    0.0601941131917453    0.8612509739608388 O
   0.4856786094688392    0.1905505753837116    0.6310534009531228 O
   0.4963991970574926    0.8109619983311698    0.8705181558907764 O
   0.4751696504438537    0.8101447023266110    0.3683326416160621 O
   0.5147218627938711    0.3117136375563990    0.8878334536030900 O
  -0.0136878693885301    0.5645387728001562    0.3530248987378803 O
   0.4872443372794492    0.3132567699757819    0.3767352841001477 O
   0.7578491490348783    0.5603836460741312    0.8714844132318144 O
   0.7290343883463751    0.5624248026637293    0.3879836988601281 O
   0.7624640409319086    0.0588852567932643    0.8716545723276167 O
   0.7242311260890183    0.0624409968924094    0.3885645250659846 O
   0.2712621656762525    0.5583635234202744    0.8699969299666642 O
   0.2244954655011978    0.5595671585534427    0.3974680572911282 O
   0.2249194404266181    0.0601847154701025    0.3924422776241708 O
   0.5084106185485922    0.1894595556973832    0.1416898030939947 O
   0.0285192941501799    0.1733954476757416    0.9619383843952451 O
  -0.0168778665559914    0.6901010472488234    0.1232140997434060 O
   0.5427534144448252    0.1790964835850760    0.4556504314603424 O
   0.0220256650407868    0.6723421335416281    0.9640692533524128 O
   0.0365114850189726    0.6703285866738180    0.4628952944219770 O
  -0.0338455746283261    0.5623034632204660    0.8606744713509815 O
   0.0407433784641842    0.1718506176281374    0.4607336534578807 O
   0.9499384818429586    0.9217581946093090    0.7872845371278149 O
   0.9534988839236143    0.9189453317933188    0.2890601588279857 O
   0.9600827434392261    0.4286710269946895    0.7831516446022572 O
   0.9588032017198391    0.4221397888028381    0.2866414976275709 O
   0.4588086567749345    0.9281427141125768    0.7820312049043552 O
   0.4586792917931161    0.9292200619484576    0.2827933493256615 O
   0.4386146147980009    0.4367273956754284    0.7978363890979630 O
   0.4491769984305092    0.4470006979095882    0.2950056616585677 O
   0.7857039114543172    0.6981806002856409    0.7971538006993629 O
   0.7866038492476245    0.6697647888974018    0.2960711543700558 O
   0.7849129840602295    0.1944377336246012    0.7957899481510320 O
   0.7883940138757780    0.1678484707625086    0.2949628898040749 O
   0.5353022558026774    0.1735491918720898    0.9570702264694382 O
  -0.0145477990202775    0.6914779292706120    0.6187836077305701 O
   0.5380076518876719    0.7026137938821907    0.4628740351381773 O
   0.2846305056665834    0.0399715623654067    0.0351836632417422 O
  -0.0162875923696658    0.1917857847389370    0.6198462831435180 O
  -0.0183338055300574    0.1892525439590258    0.1156804879484502 O
   0.7247708614876767    0.7975474561985839    0.7085449960793355 O
   0.7211828316135640    0.7978792787588758    0.2149754593577325 O
   0.7248163619325824    0.3022837311170034    0.7082867013448209 O
   0.7237521063009507    0.3027876099385529    0.2112049117639387 O
   0.2229581060813321    0.8007225317275161    0.7084026958225867 O
   0.2371071504090941    0.7893516982336471    0.2069174091114976 O
   0.2231000344842661    0.2891708545060551    0.7094626060029646 O
   0.2273519318070875    0.2933324347968422    0.2100290072387107 O
   0.7786025141951541    0.5497183476121899    0.5356269256191813 O
   0.7967917018348211    0.5520836653688297    0.0432078856173987 O
   0.7760085112150648    0.0525542770308071    0.5388657878904840 O
   0.7887085571972822    0.0493238703877493    0.0419622915698919 O
   0.2832136762199212    0.5404735757805267    0.5379857398563832 O
   0.2747472747962690    0.5314593233197077    0.0373115923449836 O
   0.2806976844295898    0.0492957043294433    0.5337055029944634 O
   0.5336879382490759    0.6966740050223521    0.9644077733020738 O
   0.4910428940976144    0.0620735476937645    0.3585437559353333 O
   0.7737870277302087    0.9238630904259654    0.7883564144198726 O
   0.5224617426908391    0.5620708529882371    0.3879743066845688 O
   0.2972776767268007    0.3297423188138062    0.0403321051832823 O
   0.7247276400271341    0.5748744820787689    0.7102221285561178 O
   0.7090146714941852    0.5762116987373715    0.2066686709320897 O
   0.7142809365210098    0.0737027900774595    0.7119661632493832 O
   0.7073463077326364    0.0756768605512189    0.2071897843244022 O
   0.2115735305290403    0.5776072656571322    0.7071278211452697 O
   0.2190045639258302    0.5726899235679240    0.2048462741847043 O
   0.3060800863425605    0.3304047918033446    0.5463836720129707 O
   0.2136977110218452    0.0753276307131854    0.7050214763772015 O
   0.5434807633340579    0.7996436627839227    0.7111058438043587 O
   0.5412463489501576    0.7995994715264876    0.2142946328027099 O
   0.5540305619050750    0.3299294165711418    0.7031810141268808 O
   0.5501218491569234    0.3358474446645584    0.2069683312370383 O
   0.0528319362577888    0.8129309235990324    0.7056522865115050 O
   0.0614047570961584    0.8093200824265728    0.2071218572460814 O
   0.0495367439453248    0.3053585438383854    0.7054402505517224 O
   0.2181892260149576    0.0784317640679481    0.2044976347629867 O
   0.3041072472010108    0.8310722604346525    0.0394759696487370 O
   0.3038329414876809    0.8302713623793728    0.5431801848587783 O
   0.7943101042476062    0.3221249690142001    0.0397708038679658 O
   0.9664980100374452    0.2000280743190512    0.7899981308396123 O
   0.9619827004916798    0.2082319849472785    0.2935990620196832 O
   0.4476456170191557    0.6682314106100883    0.7958267521392686 O
   0.4669482240980579    0.6703776551858158    0.2927715826653124 O
   0.4605836867106862    0.2164151934821951    0.7899707697976385 O
   0.4666087099323168    0.1985572088657829    0.2859726995672996 O
   0.5278358071440984    0.9497170463360949    0.9533928582020226 O
   0.5357703071260347    0.9410626255448963    0.4525889890235394 O
   0.5321080749211868    0.4344749517591653    0.9661971430841413 O
   0.5344921273109025    0.4307757532109201    0.4620778395788047 O
   0.0214713154951073    0.9549068280324824    0.9541489792819653 O
   0.0288526892600527    0.9619977633451461    0.4550505623033398 O
   0.0184548922667044    0.4574898839460679    0.9530083137337390 O
   0.0291784300522873    0.4671108040403983    0.4530833714598388 O
   0.7922378492535245    0.8234213957503408    0.5402834776467668 O
   0.7912112032459871    0.8249133914919354    0.0426346728783254 O
   0.7975189288421576    0.3256988276341860    0.5414523086427292 O
   0.0543578829633860    0.2980036718469265    0.2053623134518229 O
   0.9551680983926102    0.5577820460707549    0.5446167233332255 O
   0.9695181984869344    0.5498967621675581    0.0469743801167476 O
   0.9535089194032075    0.0601537576235481    0.5455371902272156 O
   0.7325318917028970    0.9391910332184426    0.6348405968557245 O
   0.7354138455138312    0.9367384202997030    0.1394508387862388 O
   0.7258557406926909    0.4404309012391632    0.6348054374559691 O
   0.7299677961846835    0.4381499562686864    0.1369965779229460 O
   0.2247876728282146    0.9386930743228982    0.6343752682950992 O
   0.2309921074963506    0.9371785470066444    0.1362767850346753 O
   0.2297143393922599    0.4381924519856847    0.6384321451091580 O
   0.2313517347719630    0.4352232488908062    0.1377938459481918 O
   0.7798823310792995    0.6882984718591041    0.6123468269123743 O
   0.7793496040156389    0.6879285819336168    0.1176246578358388 O
   0.7765104838124961    0.1899813067902057    0.6155958558283638 O
   0.7773388219286764    0.1884141500412595    0.1168464962261347 O
   0.2751161433085905    0.6883303536447527    0.6108727958947466 O
   0.2849601241148214    0.6873748085291932    0.1037705169880617 O
   0.2792836951649814    0.1875282393331827    0.6096252561426510 O
   0.2821939430736338    0.1862187682095129    0.1081789372655418 O
   0.4990736574699416    0.5595345178847146    0.8934373914313736 O
   0.2761552505841465    0.4488779045212186    0.2888151972216964 O
   0.4675304178204890    0.0631384896493825    0.8561520157820387 O
   0.2690563064344220    0.4378263589238076    0.7819917055571611 O
   0.2758932754212278    0.9438847407113206    0.7862353723706282 O
   0.9629747988391625    0.0481518620990310    0.0456597006105787 O
   0.4674877172812336    0.5683717072279714    0.5353581411789952 O
   0.4602661557373863    0.5704599055028643    0.0354085175630686 O
   0.4692110407732271    0.0650078802784580    0.5411042720199521 O
   0.4697263846264354    0.0569092599032802    0.0458534402774773 O
   0.7140144583243432    0.6762430825337793    0.9676035443472197 O
   0.7146676745166869    0.7020803295701733    0.4653562379345672 O
   0.7150726140240841    0.1788212600407048    0.9661426018163207 O
   0.7182959513010323    0.1994283045364769    0.4638897187321673 O
   0.2007652544963989    0.6822169651456487    0.9617969310916672 O
   0.2118392810129807    0.6992682412000367    0.4686572837504136 O
   0.2102110959401091    0.1993019829488452    0.9641634755414210 O
   0.2175332238054186    0.2032568756441429    0.4668798824104346 O
   0.2726691415934104    0.6811682722588236    0.7915012288727598 O
   0.7761192854766218    0.9484802433429841    0.2845493988989901 O
   0.7766714799433587    0.4334937309469791    0.7869331781627318 O
   0.7805744861304379    0.4518729999689396    0.2834522876976145 O
   0.2768994294218453    0.9434888767206442    0.2868987246664696 O
   0.2852510083375107    0.6644316062274893    0.2998833162793154 O
   0.8818861067115611    0.8288404748531503    0.6554451104887290 O
   0.2856496880358109    0.1723332441662255    0.2968637974850630 O
   0.8683376491621372    0.9153277794586674    0.9005797381682252 O
   0.1255233735530977    0.1956452845184067    0.3464514456062698 O
   0.1206995710602605    0.1760786756207099    0.8496798169944527 O
   0.1243130640930828    0.6932594716889205    0.3538080045366438 O
   0.1193752128428821    0.6682887443867964    0.8518871523110950 O
   0.6233820999330199    0.1980903372075684    0.3461953007622305 O
   0.6199237879723664    0.1682705097464120    0.8461314379275956 O
   0.6242067892700989    0.7032540499619240    0.3505205457081961 O
   0.6185319161680548    0.6749322773772195    0.8486909803324933 O
   0.1234752438880537    0.4354732265551180    0.3378846497337528 O
   0.1195114715243169    0.4519717509325730    0.8399528569662721 O
   0.1212673524642449    0.9305702241217076    0.3367599927548564 O
   0.1181641411310717    0.9451072773945267    0.8349695544189285 O
   0.6214844512738477    0.4298851829608651    0.3349744029006220 O
   0.6160166063376181    0.4456857060263854    0.8387433472024813 O
   0.6201732574118203    0.9272739370418244    0.3376095229589894 O
   0.6172357720681794    0.9502293756547296    0.8429821428440771 O
   0.3740818553173231    0.1777569811933495    0.4110416805764831 O
   0.3712800065175796    0.1924389172756696    0.9080198295815013 O
   0.8706907295526635    0.9499736364684651    0.3968132133274375 O
   0.3753471953206706    0.6715742114409610    0.4130615902130710 O
   0.8668310540588474    0.4141956706950116    0.8951391496344346 O
   0.3665275044152516    0.9319045615703299    0.9046016535655370 O
   0.3810634215182246    0.0468911955921476    0.1514971406704789 O
   0.3754189929063250    0.0438559440509466    0.6501284510193420 O
   0.3778662881795644    0.5501461201076021    0.1522750958128876 O
   0.3738750376189853    0.5544864108994344    0.6600603314410299 O
   0.8805686939699598    0.0500857587781289    0.1595780237638149 O
   0.8767225347962854    0.0513977633495756    0.6594854772440175 O
   0.2836560912617201    0.1730053782492355    0.7944671228465582 O
   0.8764481532307965    0.5467938468827488    0.6534713497123728 O
   0.1308072188789840    0.2967614733159442    0.0903445518790856 O
   0.1317975267571370    0.2996877430910876    0.5885868809149277 O
   0.1321156434612448    0.7975675195973401    0.0927427204509634 O
   0.1301437904209356    0.7997635224284778    0.5872451686383934 O
   0.6311097684129754    0.3022327158692557    0.0911998436617283 O
   0.6281242129518970    0.3015298275489809    0.5920978685109989 O
   0.6337646289397515    0.7959843680379588    0.0999253396024410 O
   0.6304038812269270    0.7974358052798811    0.5958305393351758 O
   0.3718857063472965    0.4504271029789990    0.4084565816859611 O
   0.3684463844998506    0.4256610981786760    0.9120876058328357 O
   0.3692598828979082    0.9485566452750487    0.4008112839483109 O
   0.8714206915197379    0.4437241647947432    0.3967452670861823 O
   0.3706933184699365    0.6941890637970425    0.9155049748759178 O
   0.8771048460159294    0.5482495231819007    0.1608984250153887 O
   0.8705223026992310    0.2018565976680941    0.9073133102402906 O
   0.5398966517465139    0.5553682623549124    0.2057719583425822 O
   0.5455294424827711    0.5559974988482037    0.7058983386862616 O
   0.4733379730049468    0.2996133242781433    0.0387964991008084 O
   0.4726776169083785    0.3015711819377540    0.5375247381669878 O
   0.4796436880526465    0.8303261446263629    0.0415382462715866 O
   0.4807485790470953    0.8259564573823985    0.5408712027063004 O
   0.9738679409412226    0.3244762565517511    0.0379670941298127 O
   0.9765498599711089    0.3230023607338484    0.5348224002513459 O
   0.9713837285497083    0.8264738794233961    0.0420179724809993 O
   0.9729491579135631    0.8181337447392462    0.5351945510763889 O
   0.1929737610114293    0.4129111221001054    0.4544955946638735 O
   0.1878625930892326    0.4275862719897519    0.9494564065540843 O
   0.1950887045911734    0.9128625063125992    0.4537243380090626 O
   0.1923090948229822    0.9203126091073957    0.9534134152451273 O
   0.7089863492926632    0.4141619630881892    0.4530435953869340 O
   0.7085155369606579    0.4466695806603372    0.9590584135291119 O
   0.7082548050533714    0.9197836661074611    0.4552029615409625 O
   0.7102461262972147    0.9454931724595607    0.9604676710343681 O
   0.8751294525330862    0.1825530815190649    0.4083669167587409 O
   0.5321142375753313    0.0703050368986805    0.7152050306360355 O
   0.5364533112847206    0.0609108833680438    0.2179051380888282 O
   0.9634942518746807    0.7092151772092763    0.7917492538268459 O
   0.0350559235642510    0.5679790813259549    0.2180343965156911 O
   0.8739403562247239    0.6820656500596958    0.4124171794282677 O
   0.0313346352924077    0.5763201650537767    0.7132828345582103 O
   0.8693419286091900    0.7033459122152541    0.9091044680016973 O
   0.1293373002666802    0.0790477606546442    0.0930135811987248 O
   0.1251882254679709    0.0805849038109379    0.5912181320936218 O
   0.1264583149315481    0.5835190966268071    0.0978563129896879 O
   0.1267314214373877    0.5783542727359340    0.5903527154098618 O
   0.6314696655196360    0.0766242036520002    0.0953113786550496 O
   0.6270345798196009    0.0812593392167032    0.5983205958355126 O
   0.6250109834111134    0.5806101334672117    0.5961890661572034 O
   0.6280328005757722    0.5745768128813268    0.0896579590001220 O
   0.3774751864771363    0.3255506409380796    0.6644885558862960 O
   0.3837340686787445    0.8314356899572367    0.1537810362223620 O
   0.3782803243912916    0.8304829316977337    0.6559583929832793 O
   0.8810674299030299    0.3297074726536831    0.1558883847779416 O
   0.8810695530034599    0.3336917068066634    0.6511442077883403 O
   0.8820668235500213    0.8269877632507820    0.1635346259823099 O
   0.9600127833172409    0.7136185380147265    0.2954297563547053 O
   0.0401056118640683    0.0754321703134693    0.2149490995678707 O
   0.0397533682163764    0.0649759428334545    0.7127560310673375 O
   0.3812817257442558    0.3227425899672537    0.1548085761161788 O
   0.1230072062503662    0.1857435590515602    0.7455748385539686 Sm
   0.6248657581219751    0.6835335824225223    0.2480748955661709 Sm
   0.6128073337953032    0.3065056248049854    0.9805276109873999 Sm
   0.1250682144471118    0.6908682671161321    0.7469381733965400 Sm
   0.6253563513963266    0.0619884037873836    0.9928626169505294 Sm
   0.1167916884914383    0.5571833578791467    0.9934742357567099 Sm
   0.8598634039682234    0.3117019828097716    0.2641540459600955 Sm
   0.3680786170252137    0.1918856408202453    0.5191767282346783 Sm
   0.6453662022676275    0.4424123550304461    0.7318233185843966 Sm
   0.1072570143903648    0.3076396879937270    0.9831390531237096 Sm
   0.5072403144593808    0.8174752764651039    0.1305541644769584 Ta
   0.5002914975686397    0.8160943603297913    0.6292129519771388 Ta
   0.2493222035011058    0.4352841175203263    0.3787529397360823 Ta
   0.2454955738253140    0.9316007035484789    0.3748502394181898 Ta
   0.2423310033531226    0.9328835937050548    0.8733777864183414 Ta
   0.7452078835118030    0.4387832197527823    0.3728732318312232 Ta
   0.7400110964949803    0.4327172312645868    0.8748492603323544 Ta
   0.7447888436382321    0.9397153014632013    0.3721768221920722 Ta
   0.7430740642470214    0.9325800841725267    0.8745685745891789 Ta
   0.2471339665011347    0.4342050342793355    0.8738251631361725 Ta
   0.4953173600154368    0.3162259725032646    0.6279305838399969 Ta
   0.0038240673545063    0.8168909496181334    0.1305898587395814 Ta
   0.0063515847889152    0.8170919767101334    0.6251033738114128 Ta
   0.0042839825248410    0.3176668765353940    0.6249453417799093 Ta
   0.0039409917512705    0.3157577934370507    0.1266975056343054 Ta
   1.0026306995782992    0.5662420538442861    0.6253955509326922 Ta
   1.0013616693168301    0.5652786619494975    0.1302928976735441 Ta
   1.0022679742173950    0.0668719698937521    0.6270929689192288 Ta
   1.0068373230759007    0.0667643132695371    0.1256517874591207 Ta
   0.4989189512790592    0.5662527896387266    0.6257106576402967 Ta
   0.5037802878376171    0.5656112279266294    0.1227760140802139 Ta
   0.5027075160611907    0.0666820553484055    0.6273360334437736 Ta
   0.5101258090213484    0.0652772227508029    0.1295216919491251 Ta
   0.2484378491746475    0.1846555463691010    0.3807267920086541 Ta
   0.5038751417214974    0.3168717659320802    0.1261939619741069 Ta
   0.2472036343837406    0.1830140272097592    0.8787749429421676 Ta
   0.5020322758923371    0.4378867524270321    0.3735964833960766 Ta
   0.2491400040699990    0.6820695482519591    0.8806435254530045 Ta
   0.2514627500284021    0.0660675236904077    0.6215573721483061 Ta
   0.2554832385873236    0.5686197471998365    0.1181238519830509 Ta
   0.2521229830290565    0.5659534916405593    0.6215314447411923 Ta
   0.7582991962888619    0.0626292076920387    0.1279018769303002 Ta
   0.7542714323425208    0.0674546248833507    0.6281751813183729 Ta
   0.7531887500522163    0.5638801380576135    0.1246386069727123 Ta
   0.7524330008559965    0.5667471984072170    0.6210893560589887 Ta
   0.2522141034518857    0.3162522098465161    0.1205956618597306 Ta
   0.2505388259807077    0.3173741404353371    0.6238045060754709 Ta
   0.2551173288698326    0.8169344261939173    0.1201600241779712 Ta
   0.2507036474702913    0.8160106545966508    0.6213964902186861 Ta
   0.7523127309995737    0.3132193606285554    0.1219670263181063 Ta
   0.7494869696149130    0.3178695816973591    0.6219698921671174 Ta
   0.7559142875422704    0.8130385291562672    0.1283936408940128 Ta
   0.7531967264256133    0.8166263080108852    0.6235344899764774 Ta
   0.2580314195857468    0.0662647048016407    0.1207478949813109 Ta
   0.2509698237792740    0.6833205678512728    0.3851416828489794 Ta
   0.9963522911706573    0.6831106248259938    0.3773403297908600 Ta
   0.9978988630069041    0.1835433615163671    0.3760494114339571 Ta
   0.7480215483669350    0.1896189612380648    0.3768548490021750 Ta
   0.7437594386016388    0.1837473683548906    0.8782908861804546 Ta
   0.7497766344613138    0.6889568114727419    0.3807704298689052 Ta
   0.7449852488936121    0.6839410259104948    0.8802305076725738 Ta
   0.0043034577838259    0.4336185877671718    0.3702886341971683 Ta
  -0.0012868465743493    0.4320593043074712    0.8675538657454156 Ta
   0.0015459621280905    0.9320464134562262    0.3711365669595924 Ta
  -0.0026649557616141    0.9302044885665063    0.8684700314034672 Ta
   0.4943362569695201    0.4342258902609396    0.8743753796649281 Ta
   0.4966786514671839    0.9341368987569482    0.3684101566990473 Ta
   0.4924780805378958    0.9363834525368326    0.8675325625422847 Ta
   0.4955356772152617    0.1857713269827745    0.3745315078863230 Ta
   0.4933472817825026    0.1848910047594792    0.8721892832968472 Ta
   0.4973089500566631    0.6849589771084971    0.3797928910216071 Ta
   0.4929328025492578    0.6836823508870514    0.8757716065921285 Ta
   0.9914629562547096    0.1815518178010511    0.8752942649829245 Ta
   0.9916559042520203    0.6822000219702511    0.8754858551289129 Ta
