Hf27 Zr27 Ti27 Nb27 Al72 V27 Cr27 Mo27 W27 C144
1.0
   9.2496741081754461  -16.0217735985657974   -0.0029458125694090
   9.2511552764229119   16.0226287874556519    0.0020517114880463
  -0.0009034013765241    0.0029162550780065   18.6630066805423027
Al C Cr Hf Mo Nb Ti V W Zr
72 144 27 27 27 27 27 27 27 27
direct
   0.3394733184115685    0.8352883855944531    0.2478121233985360 Al
  -0.0292537591840459    0.1679463665277545    0.7525299674319711 Al
  -0.0070061745493515    0.3388333276487724    0.7491264077465831 Al
  -0.0063619668591150    0.4975190333202429    0.7446953220656807 Al
  -0.0011426239566521    0.6659456509406155    0.7468649008022685 Al
   0.0025076043141336    0.8322097333753871    0.7468440480223334 Al
   0.1518027830001481    0.0017245894798380    0.7454445742887323 Al
  -0.0163688796156849   -0.0311988241459148    0.7464957211712306 Al
   0.2092745263312203    0.1877443448667656    0.7515691563130276 Al
   0.1553082823823899    0.4599306535479868    0.7455490090637805 Al
   0.1424276429213844    0.6471270841400730    0.7568320944862761 Al
   0.1518520422901380    0.8390484176465026    0.7439738645536352 Al
   0.3588460460150122    0.0020454547661413    0.7564973980436086 Al
   0.3292045988159498    0.1379979849137477    0.7606078859620764 Al
   0.3416428151417158    0.3510146471469575    0.7552948169713395 Al
   0.1786648006459366    0.3258736357260049    0.7499103533976891 Al
   0.5004504890511960   -0.0229916096878510    0.2420095106137330 Al
   0.5123515499659532    0.1952560968898296    0.2410333310490762 Al
   0.4703161386825938    0.3167387716317248    0.2434566278006606 Al
   0.3399744372732327    0.6638963806741900    0.2507079011234180 Al
   0.8190575703111042    0.8254358993677395    0.2456044417995691 Al
   0.8456420069852673    0.6745449986161056    0.2501900935376810 Al
   0.8120915685356814    0.4968532520112297    0.2424348962349814 Al
   0.8513301212082409    0.3430581143363452    0.2447614084382336 Al
   0.7976372352835944    0.1434284196763884    0.2441255506551193 Al
   0.8317155108543831   -0.0138441803048364    0.2536179748540717 Al
   0.6645350408485553    0.8316737727764012    0.2569543556561846 Al
   0.6576069255191825    0.6739935934119892    0.2541443413496146 Al
   0.6834812023545378    0.5398732113868231    0.2494886380861325 Al
   0.6899871556895283    0.3135052174336728    0.2362602483478089 Al
   0.6600273202331185   -0.0209799765683292    0.2400486644616339 Al
   0.5038463425517822    0.8321643700218085    0.2481531488842634 Al
   0.5062083930862513    0.6795565944375178    0.2462900338173909 Al
   0.5187772947145585    0.5132057411094729    0.2424590872470574 Al
   0.3122334869675286    0.4852699867100070    0.7549183445328324 Al
   0.3133075334498542    0.7035467866739838    0.7591530398905527 Al
   0.6393228493267590    0.1499199080169694    0.2367438664136934 Al
   0.5202381374615087    0.0147994764885911    0.7371929106663171 Al
   0.0223362532345754    0.1625224030657114    0.2638418739880359 Al
   0.0101408755167022    0.3491170124816405    0.2484445552352791 Al
   0.0139097085442401    0.5028928268135696    0.2495609699281440 Al
   0.0082854489495878    0.6816430522661274    0.2490090906443700 Al
   0.0007523055449115    0.8276970384149669    0.2484283442620936 Al
   0.1547651081299795   -0.0076703071746910    0.2508164218504372 Al
   0.1719049219327875    0.1476127183504515    0.2415895689683195 Al
   0.1663626431248224    0.3342193816298885    0.2492112828764573 Al
   0.1612075252252794    0.6671396330573289    0.2526598056172850 Al
   0.1674402450271903    0.8253215361123392    0.2520148374693729 Al
   0.3107901122011889   -0.0152628335650462    0.2465736267375055 Al
   0.3364814570650393    0.1613520948435279    0.2458460219568275 Al
   0.3115812598398401    0.3223547641412665    0.2395566671151400 Al
   0.3217286298680612    0.4944712223482851    0.2480413363093937 Al
   0.3730075504216841    0.8666670795957310    0.7580623108332416 Al
   0.0114016758002093    0.0062715110544364    0.2490038576406530 Al
   0.8298226964219743    0.8269786103351581    0.7512074429682862 Al
   0.1770753613725613    0.5154699240759076    0.2493250259186391 Al
   0.4929066248035487    0.8165491189391998    0.7586014031309429 Al
   0.4775722875986806    0.5219131817809279    0.7547524391516525 Al
   0.5324770629970229    0.6903797263797790    0.7618515668600289 Al
   0.6474810990313514   -0.0285295356843880    0.7388229583503757 Al
   0.6638547873754165    0.1742862436718970    0.7555724920544602 Al
   0.5064694346974891    0.1599417502587670    0.7456175544337330 Al
   0.4978336399452307    0.3156182214861001    0.7465738243580936 Al
   0.6909234244789962    0.5068178310986869    0.7506869464267605 Al
   0.6759511723452809    0.3503971334073182    0.7494082570106534 Al
   0.6876991722101911    0.8392317188537335    0.7436863908078244 Al
   0.8478222335138458   -0.0010753376731167    0.7450200532730251 Al
   0.8150618213028825    0.1330076059447770    0.7570832665038119 Al
   0.8368168242401752    0.3510062395701470    0.7562469818320853 Al
   0.8406429377906083    0.5036450740203868    0.7471760477181939 Al
   0.6678029237841837    0.6641210674767755    0.7535282941474595 Al
   0.8457849188770171    0.6697739434701179    0.7542792104038583 Al
   0.8882155451681302    0.6129735756476229    0.4268085777667653 C
   0.8924432880859356    0.4463416392410408    0.4298685063368846 C
   0.8969608251785709    0.2816322120157296    0.4344051882299075 C
   0.2829830947886004    0.8900905242711570    0.9258920890236411 C
   0.7176309719582904    0.9346186268549214    0.4340533167676945 C
   0.7216633962183496    0.7776712507835113    0.4347690294084199 C
   0.8937897481744653    0.7824530213238399    0.4342379110837614 C
   0.7223804124824791    0.6125807125547237    0.4318367439178203 C
   0.7242820072056221    0.4530640535555893    0.4266064534094177 C
   0.8911780819886430    0.1071451748759859    0.4345677364454426 C
   0.8817485506239416    0.9427968865820856    0.4297122451854322 C
   0.2797018539259664    0.0557586699901654    0.9282601845686422 C
   0.1122816394545151    0.2248395748236922    0.9282050457505571 C
   0.1185511528448331    0.3929951948450882    0.9358458541610715 C
   0.1119826974301914    0.5578294134117781    0.9331973565504649 C
   0.1122534410483852    0.7216332247312743    0.9246543430166168 C
   0.1060561421829551    0.8879863212276317    0.9302373672665953 C
   0.2769640215584179    0.2246585734800259    0.9268158792747105 C
   0.2740570054340889    0.3875944338236631    0.9366441224417403 C
   0.2762914949257653    0.5570025377177527    0.9338169966785338 C
   0.7234648398347738    0.2810148930803757    0.4284495748909707 C
   0.2819583863096954    0.7201835066210561    0.9319146370490484 C
   0.1080696257333136    0.0506940096684550    0.9262894994427583 C
   0.7291460206650858    0.1105224039676194    0.4316997736480924 C
   0.2127010610514715    0.2775159962782232    0.4334395215555246 C
   0.5580880893623161    0.7777896661258517    0.4341728144569807 C
   0.9498376788651633    0.7251919286625310    0.5696245209635715 C
   0.4457579129076819    0.0535968234439659    0.9338100289022124 C
   0.0568557082685025    0.1143712588098835    0.4307356184977177 C
   0.0582049947081040    0.2797673578969292    0.4400263608310108 C
   0.0544356761440947    0.4475495406018493    0.4295081702193085 C
   0.0609612509419325    0.6156353971841927    0.4300786771631522 C
   0.0563072542648741    0.7779334122617232    0.4301237055799238 C
   0.0610165435465411    0.9423279520832897    0.4308913678148182 C
   0.2102832224923116    0.1033884311781369    0.4333156146468356 C
   0.2296181113287508    0.4507445351957988    0.4302159172346381 C
   0.2238811779024392    0.6129002429881956    0.4276105856544106 C
   0.2156867778584505    0.7732561620314784    0.4290008528106261 C
   0.2182591624196319    0.9390583114441012    0.4313608320704253 C
   0.3857588533367046    0.1064989760750503    0.4221748783573461 C
   0.3884134015925815    0.2763951048100776    0.4234373399700259 C
   0.3876817654579537    0.4490003382390332    0.4289058826963292 C
   0.3890420478581998    0.6147385512693601    0.4284468470437253 C
   0.3918195890734534    0.7791999803492264    0.4267484439454863 C
   0.3859878558680464    0.9392627259145025    0.4197676872321867 C
   0.5552145616928337    0.1094048887872909    0.4200712024033511 C
   0.5544253722711645    0.2813361391208211    0.4234966769091710 C
   0.5576410007475647    0.4512503740257129    0.4270471197414646 C
   0.5617402005170866    0.6196472179949043    0.4323188059897180 C
   0.5537469268201493    0.9336572073187930    0.4256251636785134 C
   0.4445829739535013    0.2165928316566639    0.9258533706003277 C
   0.9464882270241892    0.8848864844321429    0.5676464474721210 C
   0.4478785766997487    0.5605597172370306    0.9324635316165480 C
   0.5527593045438963    0.2740685270154740    0.0743566611240174 C
   0.5540165365603912    0.1065190148884754    0.0717450964335757 C
   0.2780055013885573    0.5483384222338685    0.5791533633619375 C
   0.2762393634526676    0.7206313798535940    0.5784558769412635 C
   0.3939140342642126    0.9440910193089408    0.0770367497982999 C
   0.2793976597752843    0.8945834226475012    0.5757649752319367 C
   0.4453037200114027    0.0510082566738385    0.5648232347110513 C
   0.3913492634787251    0.7769674356925321    0.0743376629638339 C
   0.4457456895541015    0.2229236499901952    0.5718105406065834 C
   0.5557835602701123    0.4498865092041983    0.0744179038031928 C
   0.4448017029561175    0.3927423158592971    0.5740601242568201 C
   0.3892348250097878    0.4458726192357395    0.0701497601569606 C
   0.3874420416206819    0.2805605060265997    0.0731699793324886 C
   0.4469660212719271    0.5594619205852516    0.5723939640582562 C
   0.4480492717031005    0.7283794742491009    0.5724535364191885 C
   0.3909220555407570    0.1119474362912350    0.0760537945254537 C
   0.2243883723871847    0.9469793825361674    0.0730103783081997 C
   0.4480910388723131    0.8898161782894415    0.5694078146589623 C
   0.6068637964153846    0.0526320268607705    0.5650298607682482 C
   0.2218030751819476    0.7772115589809099    0.0801576014186327 C
   0.3935581306337125    0.6168604582596449    0.0719140954089800 C
   0.6068285242225920    0.2173948693895855    0.5681645340997624 C
   0.5515284836779039    0.6131098196770706    0.0719324885615804 C
   0.2662938991665259    0.3865231490810226    0.5693693847768065 C
   0.1118995553700180    0.0497765907082379    0.5697156078323892 C
   0.8867965429341923    0.6116211888155276    0.0715619648328560 C
   0.1112277013654378    0.2181184667108373    0.5697506657311193 C
   0.8891182556510649    0.4514493269758654    0.0717333156838128 C
   0.1070007732450881    0.3863667501499625    0.5672872128275444 C
   0.1047136924267828    0.5533320917928691    0.5715762167506756 C
   0.8847099418300055    0.2768471341453203    0.0747679831425804 C
   0.8824069312470625    0.1085290912217987    0.0710555025822231 C
   0.1105601444096818    0.7234022103574036    0.5722516252307800 C
   0.4397743475217992    0.3899959757804848    0.9293711708874891 C
   0.1089975126937680    0.8877064963535007    0.5655080613709387 C
   0.7227641292731246    0.7787311552375885    0.0734386811552956 C
   0.7222919888251939    0.6141238823143507    0.0727947082422297 C
   0.7265349919530664    0.4473093484654031    0.0744765934480405 C
   0.7187887483555969    0.2812558554820080    0.0778436989633050 C
   0.7215346375218471    0.1120621212332181    0.0762102942038097 C
   0.5502702137370645    0.9397229793178239    0.0718525991213489 C
   0.2685543407089098    0.0448167993632049    0.5676196205222306 C
   0.2671110004310349    0.2148067147448673    0.5724671021256905 C
   0.5574851047462444    0.7805847400645052    0.0712451735024046 C
   0.7184584170298174    0.9387282139835196    0.0737577009184560 C
   0.8889734278797466    0.7783501591312716    0.0698200889218311 C
   0.2288615965618047    0.6122608880882440    0.0727363871058940 C
   0.6134103072623887    0.5592583928953958    0.5675572609983940 C
   0.9415152789031647    0.3901785833329613    0.9278214460349756 C
   0.9406733856746852    0.2192262498248945    0.9302809867914567 C
   0.9417971621875764    0.0524687755002773    0.9271321161970184 C
   0.7764181652059100    0.8853544470343754    0.9287785595962113 C
   0.7777190732998019    0.7235866117321426    0.9260291813191777 C
   0.7798275427757482    0.5584236724272131    0.9305795882515302 C
   0.7778170604869629    0.3902067085821240    0.9275691576621095 C
   0.7733070114721937    0.2203693296042714    0.9295988767814281 C
   0.7823051558608730    0.0611767292694457    0.9288774029996826 C
   0.6050477215854339    0.8826629147359460    0.9289153692092871 C
   0.6074244469340881    0.7257363236326986    0.9304464890692202 C
   0.6122702911133253    0.5580530319183297    0.9260084389316695 C
   0.6145225435502961    0.3932264549936529    0.9262547880848340 C
   0.9474354948279988    0.3898300076519486    0.5675408707822895 C
   0.6133085892123461    0.2208262943076529    0.9306739521521531 C
   0.6070767257895628    0.0544116265854562    0.9291693822342170 C
   0.4476349884819816    0.8930545839534551    0.9364485679534119 C
   0.9435263129928301    0.5564881584948062    0.5663435199585091 C
   0.4450934813064810    0.7244391658781734    0.9384855186571440 C
   0.9394458417088414    0.2180463221333348    0.5645003779487180 C
   0.6163383012996722    0.3918524660032633    0.5723668110845452 C
   0.9397121009293258    0.5511364791035701    0.9277750702761184 C
   0.9401940600616872    0.0519368483924212    0.5736027105446302 C
   0.2214662897381470    0.4447867511892400    0.0702585147355469 C
   0.2314674574077358    0.2834767016430148    0.0677957455917722 C
   0.2193039943649955    0.1101764100632174    0.0755581317210890 C
   0.0512228948304236    0.9428346245229160    0.0663947406768943 C
   0.6190077013084881    0.7290248459109038    0.5637785052534974 C
   0.0516191455288458    0.7785614384096103    0.0715488902749819 C
   0.6125287122437606    0.8945617749048393    0.5648846961528766 C
   0.9404312640727532    0.7239809125421195    0.9295439179350138 C
   0.7789600384337119    0.0546661081565833    0.5624893487727451 C
   0.0532203832792430    0.6089150079946243    0.0786954875315448 C
   0.0614056335743925    0.2820621614544955    0.0702234989560364 C
   0.7786849215422220    0.2192870554218655    0.5645189833708553 C
   0.0528266879581353    0.1018636582195282    0.0668616813911603 C
   0.7820570898231053    0.3947504511417284    0.5674000929922990 C
   0.7810333745323861    0.5540187161633980    0.5698126047948707 C
   0.7806287499944556    0.7289697694109126    0.5636867189517519 C
   0.9468355489311265    0.8897980212681083    0.9347978318750083 C
   0.7783056588377756    0.8880990867213038    0.5626751326305024 C
   0.0627911504889344    0.4507663561994604    0.0680418405905974 C
   0.8884679939172002    0.9409244760329363    0.0676404813571731 C
   0.1119937545215241    0.7228963923304175    0.3793675193688911 Cr
   0.2810058346774322    0.5589189223174352    0.3763917594879045 Cr
   0.6158526594608776    0.7281439477574526    0.3820017151766237 Cr
   0.1082112334935284    0.2229322178470499    0.3856528714694578 Cr
   0.8861933696919347    0.4462198143283224    0.8757868942997289 Cr
   0.8337024602006045    0.1631578922897314    0.5005399795514338 Cr
   0.8314902277874859    0.8327748608637535    0.4982164102062618 Cr
   0.2151408822915896    0.4361247692197743    0.6221872298186855 Cr
   0.3918191398384746    0.1054352243098439    0.8783414910176460 Cr
   0.6674623929220999    0.8329847036112246    0.4971802123369289 Cr
   0.5524758521495273    0.1054952894317887    0.6175410429110728 Cr
   0.7282227643197258    0.4482814633291483    0.6216274764615992 Cr
  -0.0024556819435256   -0.0051566385871262    0.0016915638356738 Cr
   0.1611482571021275    0.3277970871178962    0.5035437846388787 Cr
   0.0031286264715758    0.8344510906886917    0.5003248931015236 Cr
  -0.0023248958742095    0.3313237816717254    0.5015386972272101 Cr
   0.2824400631897828    0.2263427553968880    0.1222613853166092 Cr
   0.6056948800250980    0.8863824009615449    0.1233529493708070 Cr
   0.6044711404439999    0.2152526512574239    0.1231553288280083 Cr
   0.4484587609566944    0.8869822934082746    0.1251625936829240 Cr
   0.1622598724390689   -0.0057216630299906    0.5012602873614995 Cr
   0.0020306817379408    0.8415330375233223   -0.0002586931378047 Cr
   0.7839196946537423    0.3970631331372051    0.1253537373446441 Cr
   0.1668897014282870    0.3348406703349869   -0.0002456686539636 Cr
   0.3946490262903127    0.9476541615953429    0.8822807954547809 Cr
   0.5498156612318283    0.7757400827658630    0.8842454550506965 Cr
   0.8871397301918668    0.1103887454096932    0.8796953176820522 Cr
  -0.0027940235186143    0.6660913923662677    0.0002854705191351 Hf
   0.3905957591008217    0.6153388117710976    0.8647011798865081 Hf
   0.5588800957854694    0.2748745771112000    0.8636737075647499 Hf
   0.8325303002203978    0.3342161055340005    0.0003048498543214 Hf
   0.6649041282113722    0.6682734792722931    0.0007976316240248 Hf
   0.2678225746311689    0.2178177365883866    0.3640327174063622 Hf
   0.4998479576752708    0.3365703097883133    0.0000880840173944 Hf
   0.1663602228264649    0.4993143321744038    0.5011976066854728 Hf
   0.7291509012290101    0.6164601932166667    0.6322056941435142 Hf
   0.4414209309734820    0.0521767219239625    0.3519203635249784 Hf
   0.3354390942024220    0.8332459801741663    0.0044301325695565 Hf
   0.7160962839153235    0.1039227441789454    0.6331332198618993 Hf
   0.3342787910240032    0.6677406629741005    0.5037478732837056 Hf
   0.5580765085868526    0.4487228525617609    0.6395733135495316 Hf
   0.0583650138516618    0.2821763810820883    0.8645878332641954 Hf
   0.3803400546293598    0.2727190602507694    0.6400186285106044 Hf
   0.3875751464120581    0.1030033736011848    0.6325938812911659 Hf
   0.6134977910202083    0.3961268786273393    0.3542446778089747 Hf
   0.2246043965194512    0.7815499148944580    0.6455605623970656 Hf
   0.0538704651961983    0.1082319042139395    0.8574053467866620 Hf
   0.1661905531126025    0.8352531522919869   -0.0003241803229114 Hf
   0.7798415804768184    0.0463198681738470    0.3684713566762118 Hf
   0.1676748043010752    0.6657615260086978    0.0038347574438402 Hf
   0.7821833874143553    0.3951917104328957    0.3635683666732715 Hf
   0.1654157553269475    0.1650079972585322   -0.0030785995562713 Hf
   0.9485870332781026    0.2208403510727687    0.3669184880404960 Hf
   0.2252444464864501    0.9479762073521067    0.8615701743738663 Hf
   0.8347977709209371    0.8354684210321516    0.0000354841541673 Mo
   0.7716585256511236    0.0490386842737156    0.1319810580462516 Mo
   0.0496018111161509    0.6083640685820317    0.8681120108488972 Mo
   0.2793830500423927    0.3925058207278089    0.1299171592151064 Mo
   0.9484212124715866    0.3910184326674829    0.3699988116954791 Mo
   0.2217182470030895    0.1080962702464387    0.8671338114772853 Mo
   0.3355781828213782    0.5041359706609251    0.5011340329830459 Mo
   0.2251084077222546    0.2835071652068897    0.8697159267819202 Mo
   0.1090200115291536    0.7222098542555162    0.1375926516120408 Mo
   0.2810736346981395    0.7203116588416674    0.1388474250916150 Mo
   0.3297113675270214   -0.0046066596045992    0.4974229219183709 Mo
   0.2804467115682628    0.8893229099027883    0.1359789499449286 Mo
  -0.0013654056556917    0.5008309744309034   -0.0012495666092293 Mo
   0.1622107593179798   -0.0017286057780322   -0.0009549810283972 Mo
   0.1160272515671649    0.5572505642207976    0.1338407240614798 Mo
   0.6160456089089079    0.5651650966882861    0.3692344298720291 Mo
   0.2812383438124318    0.5581896184895719    0.1341545665351834 Mo
   0.7268212630311001    0.9454886087033085    0.6243931549960987 Mo
   0.8355298875571260   -0.0008377285270309   -0.0033738599847071 Mo
   0.2188205358937567    0.2767579112674610    0.6317713321698146 Mo
   0.4425776586385405    0.2200754505309314    0.3630845046675680 Mo
   0.8891653852020989    0.9408906135599784    0.8705722083864210 Mo
   0.8861602729437701    0.6085658819516540    0.8656122438667153 Mo
   0.9429491682603512    0.5571220015423372    0.1392786937838093 Mo
   0.0032915854465446    0.6716149115397565    0.4978734949936943 Mo
   0.5554145963156285    0.6150788291039534    0.8707095012758960 Mo
   0.8825830651042512    0.1053715216633007    0.6283055443850128 Mo
   0.2293369878627194    0.7776985546051272    0.8584022841406725 Nb
   0.4981439753842974    0.1640719831759835    0.4941168363076596 Nb
   0.4985829116203478   -0.0040723107813513    0.4914504897263380 Nb
   0.8832248434469320    0.2721643080060426    0.8646541325986430 Nb
   0.9496121571875022    0.3979643105687967    0.1298868178855865 Nb
   0.3824360675452223    0.2734164714369934    0.8616919371324516 Nb
   0.5015357103714417    0.3363761776725519    0.4984724719143963 Nb
   0.5480591924607988    0.9418778817510519    0.8645713153763024 Nb
   0.4484834765439809    0.0560777535359792    0.1406060279271243 Nb
   0.5626354301545992    0.6188974835597121    0.6310443333301208 Nb
   0.6671468091972348    0.1656236375145008    0.4967363334252765 Nb
   0.6686957071938218    0.5028201371857575    0.0019199402489557 Nb
   0.6656689282149478    0.3336564052273653    0.0039273528839493 Nb
   0.6639275608782855    0.1655604529877170    0.0036936460562337 Nb
   0.2680366254915336    0.0487747745392886    0.3665919008443845 Nb
   0.3808588066879190    0.4458095302896555    0.6323381255881838 Nb
   0.8932043071545133    0.7808611411552295    0.6328309923807875 Nb
   0.3338893814563496    0.5042441218460498    0.0036404495588334 Nb
   0.0491289262522520    0.7741183544417645    0.8646109338724004 Nb
   0.6104225119121003    0.2246230141889450    0.3616719481678620 Nb
   0.6682443747865594    0.3375918643163794    0.4974148334514740 Nb
   0.3373451735373204    0.0009869601046869    0.0042397570990559 Nb
   0.0034739479587080    0.3354420817547167    0.0006890859372720 Nb
  -0.0025399454129273    0.1636792778453789   -0.0013008850081119 Nb
   0.8382416782981758    0.6702560327070380    0.4995480758386192 Nb
   0.1107863528143241    0.8885063673455103    0.1336356195384978 Nb
   0.7769995449750995    0.7224377866720583    0.3681793100815534 Nb
   0.2159436019861334    0.1018316887625512    0.6275225858813788 Ti
   0.3935208214185653    0.7842197404129029    0.6319497523723029 Ti
   0.2753291691899963    0.0559265792831067    0.1317648256442539 Ti
   0.7183797121638170    0.7762359171207341    0.8699541545133287 Ti
   0.6103152539454910    0.7244169240306173    0.1303006563481280 Ti
   0.0494113867370935    0.6098512947612212    0.6269475374541829 Ti
   0.4413182454706155    0.3919448542720952    0.1296537039855780 Ti
   0.8327733947792769    0.5011888786050540    0.0006087917688060 Ti
   0.7192063503064444    0.1122334362717193    0.8713126898617332 Ti
   0.8321697434682597    0.1661904758029741    0.0031996804288274 Ti
   0.1103278501324639    0.8853516606579100    0.3720599701313961 Ti
   0.2741308823210316    0.3902233582738778    0.3727924892551522 Ti
   0.2756626651343693    0.7205233749084514    0.3681660944843620 Ti
   0.2711658969002657    0.8825142019980506    0.3701446478182440 Ti
   0.4489712477997966    0.7257871320647845    0.3712382048988743 Ti
   0.8352136770968465    0.5028640845407598    0.4980288168758451 Ti
   0.6667250390224730   -0.0022778197620169    0.4971433931067011 Ti
   0.0508088222683596    0.9406742278278962    0.8721868534246194 Ti
   0.2222750786917004    0.6100750388661986    0.8755957063836342 Ti
   0.1647984169851505    0.8321620279003639    0.5025701296722607 Ti
   0.7757634778189886    0.8867029528799074    0.1281606279023507 Ti
   0.5515847102667615    0.1074704414953898    0.8726271134007152 Ti
   0.3945494711945257    0.7818623420712868    0.8798027461367978 Ti
   0.9428936108598621    0.8855266862888946    0.1278758619002922 Ti
  -0.0002321771931370    0.5007334768191578    0.4972999797244692 Ti
   0.5575186837557167    0.2761163038725583    0.6271302286238050 Ti
   0.1643209584142437    0.6667333592967882    0.5039302869218200 Ti
   0.0556678433699089    0.7795449445685320    0.6235509229065538 V
   0.0567899308573809    0.9369314131604610    0.6229359785250088 V
   0.4447430531816117    0.8816816918248450    0.3686746732625845 V
   0.2246067869830377    0.4450201748482997    0.8806234014772775 V
   0.0506013044263467    0.4413039832727852    0.6241193646258679 V
   0.2167245349193803    0.9419867403542515    0.6243449233910060 V
   0.7228704039784755    0.2792186929216719    0.8714856735854113 V
   0.9461159715972786    0.0554775724229329    0.3759492305080268 V
   0.3956877962981026    0.9482632374395114    0.6267727651003295 V
   0.6100343442789387    0.8786577211616000    0.3752976025414991 V
   0.7779003687534263    0.5632319357720209    0.3714752518554850 V
   0.1081596370529975    0.0474213132180533    0.1229602130401853 V
   0.5546199897511080    0.9458199858301427    0.6199087561780438 V
   0.5006102902770595    0.8306238605967412    0.0054906984148617 V
   0.4993617399184195    0.6738170873089172    0.0016786447105884 V
   0.5002070575509168   -0.0020972986364486    0.0049326731969791 V
   0.3360596575713878    0.6666490875630284    0.0073493021897379 V
   0.3319630668885877    0.3373349931466371    0.0007924283734378 V
   0.1709263556216869    0.4992324374535732    0.0040298575820064 V
   0.8337859891932946   -0.0012950694717384    0.5017252635334782 V
   0.6674350325329250    0.6679440840097013    0.4975816636680703 V
   0.5039338167758642    0.8346942018743749    0.4983863223382114 V
   0.7793116082502293    0.7224203632926891    0.1285768716680469 V
   0.6101622187013490    0.5603743048235240    0.1270751969555107 V
   0.6078960678185392    0.0496189006521759    0.1274228236193614 V
   0.1615405151624335    0.1660701893409398    0.5017032951000393 V
   0.4429790846560345    0.2215019807811776    0.1269565377452779 V
   0.1079683042949117    0.0551523426321571    0.3688178283539628 W
   0.7724156026986999    0.8821066350243641    0.3711810152347335 W
   0.8842999567319746    0.9368152173947669    0.6281515472841418 W
   0.6653097126816688    0.5003747164151714    0.4991456446150339 W
   0.8911528347412438    0.4474953582644030    0.6280390842830982 W
   0.9459450149554804    0.7251144585008344    0.3713259653175926 W
   0.4440399911085094    0.5579417434638321    0.1330525812738164 W
   0.8333744271566572    0.6717035689129581    0.0004767501669057 W
   0.5001400507280291    0.6686932662284174    0.5017523436094931 W
   0.5016032759093527    0.5060706471989801    0.4990224478175741 W
  -0.0011563457574480    0.1661762049993097    0.5027128579318403 W
   0.8388458454982954    0.3351026006908897    0.4996815580252201 W
   0.3840276693853235    0.4458615308052339    0.8751227609004568 W
   0.9417888955642449    0.7233692885899494    0.1316364605701993 W
   0.5015057632553801    0.1648208758634226    0.0022942443585427 W
   0.7279532835085869    0.7816526124413821    0.6264639320042801 W
   0.4475986142896295    0.7262561509233260    0.1324901514648661 W
   0.8893620227614346    0.7806984319139767    0.8689584009776697 W
   0.1151595141017961    0.5606303072516350    0.3685114311215388 W
   0.6666429837896244    0.8346809052791010    0.0002122171781720 W
   0.1163254819939594    0.3943545946155001    0.1310178372368098 W
   0.4989534664938602    0.5032551374780874    0.0012988892923104 W
   0.7282346703576654    0.4476732536764849    0.8686678850430383 W
   0.7262753948216268    0.6122793697338056    0.8660363470134256 W
   0.7798338978072830    0.5617883431787347    0.1311064974297930 W
   0.7692654155321198    0.2238062188128926    0.1356682782347121 W
   0.8926327289488064    0.6118273343459210    0.6301997084203391 W
   0.3934597991995515    0.6149717390689050    0.6485209496460371 Zr
   0.8855935110569104    0.2736736688892187    0.6372690713789076 Zr
   0.4490195031778042    0.5644927443079623    0.3601980625426953 Zr
   0.6148258449112427    0.0485487434858551    0.3581889645030358 Zr
   0.4429694551161414    0.3935825230867687    0.3584761049184552 Zr
   0.6650902800943155   -0.0016208882242425    0.0004691275509563 Zr
   0.7218199939154067    0.2801354589767158    0.6343281768470895 Zr
   0.1147910036721307    0.3916266586549141    0.3664756244734233 Zr
   0.3332485770734936    0.1666200361181270    0.0001882825436206 Zr
   0.0557747993614652    0.2779105637450143    0.6361129515671796 Zr
   0.2150975834799219    0.6011873267199064    0.6444563478200186 Zr
   0.0548770432912441    0.1055407323661900    0.6442276231707423 Zr
   0.6147357162429654    0.3911788554361869    0.1468189020698326 Zr
   0.7241885533372531    0.9465657619205077    0.8607515171226503 Zr
   0.1196891231565051    0.2227899356482766    0.1346620389224681 Zr
   0.9414940783808543    0.0517008138052746    0.1364913394667071 Zr
   0.5539309584241395    0.4491255135717943    0.8551005460492297 Zr
   0.7824122695839475    0.2257389197732897    0.3630134243738560 Zr
   0.9427214511080975    0.2228978609632738    0.1426796554455637 Zr
   0.5649330970607642    0.7886642508785205    0.6349693272815023 Zr
   0.3293201732159149    0.1615232053143527    0.4983828472186579 Zr
   0.3297229354105091    0.3333798741765321    0.5010972869560524 Zr
   0.3315269435915042    0.8328353819962101    0.5010299555370148 Zr
   0.9431602537774302    0.8888360542527034    0.3614386657426938 Zr
   0.9494428305849452    0.5615960808287248    0.3588486592667147 Zr
  -0.0004756907806409   -0.0029627313239789    0.4997742923877068 Zr
   0.0575052081164683    0.4501356668847073    0.8651935507423304 Zr
