Zr54 Ti54 Al72 V54 Mo54 C144
1.0
   9.2454488800657266  -16.0168371399246787   -0.0015575164051405
   9.2478402996414104   16.0182177998071253    0.0023337351262792
   0.0007844438334855    0.0022703898637494   18.6822720361658341
Al C Mo Ti V Zr
72 144 54 54 54 54
direct
   0.3329165727241256    0.8346428025594356    0.2442503901459528 Al
   0.3404015988278012    0.5198128335678757    0.2473299130815036 Al
   0.3359274868601505    0.3116613822025438    0.2508447691227250 Al
   0.3230688760119035    0.1486152115793018    0.2452126168692904 Al
   0.3280945817822495   -0.0045457381046237    0.2473487570604714 Al
   0.1683663374085944    0.8335084001390485    0.2459078073513052 Al
   0.1684805157341713    0.6720612181658704    0.2476364380628018 Al
   0.3244315083517789    0.6692763992083617    0.2516165123713618 Al
   0.1691447810177579    0.5064099775208655    0.2506510344123030 Al
   0.1697568772386543    0.1514641555022953    0.2600500483016868 Al
   0.1738650838860636   -0.0044116057886136    0.2476903499172802 Al
   0.0103237794937789    0.8314639112409437    0.2481073548587715 Al
   0.0043959791469204    0.6641018043919026    0.2466904790825153 Al
   0.0001739599380430    0.5050060371191254    0.2512320157272121 Al
   0.0090055345681971    0.3546920613067771    0.2552280429133309 Al
   0.1626787796574604    0.3532694055957901    0.2487173659452405 Al
   0.5061809186967557    0.0054760739072601    0.2451597164521939 Al
   0.5017044278442635    0.1654322122604957    0.2450115981773455 Al
   0.4978067341425260    0.3383673010801883    0.2469408688208033 Al
   0.8383426268855665    0.8296870916372499    0.2467601539342871 Al
   0.8394679191883165    0.6794022205311978    0.2507467862400050 Al
   0.8414572395214169    0.4965111695816909    0.2521150743174774 Al
   0.8339030043723920    0.3255868359283408    0.2513512034830030 Al
   0.8217571631893502    0.1601727539424626    0.2557152923778968 Al
   0.7903665399589530   -0.0130329196543643    0.2459824903669106 Al
   0.6492554724126982    0.8265544540582237    0.2351908243040268 Al
   0.6791538772208953    0.6686865037573354    0.2422695328328687 Al
   0.6594376189676461    0.5014394093655294    0.2550076662064439 Al
   0.6714879475471613    0.3337561661745022    0.2528969148027549 Al
   0.6668781968871639    0.1643636515896859    0.2523143970855776 Al
   0.6561985451223571    0.0078319074955912    0.2426107141122940 Al
   0.4983709591735940    0.8472957814471151    0.2425985170729918 Al
   0.5000131958496384    0.6537163060996063    0.2440923698421359 Al
   0.4897298803583756    0.4940934623934645    0.2463413852009136 Al
   0.0156627629571719    0.2023323743268079    0.2645652229632757 Al
   0.0230144485664500   -0.0146153247859843    0.2552097555023300 Al
   0.0084869358629552    0.0057816106233770    0.7620639047810249 Al
   0.8307038701939462    0.6525736241350202    0.7605316933849724 Al
   0.3300953690436707    0.5038801658744722    0.7608023295104436 Al
   0.3263619083666593    0.3240839817560634    0.7598407050786327 Al
   0.3424730935868519    0.1797991221748923    0.7551269602187730 Al
   0.3265674909084518   -0.0082099152840405    0.7469573490590984 Al
   0.1663389378811864    0.8545873330165878    0.7488052045566648 Al
   0.1503351891423344    0.4893587234351226    0.7461004108226138 Al
   0.1811046770813244    0.3351687471767921    0.7598720941471678 Al
   0.1634784450015282    0.1696634608641666    0.7600651234218033 Al
   0.1771398228365711    0.0102001384203126    0.7650552508966759 Al
  -0.0022027343364480    0.8350529849240027    0.7650348323437236 Al
  -0.0096598705125908    0.6586645167779477    0.7568907719614724 Al
  -0.0026435483141174    0.4986158527731143    0.7477071726315285 Al
  -0.0013527776435159    0.3375770028299287    0.7559138906015592 Al
   0.0030362384354690    0.1585936691165410    0.7586381711823773 Al
   0.8282138135506392    0.8311011717460530    0.7603492587237451 Al
   0.3335938614984017    0.6638235810325164    0.7376962266687297 Al
   0.3358501152965935    0.8365778944932761    0.7400488095548966 Al
   0.1506964685666209    0.6639415872063281    0.7412716373410717 Al
   0.8341209596890357    0.4980186899515985    0.7498324641416626 Al
   0.4887896206613821   -0.0105240196652005    0.7557439322551363 Al
   0.8345404871149942    0.3433400423841380    0.7547714563193324 Al
   0.8388541598929626    0.1709747109973686    0.7612209853345316 Al
   0.8361945451210929    0.0027148703203508    0.7626353793711887 Al
   0.6535675718756259    0.7971782005222303    0.7409332567312842 Al
   0.6625350495979171    0.4946937219745140    0.7531146539109850 Al
   0.6701471370841525    0.3354217888258637    0.7416166680262325 Al
   0.6803561349128211    0.6633543965928412    0.7556060418721575 Al
   0.6521365667663938    0.0007864234887127    0.7533214737174032 Al
   0.5091026479955089    0.8355480249074412    0.7363972370454334 Al
   0.4836580844700498    0.6587445057195630    0.7500668937876347 Al
   0.5025034484528732    0.4984543239554922    0.7608868218552685 Al
   0.4913398969020810    0.3408638022151352    0.7489298274976569 Al
   0.4941148033312354    0.1655834043752616    0.7461598295206459 Al
   0.6719628940595391    0.1787627050007523    0.7544194388551569 Al
   0.5608270387596701    0.2832555031037556    0.4258280875913990 C
   0.7185835985274779    0.1126364718839080    0.4313715897636186 C
   0.5571082221774938    0.4395827949005851    0.4268624599038964 C
   0.5540544228906782    0.6073955784419981    0.4277722766632871 C
   0.5475703076933480    0.7743478321274752    0.4245545991805617 C
   0.5548217232792031    0.9500478521773594    0.4259416358493882 C
   0.7220680804208894    0.2771085112967442    0.4301487543695886 C
   0.8887395219766639    0.6097049616476057    0.4191944765726580 C
   0.7224028805854468    0.6101853803471677    0.4270539566743788 C
   0.7202456752448134    0.7704744709495678    0.4267448905756183 C
   0.7244787320445758    0.9480874957361481    0.4305236499492363 C
   0.8872830441473727    0.1137004762750163    0.4257234213829700 C
   0.8898517433228510    0.2811905739601651    0.4287334008842256 C
   0.8890605828722785    0.4421289894810218    0.4212097403972530 C
   0.5570640332195043    0.1100920522000431    0.4246708305160556 C
   0.7193463742531688    0.4415607358096471    0.4240269292687542 C
   0.3882139185726202    0.9411049341747829    0.4227494347942530 C
   0.0664495205977214    0.1138276084096056    0.4249905578479302 C
   0.3895863668468501    0.6119245283690981    0.4180543768722453 C
   0.8949871973776006    0.7765961783631037    0.4263719833463867 C
   0.0569375651186506    0.2797187067297825    0.4261175575747939 C
   0.0559598773242670    0.4437835576890244    0.4252039284855642 C
   0.0574766746684249    0.6131636177066800    0.4178847282667384 C
   0.0585717429073721    0.7808694582453416    0.4235547382461684 C
   0.0588990695048370    0.9423107460398633    0.4277185086632744 C
   0.2247513582221705    0.1104187327951354    0.4333687592942682 C
   0.2234660998533783    0.2760412052127785    0.4328793766785962 C
   0.2178789345689467    0.4467276621953201    0.4274392271146732 C
   0.2168512333893908    0.6063796728712281    0.4236234713018984 C
   0.2241178130884574    0.7776958513710764    0.4254539605457828 C
   0.2197282251521692    0.9432281482357340    0.4211669033042323 C
   0.3830524863261455    0.1083473234513432    0.4218910545189984 C
   0.3851326794793888    0.2755013924429960    0.4321691470209275 C
   0.3903904465978116    0.4425008811317457    0.4249087124724485 C
   0.3892246433517823    0.7808184962690479    0.4205252926926109 C
   0.9493276597368387    0.8830936864369445    0.5751990253264276 C
   0.8935448732251335    0.9438296226741455    0.4229962486163104 C
   0.1170032932203925    0.2249583087413134    0.9342695466781830 C
   0.2808506352742638    0.0554290005447372    0.5707142150410337 C
   0.1183639780954500    0.8886622517270072    0.5675027158872525 C
   0.1141746879673955    0.7151782399301485    0.5686893320719227 C
   0.1159520088521456    0.5570624728405019    0.5669926503784171 C
   0.1095778860136073    0.3940914399708292    0.5645696399242124 C
   0.1161793791617388    0.2207137774859483    0.5701912719802443 C
   0.1162852117824090    0.0617146008883601    0.5717696207287266 C
   0.8841739345068629    0.9356528034655803    0.0826132978785556 C
   0.8892094496068135    0.7749407581471424    0.0732895619890056 C
   0.8955019745559178    0.6149245842535762    0.0669174544194966 C
   0.8915116837482943    0.4528843689233658    0.0725466084309765 C
   0.8882384488781349    0.2844388840300107    0.0788928760667310 C
   0.8836330285424637    0.1075880141881989    0.0855829419809993 C
   0.7165815907461162    0.9412802432573496    0.0736110017743117 C
   0.7244442549122125    0.7810866453787473    0.0722516383532686 C
   0.7206410636893406    0.6127343669698146    0.0759335470135147 C
   0.7290742361892064    0.4483540690068334    0.0710752803028515 C
   0.7212865252535527    0.2786440921884860    0.0798143289880883 C
   0.7159872615350059    0.1047205342053968    0.0749170454405753 C
   0.5535194498470478    0.9427405709036363    0.0672763223286727 C
   0.5580029045838697    0.7819358654296642    0.0673448578400312 C
   0.5507270091362516    0.6093662028404285    0.0727807004671759 C
   0.5568894169548702    0.4521867607585268    0.0737225113177297 C
   0.2811227652383707    0.2227358544253607    0.5661962543297421 C
   0.5486433881427605    0.2662644513809599    0.0731913727989353 C
   0.2750935133098392    0.3833095452193661    0.5702967589243231 C
   0.2786645671355332    0.7272064017212140    0.5651709973688547 C
   0.9459155512424671    0.5548022357220084    0.5772246594363094 C
   0.9445921464562126    0.3938130238847365    0.5709266815901201 C
   0.9429938448665244    0.2265071409152195    0.5703504272479222 C
   0.9478153231554216    0.0559256192796293    0.5738274561043650 C
   0.7745314169514701    0.8865203055955910    0.5687927314254052 C
   0.7696963039332093    0.7144586653803662    0.5716760701903606 C
   0.7772444801841571    0.5542804664506249    0.5722166191501036 C
   0.7795955273893947    0.3870311448204556    0.5718510336308832 C
   0.7720841390584131    0.2245346545096912    0.5648943151329759 C
   0.7761253316488240    0.0523214326779407    0.5662399060842531 C
   0.6039062774238699    0.8850826028607378    0.5650027057879323 C
   0.6119649701536349    0.7255526297936852    0.5644939840789814 C
   0.6151986593820927    0.5530369291688024    0.5722892694662509 C
   0.6119098650354968    0.3864965863234899    0.5688555023365289 C
   0.6169240023399910    0.2266973540636187    0.5695044452648818 C
   0.6068627631164542    0.0513862081314892    0.5642593064454168 C
   0.4387110144575480    0.8864684196317225    0.5616856956425227 C
   0.4472473450059909    0.7233368738121825    0.5666595501554503 C
   0.4436295225547891    0.5617533301808113    0.5742455244692253 C
   0.4463835902969708    0.3836934487386805    0.5728904941892627 C
   0.4409173414138238    0.2176525872749435    0.5698911648369195 C
   0.4416145811359506    0.0519519475568094    0.5712595946861789 C
   0.2746582948588769    0.8820718094866231    0.5664204624300945 C
   0.2779121304711146    0.5617506319241345    0.5703449919076391 C
   0.1134240945788147    0.0545154559042466    0.9329919459135203 C
   0.5505159197130237    0.1079915441218415    0.0721105651404640 C
   0.3918512796477239    0.7823890668967498    0.0700145329106413 C
   0.7747563303923756    0.0539920289868554    0.9308437312463990 C
   0.6132902226768133    0.8933454142404933    0.9342683642658884 C
   0.6114739060234384    0.7207926521832168    0.9281252916380213 C
   0.6091043771670809    0.5515520886162498    0.9289596108646097 C
   0.6130458567572848    0.3985456792825499    0.9265389557256056 C
   0.6062699084288175    0.2190876299901150    0.9240190741848965 C
   0.6135971527312718    0.0542875684927973    0.9291987210095902 C
   0.4483333003437107    0.8946983868817199    0.9275714391132026 C
   0.4440640782035725    0.7221511236559434    0.9335115739939774 C
   0.4435683342469168    0.5525047890037369    0.9297051156321799 C
   0.4436158953745855    0.3924337056900269    0.9279330243368747 C
   0.4377340676619300    0.2190998779252579    0.9329106822662399 C
   0.4441094458125784    0.0544412181284156    0.9345487003244359 C
   0.2792438244771944    0.8991769576323846    0.9288134377541998 C
   0.2771115921123926    0.7221397613337415    0.9212922933678536 C
   0.2777461744660496    0.5523942924406646    0.9320094310861928 C
   0.2784042592457408    0.3871851152273171    0.9321526707304176 C
   0.2770200970576102    0.2188893289673287    0.9356084537293125 C
   0.2729946841964824    0.0563461917887101    0.9360361767305091 C
   0.1080444931521493    0.8882346858693440    0.9318065925512485 C
   0.1025674742679975    0.7239234308436263    0.9270102795109791 C
   0.1046820330608216    0.5507647206153695    0.9267001055207919 C
   0.1128215197655089    0.3888935316911706    0.9321941590534584 C
   0.7809063845530827    0.2256086175824253    0.9241592106788831 C
   0.3879929126040136    0.9462429055279903    0.0716632581173203 C
   0.7802517755949286    0.3963403363900831    0.9250221870965264 C
   0.7829919114729189    0.7236931758358965    0.9286883868304978 C
   0.3881487707248831    0.6074140793776305    0.0695218717916091 C
   0.3896066365220776    0.4464930094366243    0.0710363545267659 C
   0.3859156217779096    0.2749634972110767    0.0745048080181515 C
   0.3853732846000598    0.1083002139473963    0.0658127969821177 C
   0.2237647267953302    0.9441601505436346    0.0695437097941894 C
   0.2190948515025833    0.7795808234259179    0.0736057429727717 C
   0.2242909149031219    0.6127290333652908    0.0715833553053431 C
   0.2246461017110329    0.4466803419427131    0.0713908834456528 C
   0.2291785504695963    0.2822210530802730    0.0738452836947486 C
   0.2230495810063908    0.1078286959465929    0.0727974072583226 C
   0.0599788026767902    0.9396313712838125    0.0773572458479593 C
   0.0591707668118755    0.7789186150360964    0.0703862048497107 C
   0.0553680816020276    0.6160439977197166    0.0709081964922997 C
   0.0564791595274437    0.4514285298940997    0.0703508896771599 C
   0.0610351410239851    0.2863830105212282    0.0761505673850778 C
   0.0621617737985596    0.1072940559781650    0.0848833659834053 C
   0.9460355578775937    0.8855831448102630    0.9316841353036084 C
   0.9460752237987441    0.7244253498612424    0.9330467422305085 C
   0.9428844112254252    0.5571171872001660    0.9336480844035410 C
   0.9465125855867276    0.3899948000412785    0.9283872202000506 C
   0.9485774257800841    0.2282360536904525    0.9298446769903880 C
   0.9467157137361335    0.0564341171619503    0.9290375907731887 C
   0.7769163719032400    0.8854773313075054    0.9295037655238406 C
   0.7790240457159007    0.5569325447657938    0.9352820085749389 C
   0.9397298303197741    0.7158617827376000    0.5707594764540792 C
   0.8355531074488654    0.8313621936441702    0.0025116631642045 Mo
   0.2232135935616228    0.7754492157660314    0.6290319696231749 Mo
   0.7239671016059233    0.6096897770102717    0.8710483237904429 Mo
   0.1150289515298272    0.3994874126038675    0.1305364408486948 Mo
   0.8324336214660401    0.1697807794008618    0.4972685276769921 Mo
   0.6635884758452310    0.8333317243553987    0.4971597435893631 Mo
   0.6679010729107776    0.4980841171014950    0.4954218984871514 Mo
   0.4993941358681181    0.8333326131139874    0.4938344855473414 Mo
   0.2791983000783190    0.7261460505623105    0.1312057310728738 Mo
   0.7776237628384960    0.2228513947624228    0.3701017459198874 Mo
   0.2773401407154988    0.8911535482230529    0.1323522462410637 Mo
   0.4373620848645485    0.2139044640510102    0.1324259540025617 Mo
   0.7760928391310338    0.5553936062896252    0.3629454438107840 Mo
   0.7823131967387681    0.7192501444986087    0.3660881274781090 Mo
   0.0055035550722559    0.3397244108966978    0.0033617708552918 Mo
   0.4427562741007466    0.3914050325184349    0.1320623673190996 Mo
   0.5533956129572845    0.1076124863133061    0.8676252181406903 Mo
   0.1677764639673167    0.8329520374621492    0.4944610337188296 Mo
   0.6108978664764873    0.7226263555241564    0.1295280452661436 Mo
   0.3830463948376854    0.2783501481980198    0.8727896724093349 Mo
   0.2183139001494126    0.9480001098683939    0.8727464830770777 Mo
   0.1696106751181028    0.0013155417794024    0.5004661255563621 Mo
   0.7708988559736885    0.2180308049174939    0.1387012341555292 Mo
   0.0612939781228982    0.1128343030109832    0.8736894552411492 Mo
   0.7827867448122092    0.3926953041416146    0.1359559986228386 Mo
  -0.0006196728440980    0.3345257450320417    0.4996462611730462 Mo
   0.2226026150863569    0.4398898980636791    0.8718459629085319 Mo
   0.0464219534173922    0.6090845140122366    0.8674492215738017 Mo
   0.5533884198863293    0.6072696118961725    0.8680614718191080 Mo
   0.8357126083800829    0.6687468461692228    0.0005502734280635 Mo
   0.8316110418817982    0.6634154285259561    0.4957326709649193 Mo
   0.9501840946462528    0.5619627378696811    0.1318517712833919 Mo
   0.8860453192341731    0.6046116862585308    0.6358504991631704 Mo
   0.8917626765275571    0.9423508885052526    0.8716412994187469 Mo
   0.3315650980436170    0.3327850834785765    0.0003009705260888 Mo
   0.7218118841498945    0.4416029840864450    0.6316982368061144 Mo
   0.4445227753377572    0.5546958885624504    0.3636847960776208 Mo
   0.5004412198247054    0.0005080258850312   -0.0006273238393794 Mo
   0.5549919890300197    0.2782808810871012    0.6315374909405695 Mo
   0.2751335314994147    0.7214045680651490    0.3626131550062774 Mo
   0.3889786835116038    0.7789402180837689    0.6256061026449359 Mo
   0.3356364976309931    0.6677518231007956    0.0007807806883705 Mo
   0.1117446951489712    0.8914871267963559    0.3631397237823222 Mo
   0.2750512540504141    0.8850900287328275    0.3619368196782813 Mo
   0.8915390700393547    0.4500147081145970    0.8679890061471213 Mo
   0.1151719952943685    0.7258070017070400    0.3618124645223752 Mo
   0.2218554811572201    0.6162443107878800    0.6294478187801665 Mo
   0.1107079903402777    0.5535790948972309    0.3615226452905698 Mo
   0.8915329281671772    0.1136557967436460    0.8711670013429165 Mo
   0.1079283739129390    0.3877736870379385    0.3683608208688068 Mo
   0.1707681037609970    0.1670199909758129    0.0041034680436194 Mo
   0.1199307189194908    0.2250451361334128    0.3682915711844466 Mo
   0.8890289820021018    0.6130915285852113    0.8739448815510499 Mo
   0.4984127731901855    0.6668372086069304    0.0008544370640136 Mo
   0.3841044676511983    0.9380744665256665    0.6241836038893248 Ti
   0.2235483807508666    0.2745771991218705    0.6271820818900988 Ti
   0.3886378895773819    0.6079507598481970    0.8763670672624654 Ti
   0.6066464024993857    0.2159139080242678    0.1323063189057755 Ti
   0.7255609201751935    0.7767368224373354    0.8727271647899941 Ti
   0.5464735570855122    0.9383932235651302    0.6218480979500307 Ti
   0.2781419247828424    0.5565598609288426    0.1273577880670728 Ti
   0.2843604637234301    0.3940335873578908    0.1326787731136512 Ti
   0.2795349558730836    0.2188298635632507    0.1295006271642877 Ti
   0.7217414448645457    0.6051906776084867    0.6297125803275936 Ti
   0.5581729062511394    0.9478095081593516    0.8739863797209174 Ti
   0.7242567358283798    0.1110517367348214    0.8706330089984660 Ti
   0.7242140991251687    0.2813614341206292    0.8683649352604097 Ti
   0.1127618182922113    0.5611186419485086    0.1290565863169188 Ti
   0.9465746873339315    0.3988971868427987    0.1308131721737900 Ti
   0.7271205227148095    0.4546403815760706    0.8706545731407028 Ti
   0.7229403448240959    0.9453675226197955    0.8733249047402771 Ti
   0.5610104034068455    0.4404693516662562    0.6290802398544880 Ti
   0.4402208937097871    0.0539119213186321    0.1271278196140574 Ti
   0.0044276491733845    0.8328644160181704    0.5010101800060618 Ti
   0.9440538179478214    0.8805177282763689    0.1336970538132241 Ti
   0.6670555418206351    0.3331762498970907    0.5010273986451846 Ti
   0.6658345140961637    0.6642809943355918    0.4987936670281666 Ti
   0.8310270698768285   -0.0010795254741196    0.5000089240747093 Ti
   0.9496192023185951    0.7218830188659803    0.1279025725203970 Ti
   0.6118829154394976    0.5529948530236116    0.3700976849464639 Ti
   0.6161184591329567    0.2243104944551056    0.3693921561357796 Ti
   0.0000100143343748    0.5037958711364605   -0.0012483038083581 Ti
   0.4436376679978071    0.8902342046912167    0.3659259189219898 Ti
   0.0013739182506541    0.8315053990607295    0.0030656530445860 Ti
   0.1672693577183829   -0.0011907841816821    0.0030989300156915 Ti
   0.1705325033593009    0.3368790006682419    0.0050425057312507 Ti
   0.1676323188359809    0.4994002499458379   -0.0008154881101088 Ti
   0.1651024563716741    0.8359714837395823   -0.0008842888581034 Ti
   0.4442762783477021    0.3860900356087420    0.3704215445347054 Ti
   0.3332419684912780    0.4988135100500130   -0.0001470501053113 Ti
   0.4417647404830969    0.0517282858620652    0.3641978914172969 Ti
   0.4977196828586389    0.5003086088983683    0.0005917485325065 Ti
   0.6690331106598948    0.5039451482508919    0.0043716643668598 Ti
   0.6649847519116473    0.8327370434558490    0.0015978156727395 Ti
   0.7758386827315747    0.0608887520379856    0.3737016523539466 Ti
   0.6647343824288635   -0.0009082233590944    0.4986526253919094 Ti
   0.8326537265312848    0.3317528942436462    0.4975499183737929 Ti
   0.4995792692161596    0.3301792831588138    0.4990280659483001 Ti
   0.3913515243493595    0.2739698463596131    0.6271179401410433 Ti
   0.5014320196187323    0.6677804355443120    0.4951516788202068 Ti
   0.1664160808524385    0.3332248390156904    0.4978792647905034 Ti
   0.9472189000030098    0.7229010020778024    0.3659103328852476 Ti
   0.1689114222598764    0.6673768740787416    0.4936633362635868 Ti
   0.0602337998654195    0.2792807462267368    0.8738125329316662 Ti
   0.0533896755635258    0.4414042469255234    0.8722436995641379 Ti
   0.3327671365280019    0.3304592004470763    0.5001830458829436 Ti
   0.4998772018925158   -0.0003575195843187    0.4959887464592923 Ti
   0.7775506533059194    0.3856453251945106    0.3682104163006984 Ti
   0.0592377764113665    0.6061437463014125    0.6267276780332506 V
   0.2726595515641155    0.5556941896099861    0.3681316785720805 V
   0.2716603557891480    0.0542253380961396    0.3699554190242523 V
   0.0568691705302565    0.9435145000754783    0.8767746855368652 V
   0.0562456882670315    0.4502524244443128    0.6229154316110088 V
   0.0499463951337134    0.7786367543560146    0.8753324163335863 V
   0.0617230801918701    0.1147961504002828    0.6285769952022241 V
   0.2242042344317497    0.2758338206099880    0.8805162236103757 V
   0.2744060196057079    0.2170568254544006    0.3779119688027556 V
   0.2200363190514850    0.1121395921623400    0.8797596178100650 V
   0.9506929295855062    0.8856693994103669    0.3692828085750502 V
   0.4395595604265918    0.7207805795942405    0.3645910493399389 V
   0.8941162725498522    0.2816190545812135    0.8731556895151914 V
   0.3858916848411346    0.4411366121956283    0.8749161884745428 V
   0.9454438632884947    0.5540539003106069    0.3646980156974786 V
   0.6122590005180607    0.0611885840314719    0.3725060599516623 V
   0.3919192460228742    0.9520259658545369    0.8748900604921278 V
   0.6142831266854825    0.3905895511517256    0.3716956949289661 V
   0.9450071720759796    0.3872116042987954    0.3701506917813385 V
   0.5554581784836665    0.4495978861153820    0.8735016587177017 V
   0.9428898991527331    0.2284668660443724    0.3739562047008950 V
   0.8918647120063971    0.7778435207135835    0.8768767941602140 V
   0.8378104168819188    0.5071318723608937    0.0022988096157105 V
   0.1204530581776828    0.0555932988991951    0.3756765445446689 V
   0.3878662778128319    0.1089131728882039    0.6274366809464034 V
   0.1167222435327173    0.8888378607659243    0.1272025209894098 V
   0.2790010608614980    0.0523528681449555    0.1237361501329966 V
   0.3298729718912785    0.0009062890181302    0.0013858940926940 V
   0.3308534372332581    0.1664719240602652    0.4974505085991728 V
  -0.0012332412327213    0.6679549678728065   -0.0027957567831956 V
   0.4467007343465279    0.8931275484009386    0.1237052470972941 V
   0.6044830485118342    0.0485044744854886    0.1247668369800488 V
   0.6069010413541339    0.5577852423445528    0.1303177093591778 V
   0.6099199141414675    0.8914225238869474    0.1239133727459335 V
   0.7650577052495101    0.0493457556020303    0.1299059490176860 V
   0.7780158907174713    0.7243271732198704    0.1267315131586791 V
   0.7700968463537887    0.8816546471131118    0.1308671769868503 V
   0.2267084633969975    0.9421686050372047    0.6234734947415798 V
   0.6675086852175796    0.1660730238510671    0.4956969662402706 V
   0.3321406737290371    0.8319396786659496    0.4912358238828583 V
   0.1731021071068252    0.1673506470325634    0.4986476500377905 V
   0.1633713405597581    0.4981085428316162    0.4960723646137191 V
   0.1113925414817490    0.7262054585818928    0.1262875940189882 V
   0.3307820837153561    0.1623137115241903    0.0024984534560014 V
   0.4448437818193567    0.5551888835136838    0.1257124501934083 V
   0.8891361421315181    0.4464403928710102    0.6301415838843153 V
   0.4932282998249161    0.1616103001313209   -0.0012427566453266 V
   0.1201663479839846    0.0509857512449850    0.1325210488508913 V
   0.6621375462547814   -0.0039298159773695    0.0051156234789233 V
   0.7172136823875207    0.7754679807658584    0.6223737708099967 V
   0.7217595927576671    0.2818103165053524    0.6245562311970893 V
   0.5043903313925294    0.8371019816043683    0.0019357295939605 V
   0.3907359019595039    0.6191121651269286    0.6252581251549310 V
   0.5527061799947514    0.7765372008722554    0.6197597293225839 V
   0.4416684352501239    0.2231520020559728    0.3592159027817909 Zr
   0.8309593310470529   -0.0033825042168783    0.0062249577527874 Zr
   0.5009028946943629    0.4983296605831664    0.5024440468382334 Zr
   0.3335025394081842    0.6696822010298200    0.4935212948558301 Zr
   0.6658554934757022    0.6657015294597900    0.0010411153447657 Zr
   0.8341728004871403    0.1683078140814887    0.0039077409924955 Zr
   0.8352889741465039    0.3386522907349502    0.0006365376957431 Zr
   0.7779472000617321    0.8855882627015776    0.3602490834038825 Zr
   0.5008621196247149    0.1669506472979308    0.4973004715049880 Zr
   0.6658460635888545    0.3358230162049359   -0.0010738192260932 Zr
   0.8317232859804727    0.4981930543656948    0.4977377799577955 Zr
   0.6110370200474137    0.8931133973478557    0.3601651194157915 Zr
   0.6081669838512285    0.7169052559207778    0.3591123859982434 Zr
   0.8340422032742423    0.8293915468243386    0.4990310752289273 Zr
   0.2772995625894129    0.3878552805450831    0.3580265859863754 Zr
   0.0020612425195203   -0.0030591835886243    0.0080213633218751 Zr
   0.0044709624681815    0.1689577009662316    0.0080769823220402 Zr
   0.1645995277042714    0.6667313005117048   -0.0044279447905570 Zr
   0.4972254820426013    0.3340258495056613    0.0025448224176425 Zr
   0.3334990057195083    0.8359378272545535   -0.0022640401540722 Zr
   0.6637319386800115    0.1650010108721235    0.0003249372715853 Zr
   0.9496896722597908    0.0580960712753379    0.3540831073881619 Zr
   0.9410941307874341    0.0488362760064768    0.1553920804665713 Zr
   0.3313196834457068   -0.0031185772611122    0.4943228413060022 Zr
   0.3890544148426498    0.4424174471328076    0.6419211734244380 Zr
   0.2224583552084712    0.4492320493569453    0.6354038051889587 Zr
   0.2284902570181804    0.1140633441470833    0.6390876036090559 Zr
   0.0648024407172875    0.9449560225513562    0.6413146507430593 Zr
   0.0581435585948699    0.7705877666965051    0.6370610814170712 Zr
   0.5556464029361664    0.1104216907281802    0.6364271463642821 Zr
   0.5607708801033795    0.6175969251154316    0.6397118215108970 Zr
   0.0596242366707786    0.2824989051652058    0.6380268339904184 Zr
   0.7194329178921827    0.1110398877158398    0.6329456931451242 Zr
   0.7125557988067581    0.9358630756541845    0.6393200774190727 Zr
   0.8886130607513254    0.1114033311867841    0.6377090441189678 Zr
   0.8849152213071834    0.2835687613169450    0.6371163915492496 Zr
   0.8897599494815226    0.9417427916622090    0.6408359822814536 Zr
   0.3320157765802961    0.4996118225446124    0.4970179872897771 Zr
   0.1209431617455217    0.2261567135866725    0.1450844171108306 Zr
   0.4464392760769629    0.7238265340829088    0.1363106608474892 Zr
   0.5516339065067395    0.2806944731590660    0.8602319185189274 Zr
   0.3926935971111589    0.7812060952446919    0.8587469763946702 Zr
   0.6111011926973720    0.3877029300297141    0.1376048285722148 Zr
   0.3820090816304764    0.1057201346719991    0.8666521958305473 Zr
   0.2174245824017793    0.7844850971146098    0.8576718742860152 Zr
   0.2193592648651024    0.6050580485177395    0.8585400617879378 Zr
   0.7829324384875216    0.5603547165039536    0.1395708070299755 Zr
   0.9442230502230393    0.2297095700714016    0.1452418962388246 Zr
   0.0036702251183284   -0.0008437417193194    0.4997992872566331 Zr
   0.0018423206847753    0.1676381564310329    0.4971688968679585 Zr
   0.0017356447460745    0.5006571257323397    0.4944556008377359 Zr
   0.0009118577741877    0.6669986216423736    0.4965371814607011 Zr
   0.5580348885309687    0.7798333662099128    0.8644704005982914 Zr
   0.8829948341028492    0.7670038960267708    0.6420144891997975 Zr
