Zr36 Ti36 Al72 V36 Cr36 Mo36 W36 C144
1.0
   9.1712034976078360  -15.8828348122553287   -0.0024224807215094
   9.1660813428397336   15.8798776392090595   -0.0048527435007351
  -0.0073531976492634   -0.0014176890807051   18.5091960541195455
Al C Cr Mo Ti V W Zr
72 144 36 36 36 36 36 36
direct
   0.8203467485995526    0.8292790789672723    0.7499140946170046 Al
   0.3339805393316511    0.6542152514875882    0.2575975746125062 Al
   0.3430685652721853    0.5049632905739067    0.2531914017511688 Al
   0.3294059722919281    0.3229080699762605    0.2457702467935222 Al
   0.3357684521470568    0.1593178998024705    0.2495260559328260 Al
   0.3306143940367197    0.0044340707700820    0.2525112833544967 Al
   0.1567344687594443    0.8296246351925958    0.2488616273041376 Al
   0.3405804417866983    0.8522895042413899    0.2591314440037150 Al
   0.1631440160418558    0.6765416247633567    0.2557565293653538 Al
   0.1512794607025054    0.3208799171945989    0.2503251765837898 Al
   0.1558480065571083    0.1595632414163363    0.2429829287705541 Al
   0.1672370972975208    0.0006319110104513    0.2497539686638556 Al
   0.0057726467683223    0.8446298726113247    0.2456362306330505 Al
   0.0067364200745709    0.6651233882414921    0.2406223148583129 Al
  -0.0293187373200905    0.4849022843530416    0.2489574795872521 Al
   0.1803575093237113    0.4917570639429567    0.2544728644621203 Al
   0.5074264624373996    0.0152314726099998    0.2583928804683311 Al
   0.4983702482304281    0.1659528174573477    0.2546636873601117 Al
   0.5102997078615039    0.5232147519406337    0.2504614313698205 Al
   0.8264132989576547    0.6738121482944216    0.7485801247784422 Al
   0.8332624575218106    0.8322006531770684    0.2474096338912590 Al
   0.8295420623956508    0.6699354648276931    0.2362486486147809 Al
   0.8365948915550725    0.5225423608844073    0.2534821589115727 Al
   0.8304165803380389    0.3149011277600569    0.2570685919266074 Al
   0.8501240621471597    0.1714693691740562    0.2392439323973817 Al
   0.8417663501619270   -0.0008715921833414    0.2429228947187680 Al
   0.6770270053289161    0.8535620533883981    0.2417301702736083 Al
   0.6789530768305511    0.6721691470520066    0.2447609479294802 Al
   0.6778270819715717    0.5094288908323844    0.2482383481748600 Al
   0.6614206939007018    0.3179444781165630    0.2521857992453957 Al
   0.6772785106337644    0.1553104466749461    0.2561849369572281 Al
   0.6356369080272243   -0.0203154681921516    0.2453213539346250 Al
   0.4803908945210421    0.8141187583764249    0.2645872213317961 Al
   0.4906250211757318    0.6644787208938621    0.2461303273053073 Al
   0.0033220533122078    0.3367425467873399    0.2473042929450626 Al
  -0.0030503212874669    0.1619322938603104    0.2465444861319357 Al
   0.4953080311990863    0.3177849999299361    0.2464433390701220 Al
   0.7130435785612586    0.1912428896314471    0.7664577429245435 Al
   0.4805813159594834   -0.0267019538350888    0.7581796711878014 Al
   0.4852837542129223    0.3500063878667717    0.7439916774280645 Al
   0.4975736371137410    0.5082894021123527    0.7344647789683699 Al
   0.5003182869990093    0.6658634987980070    0.7531477109246474 Al
   0.4958986010566290    0.8208173924055282    0.7553527945903378 Al
   0.6595654935900973    0.0157231884416230    0.7663494179170510 Al
   0.3287541693076328    0.8262210525109981    0.7555726428631139 Al
   0.6571333405435088    0.3211939121889571    0.7634171998045984 Al
   0.6641674171122224    0.6603566629976598    0.7443827809280467 Al
   0.6556424236385153    0.8137674657375957    0.7513631200601725 Al
   0.8519552986560774    0.0074812378062217    0.7624603397703552 Al
   0.8430114986612596    0.1483851209644023    0.7531424002182051 Al
   0.8670015463458784    0.3487331519212586    0.7350382917420613 Al
  -0.0008044526574657    0.0005308785815717    0.2496396119579588 Al
   0.6675901651419507    0.4999634036656816    0.7441067125805898 Al
   0.3276520598029576    0.6662211221736977    0.7604342322358850 Al
   0.4872520364571111    0.1827268322152782    0.7599711528965001 Al
   0.3205614964814553    0.3234546658732110    0.7397129556807596 Al
   0.0185511011673476    0.0094178051503457    0.7533474350711872 Al
   0.0001133727461478    0.1556929085909054    0.7360825672251710 Al
  -0.0079920275387606    0.3072288661398641    0.7356630257330639 Al
   0.0132940612476682    0.5099540221175405    0.7534579881135707 Al
   0.0056537226537523    0.6576861581629436    0.7590251000933602 Al
   0.3190483788847792    0.4963469916715838    0.7513815866273305 Al
   0.1485744310079880   -0.0356803752211228    0.7522106793659591 Al
   0.1592763546199007    0.1819693815818183    0.7442318045622924 Al
  -0.0204793065716103    0.8354488354948977    0.7510808898511401 Al
   0.1734716649614700    0.3395969595444805    0.7418423983289800 Al
   0.1710019867390892    0.4981422075066873    0.7579189726384190 Al
   0.1693991826369225    0.6675074282973652    0.7562590100864285 Al
   0.1786716741568299    0.8284557765225611    0.7589303802261289 Al
   0.3351155096938381    0.0045352000517576    0.7534627979000903 Al
   0.3414062871182094    0.1786181553479383    0.7434441416456488 Al
   0.8143979987923615    0.4728148726706967    0.7418645898205778 Al
   0.7190403093822855    0.9415860776928553    0.4300967847433940 C
   0.7176374621992146    0.1143542405881573    0.4307305534165451 C
   0.7188201059896885    0.2777824733814692    0.4322006983616735 C
   0.7265713895514704    0.4459728426563506    0.4328273174305796 C
   0.5512747301799288    0.7779006255911959    0.4323294977926047 C
   0.7240546619930962    0.6113280069515840    0.4290902601952265 C
   0.7246443088071784    0.7836141515161207    0.4294587854187299 C
   0.5541134115160586    0.9482684975492762    0.4354146905820215 C
   0.9436296765944239    0.7258865650866375    0.5645333644970176 C
   0.8902811776531835    0.4472782579515990    0.4270201431580535 C
   0.8858766397104900    0.6090674389885021    0.4309482961982572 C
   0.8878149893580010    0.7798127251569598    0.4298102104937993 C
   0.8920074653878518    0.9497172041470030    0.4258005001055299 C
   0.1059629981745649    0.0490984520084865    0.9318410193639132 C
   0.1109156785181687    0.2191631095071334    0.9325574142841467 C
   0.1134262009042419    0.3886390245011283    0.9269133630227873 C
   0.5563834781971143    0.6152664464456414    0.4242288080469808 C
   0.1077382223882198    0.5579469362028695    0.9319146984769580 C
   0.8847812116342092    0.2731399825653630    0.4196445087827117 C
   0.5635743721625366    0.4501765044373704    0.4276393827782596 C
   0.0567724993207046    0.6124381418135836    0.4260302292815494 C
   0.5522226923233819    0.1090753815885286    0.4390225919918121 C
   0.1121851464489415    0.7245964294383483    0.9301045469858779 C
   0.0542761088937768    0.1104649529890987    0.4251915877001137 C
   0.0561000128685377    0.2761049906258268    0.4288926525900595 C
   0.0550530887320743    0.4458115632102942    0.4242660884530586 C
   0.0550498430848280    0.7821593620347542    0.4254779994409221 C
   0.0536361156659497    0.9413364334321506    0.4273876264795275 C
   0.2209426920432406    0.1071273114091797    0.4282736354122374 C
   0.2181366168536657    0.2812133496968422    0.4275543010044393 C
   0.5523877292131649    0.2738762602110459    0.4386069260807976 C
   0.2229369916779730    0.4450324577133846    0.4311582964340485 C
   0.2253932876007708    0.7785566492087171    0.4263485339557098 C
   0.2231826049149394    0.9487624065400800    0.4256636364483359 C
   0.3877711182687902    0.1105174104767711    0.4330849031254171 C
   0.3956456042896314    0.2805109894838954    0.4325129583788268 C
   0.3808088463628174    0.4468260653190744    0.4256605575016491 C
   0.3874252834910962    0.6143435755492772    0.4356052078130105 C
   0.3897942299283161    0.7783557772240518    0.4318606026443710 C
   0.3909849226772713    0.9458839375892607    0.4350010511639760 C
   0.2267818219373891    0.6138189556600223    0.4283079117913005 C
   0.1091622338499167    0.8883751194489887    0.9340215808866369 C
   0.9487669500494604    0.8897897135710106    0.5657607269368395 C
   0.5585212536982292    0.2759717934110986    0.0753480692966423 C
   0.1123840887836759    0.5569992625430820    0.5675964058351294 C
   0.1139359783029193    0.3834072207620212    0.5630504760369094 C
   0.1137067787646597    0.2255478889896665    0.5617387844264474 C
   0.1100167057316162    0.0606000831212366    0.5695732735658003 C
   0.8897931031648212    0.9425852332055553    0.0685126814111829 C
   0.8888749351618617    0.7779695731574806    0.0701029545168131 C
   0.8893918758178982    0.6133793398815016    0.0737577863570886 C
   0.8994697858026576    0.4524588785951145    0.0744377166855911 C
   0.8911425592171851    0.2680744692239256    0.0712833695056279 C
   0.8904844658805584    0.1121072366972255    0.0692671810845035 C
   0.7261754381200450    0.9447762039763221    0.0705887233761981 C
   0.7274283989877228    0.7842450568233293    0.0733963773411473 C
   0.7306013133101343    0.6163344918648684    0.0783156074813204 C
   0.7223068277574292    0.4434921590615196    0.0752770648566644 C
   0.7211897907073053    0.2720171659995988    0.0755957640654265 C
   0.7294982564956756    0.1112777434240610    0.0701925219126123 C
   0.5631449833108894    0.9467501626528290    0.0693567293350953 C
   0.5635451523766118    0.7867933889488057    0.0726224470365549 C
   0.5550339471941400    0.6104905132286863    0.0779551667525775 C
   0.5562740839488978    0.4447684137617041    0.0782367411701007 C
   0.2724443996063203    0.0490098373725341    0.9316199815367711 C
   0.5545846154575490    0.1044727621181767    0.0699094316527768 C
   0.3875938197879865    0.9426557467476799    0.0704098462081181 C
   0.3950696970331884    0.7813871137812933    0.0682965282809384 C
   0.3869373967451255    0.6091862384681627    0.0742372039243286 C
   0.1119507206609260    0.7184650135982613    0.5745717521103678 C
   0.1111195717664329    0.8950386095308965    0.5725586830552407 C
   0.2745977415544137    0.0581853513974154    0.5733199324963253 C
   0.2758019363217745    0.2233135828184220    0.5685064075408431 C
   0.9442036309809013    0.5537998459883976    0.5657684160136961 C
   0.9425963776748062    0.3888101156028760    0.5638466854496932 C
   0.9498228112418172    0.2239436459701447    0.5620267775915502 C
   0.9519245463313818    0.0655925183901215    0.5639592862623796 C
   0.7763811896819572    0.8847749585713577    0.5677471084979104 C
   0.7764630161563301    0.7198077723208542    0.5651257451477210 C
   0.7726159091101048    0.5585210051395616    0.5622492330443289 C
   0.7789663496683871    0.3978046882438588    0.5632728374409856 C
   0.7816816944388043    0.2253497574571055    0.5636408417193657 C
   0.7858723258181912    0.0576661976852323    0.5693041510192425 C
   0.6149735119950567    0.8856491064294161    0.5674795709904454 C
   0.6091961453187821    0.7212653891005575    0.5638063435027559 C
   0.3904719075695780    0.4442916126620972    0.0687603228285518 C
   0.6142878495024129    0.5590828004194255    0.5683227255916056 C
   0.6105287253054063    0.2246031653594966    0.5674737399515063 C
   0.6098480405846530    0.0573700126424163    0.5686962495565753 C
   0.4419807109033432    0.8914932907605720    0.5709927871112085 C
   0.4431606464704227    0.7237763739380551    0.5686246777845854 C
   0.4431729539000827    0.5549856639056721    0.5691356878483353 C
   0.4451099559518877    0.3868815597773254    0.5683866673302975 C
   0.4404468703464204    0.2233429384237374    0.5678229565231417 C
   0.4435495660602654    0.0584134613318178    0.5726910063745552 C
   0.2770014114577519    0.8880154579312658    0.5763798242515183 C
   0.2794261173491779    0.7201020307769881    0.5683019586598882 C
   0.2749954134183956    0.5546162348247433    0.5672814285195314 C
   0.2810209760746207    0.3923656834569448    0.5668873401671484 C
   0.6088565460061162    0.3963536525208997    0.5585459065055774 C
   0.3809478100157907    0.2758021235683085    0.0719913661828969 C
   0.8941633602921121    0.1133485809616358    0.4230587085240666 C
   0.3866800431086299    0.1085862115142636    0.0721105766431000 C
   0.9481696712814972    0.7278892444977999    0.9320354569244736 C
   0.9488827692646601    0.5613322514370935    0.9335447170904918 C
   0.9417110585156132    0.2123924626297051    0.9350853087551211 C
   0.9455119522672293    0.0560793648398412    0.9345285030684715 C
   0.7749062512033535    0.8854515896632935    0.9335221504698042 C
   0.7806071203018716    0.7228272885333654    0.9278572423393608 C
   0.7819266435659885    0.5584300890982677    0.9246909655900464 C
   0.7719747375750460    0.3882621885883880    0.9349724783856128 C
   0.7708437190893137    0.2149452713612968    0.9351051168935356 C
   0.7807448946013115    0.0567460265172415    0.9312744775784739 C
   0.6126043565127235    0.8863470637136970    0.9347054516916929 C
   0.6145760062599119    0.7284622997635049    0.9260645192555995 C
   0.6076921673207717    0.5545771911290966    0.9219011292626331 C
   0.6112533549732655    0.3838094742752411    0.9268463314733377 C
   0.6123912877506801    0.2224967391168984    0.9389799305387198 C
   0.6114235022283472    0.0539989875027123    0.9366800026831333 C
   0.4469228691776297    0.8920762979744989    0.9395187700252750 C
   0.4420117631159844    0.7242827230717882    0.9292720516890612 C
   0.4426026439732621    0.5575690790725559    0.9254720319015771 C
   0.4415437358160418    0.3865436852510428    0.9277077200210736 C
   0.4444978675448554    0.2166245562272313    0.9269988651622740 C
   0.4445219325545169    0.0507356275256708    0.9337342235876620 C
   0.2776398748855314    0.8821278420770515    0.9372506422060159 C
   0.2784509070189274    0.7258147071288790    0.9362840057806090 C
   0.2827693045277255    0.5574426350738111    0.9278288570459018 C
   0.2698845556619728    0.3850261225585321    0.9338100076661331 C
   0.2793036626806392    0.2242456800723769    0.9294874810169557 C
   0.9417674965996300    0.8862973597063800    0.9371794565079403 C
   0.0517349383184280    0.1061756085359006    0.0647133175898860 C
   0.9544474108473996    0.3923856376805675    0.9299672154271615 C
   0.0576366160293297    0.2742485983531652    0.0644560535976797 C
   0.2151020939582389    0.1024950339833321    0.0676210470554923 C
   0.0496886416260984    0.4369415683119408    0.0724506994735213 C
   0.2180667744411665    0.9453553050815912    0.0695734600086319 C
   0.0544001529046536    0.6136782012634188    0.0731137148667495 C
   0.2179252899022655    0.7803199173730929    0.0743874665764603 C
   0.2254129283281126    0.6128108236966987    0.0769568436927058 C
   0.0508517032352284    0.7779304409343996    0.0726543396823053 C
   0.0545127824301290    0.9430329935788379    0.0669442565651270 C
   0.2171378936463149    0.4384782323506369    0.0710406372969751 C
   0.2194875455984273    0.2730835500180945    0.0633919820413829 C
   0.5045714499907314    0.1708320971798918    0.5030602122108702 Cr
   0.4399416484079446    0.7209880470364327    0.3834274439465061 Cr
   0.1652849213077368    0.3283511844095197   -0.0042783929815455 Cr
   0.5002190530022925    0.3326464177754689    0.4991858907872423 Cr
   0.1594811574646707   -0.0044260842049194    0.0012748680234851 Cr
   0.7203719291278057    0.1090398492285791    0.8860864485840773 Cr
   0.6203078314486635    0.8933479817650013    0.1211074911268857 Cr
   0.0031651580286343    0.1678387434744619   -0.0022173776839428 Cr
   0.0589449375166626    0.1216062834740426    0.6163808854734945 Cr
   0.2796348023914524    0.0552824612313126    0.3781015662896391 Cr
   0.6689408610321894    0.5028993595534096    0.4960089263245966 Cr
   0.8884977583964181    0.1061123987648740    0.8829043866458667 Cr
  -0.0064572873222909    0.8312213434763195    0.0041337104028975 Cr
   0.7827326299422409    0.0548761210155746    0.1230563025663867 Cr
   0.7818344210779337    0.5569078753717007    0.1247802364408902 Cr
   0.5022615843002035    0.0029305715958618    0.5018754458146806 Cr
   0.2244136631501251    0.7763729899345415    0.8820195830722128 Cr
   0.1725245753506907    0.3369661473376011    0.4998902784421844 Cr
   0.6685417123257884    0.8370257465824872    0.0042529930774780 Cr
   0.8369489659419831    0.1613805787529847    0.0012737105586107 Cr
   0.6713583544573601    0.8365438354161780    0.4993269958969158 Cr
   0.3880221905759652    0.4416779155938151    0.6192112920159820 Cr
   0.4967884254424103   -0.0009271429037486    0.0050527664989810 Cr
  -0.0051964483444517    0.1655122802147045    0.4948372959861768 Cr
   0.5603628777425560    0.2747882862056626    0.8813269283162805 Cr
   0.3447711543475308    0.8391029805789449    0.0053778273679774 Cr
   0.9477500101289762    0.0576921275363633    0.3724471540630565 Cr
   0.3864784898842505    0.6140436400642083    0.8758009169492383 Cr
   0.3285948818168068    0.3268628717243185   -0.0016991831212544 Cr
   0.9490232202639500    0.2182987210660677    0.1199682970754441 Cr
   0.3307291428731419    0.6611613186170293    0.5008261690291781 Cr
   0.7691811280208869    0.2222241674715790    0.3794300390253505 Cr
   0.7842991273525474    0.7301043879927211    0.1236806522009744 Cr
   0.2213088341057493    0.4442067099661376    0.8781165666920675 Cr
   0.9439249017486561    0.7241458031762611    0.1244801343448147 Cr
   0.1062269342077160    0.7237130889131109    0.1225535963190859 Cr
   0.1083078010533326    0.0512249734462423    0.3647771850818533 Mo
   0.8357656399085585    0.5034669655584931    0.0050911168999403 Mo
   0.3362467386850777    0.0051672572723634    0.5043831512373298 Mo
   0.1679263009224240    0.5006586358024515    0.4946705197612199 Mo
   0.1646895101664706    0.0011016845055035    0.4959990565406058 Mo
  -0.0030046779257307    0.6657950986210209    0.4978509331974592 Mo
  -0.0011467350830145    0.3300585359289183    0.4924420640468565 Mo
   0.9444883180772997    0.3794789252574421    0.1345985094781399 Mo
   0.6173745707222976    0.7302048179827906    0.1366542326177744 Mo
   0.2794297691232121    0.5517816037716105    0.1343566242551437 Mo
   0.2699803635721553    0.2130628012010346    0.1295234802988187 Mo
   0.1073750564405930    0.8888756451109230    0.1312635394928135 Mo
   0.2221520092547035    0.4405253684994212    0.6279548193782993 Mo
   0.8892436245642116    0.9429916149240769    0.8728518842619208 Mo
   0.3308514037170764    0.3328794637450912    0.5002760572616289 Mo
   0.8893098103853322    0.7791086727735953    0.8679953536497880 Mo
   0.5538616471380889    0.7807848148874549    0.8688827328298795 Mo
   0.3873825727880837    0.7799956853732664    0.8730649526268185 Mo
   0.2211294190282874    0.9372450804040117    0.8718749658558020 Mo
   0.2226646095690023    0.6156665663679235    0.8723070320150691 Mo
   0.2209834722179026    0.2781017782609730    0.8689106355844253 Mo
   0.9446747094794330    0.8917672769343394    0.3652684835888823 Mo
   0.9488866476694390    0.2237876593204366    0.3611604101087858 Mo
   0.4405570716900030    0.5632905272723765    0.3687419603784099 Mo
   0.4453141662113624    0.2173101706539451    0.3725251379181939 Mo
   0.1105609679068535    0.7237817385176528    0.3669178664471344 Mo
   0.1137023110550916    0.5567851943401885    0.3638614790597021 Mo
   0.1106154364444021    0.3888027306285576    0.3664719889606715 Mo
   0.5553396446094381    0.9415839580795761    0.8760832173470628 Mo
   0.8373024452016306    0.0061626786347291    0.4962669788942934 Mo
   0.7184017092235849    0.7706642470462778    0.6284259781834647 Mo
   0.8334506417913398    0.3337919902815574    0.4944647410362655 Mo
   0.8345316892450221    0.1678358808054588    0.4932375349924934 Mo
   0.1654695838893659    0.6710258138363515    0.0043311179644398 Mo
   0.3275751267303152    0.1606617227813251    0.0012308865925148 Mo
   0.4954688810065589    0.4983244164759969   -0.0017696348256594 Mo
   0.7181562993049238    0.4502270544316563    0.6188020399163505 Ti
   0.5553761438475584    0.4420806766093903    0.8669790098463195 Ti
   0.1670634290501473    0.1647860779964813   -0.0022625911994600 Ti
   0.6152179118852289    0.5580619154592257    0.1332447910981240 Ti
   0.5557790839729936    0.6154184593220933    0.8668211961445629 Ti
   0.6105827093089581    0.2153291300980637    0.1305264578056276 Ti
   0.3331352330987754    0.6695465054889181    0.0016808514465633 Ti
   0.4501977247624303    0.7258690575218961    0.1296514199068293 Ti
   0.7218811876250933    0.9427104201154406    0.8738405480499720 Ti
   0.4404452485504768    0.2187181838361593    0.1284882298651469 Ti
   0.4431654083986780    0.0536076580658583    0.1292034650262966 Ti
   0.2730654617156557    0.8912756285604296    0.1295930428625484 Ti
   0.8936327617623618    0.6176153155885171    0.8712534042237075 Ti
   0.0553414196700302    0.6082967494229925    0.6275316499119626 Ti
   0.2185966749882407    0.1145981502265574    0.6308680017947913 Ti
   0.3303097011654382   -0.0020579489914889    0.0011832763153274 Ti
   0.2219107579525817    0.6103760145221480    0.6269627815863088 Ti
   0.3877027932350236    0.7785156220455579    0.6286800670208061 Ti
   0.4431367182389068    0.3899095236187027    0.1313706773281009 Ti
   0.0003573974613720    0.6679110320920537    0.0032369845631601 Ti
   0.3884508184700340    0.2736537141142547    0.8699065734778371 Ti
   0.6074164162151472    0.2175655112977274    0.3775231302365922 Ti
   0.2833050464675047    0.7239030789318668    0.3696507109398876 Ti
   0.3348719209512508    0.1688152062256006    0.4995360966994734 Ti
   0.6053477399532374    0.8893317254454403    0.3748654205608975 Ti
   0.7793778520588496    0.7243832405784303    0.3711303001930071 Ti
   0.2797924984888656    0.8925486727956046    0.3725776806367668 Ti
   0.6667470281557483    0.6700011892435488    0.4961460678183542 Ti
   0.7811458958787516    0.8933562203371842    0.3700381916364668 Ti
   0.0511730696135128    0.1067515641665555    0.8737323882710540 Ti
   0.0021079254045702    0.3293096742573245   -0.0016672873403150 Ti
   0.0017862749035649    0.5006485011313706    0.4960509959576307 Ti
   0.0022306169011469    0.0027076205532527    0.4947516551496417 Ti
   0.9448456832243118    0.8879813252446442    0.1272523053608130 Ti
   0.9451570469080582    0.5569365466005223    0.3698244751830652 Ti
   0.4439821291208975    0.0554015152292397    0.3775057623619874 Ti
   0.5564274346323892    0.4488794294015752    0.6214127031164922 V
   0.3862674083003660    0.2814575688429738    0.6225141907259029 V
   0.5565346296912764    0.6128636898316180    0.6225537941600116 V
   0.1109737013947442    0.8932160379832297    0.3699781306982254 V
   0.2799161203468080    0.5565619851478474    0.3767916588558616 V
   0.2224425675710777    0.2814103000821714    0.6196069342436208 V
   0.5020312503249826    0.8378539665562000    0.0006432631606423 V
   0.0595440887802431    0.2745796097570075    0.6190107080607729 V
   0.4461342620781628    0.8921450465562566    0.3789960398274618 V
   0.6060866708503223    0.0566046388680590    0.3797911128723556 V
   0.0597532327938333    0.6150164803277033    0.8771355191562341 V
   0.7778154918210024    0.5543821621099447    0.3761505048343143 V
   0.7165340728325096    0.2756417741997266    0.8829823333050573 V
   0.6666640204927466    0.1630827991459948    0.0027538187959274 V
   0.0604500579829049    0.4489218253010050    0.8744589617680157 V
   0.6665427640135176    0.3298726621530104    0.0063256146824099 V
   0.7190295015752041    0.6117799074037863    0.6214312037142460 V
   0.8338070806123966    0.8351758373573099   -0.0001392247816764 V
   0.6137172932717667    0.3878923128266524    0.1324460880125077 V
  -0.0050275987111118    0.8320092436249259    0.4963882459356569 V
   0.0012052532501574    0.5052362692333739    0.0024508931945641 V
   0.1056509221447413    0.3785520089573193    0.1260218337216766 V
   0.9450741113155344    0.5606775786092043    0.1277449087477295 V
   0.8315913721968832    0.6641929930314961    0.4969516635884105 V
   0.1065346242483260    0.0509613391161552    0.1241588290519868 V
   0.8324777166419256    0.5021391667995320    0.4961558889893065 V
   0.3319341085503332    0.5040679976777712    0.5000465133926307 V
   0.4985308180913995    0.6705769452576891    0.5003685364119803 V
   0.6604501504058824    0.1644657639470933    0.5027618310187842 V
   0.8885026573288723    0.4463780937594554    0.6178529757735562 V
   0.7813114081529733    0.8905336466195257    0.1255120016499083 V
   0.6660210113929158    0.3327505375727023    0.4985750348544455 V
   0.8942969495688315    0.2785518639747016    0.6152202346845387 V
   0.9005556412778341    0.1210269498153241    0.6209045662238233 V
   0.4439807413157005    0.5545612546622067    0.1275344059055729 V
   0.0004013092177966   -0.0030410295180495    0.0007563507717375 V
   0.9448703180475816    0.0552702664127886    0.1286938074439628 W
   0.6696314377668845    0.0009655601941687    0.0015151440042991 W
   0.0484609674701725    0.9378525610546128    0.8731874090985773 W
   0.0569217144425598    0.7809479309896087    0.8682997654442798 W
   0.3852303846614334    0.1037595734285528    0.8722712930645712 W
   0.3845170989933357    0.9378842462752998    0.8752842365116559 W
   0.8378298725670908    0.6690805409281084    0.0018226468900953 W
   0.1657413884601723    0.1676006056542531    0.4962849834393930 W
   0.8349212261124835    0.8366341118129137    0.4986385013364071 W
   0.1675334496230956    0.6655530127200263    0.4946322274461787 W
   0.7805601239622275    0.2161028257174522    0.1339613977491955 W
   0.6185673082164745    0.5612759226558924    0.3661832801808080 W
   0.3361390806758706    0.8348442124218441    0.5008252021650396 W
   0.4994708361942375    0.8334733503335570    0.5008745559668781 W
   0.6703969534541903    0.0038767826174113    0.4994810694427834 W
   0.2721391273599844    0.3923093830980708    0.3641024245034191 W
   0.8350574708206648   -0.0016001553038818    0.0017185904297379 W
   0.1060821831819440    0.2204380231465214    0.3660743419266598 W
   0.9426494364324971    0.3872190025958513    0.3657628998774192 W
   0.7803718972256427    0.3894309757645622    0.3682719663423489 W
   0.3856994084568606    0.1139177492825338    0.6314301585360031 W
   0.6188432282230777    0.0578363049800087    0.1310228189802785 W
   0.1058887399067706    0.2148589337750594    0.1253827400264430 W
   0.4999482719700274    0.1638257767038525    0.0002325913877011 W
   0.1621399906715306    0.8310095523104792    0.0020272514550037 W
   0.0579407021711341    0.9507006171019243    0.6307805696327874 W
   0.2725900194366677    0.0536702690225337    0.1331334919533017 W
   0.8853171429636039    0.7773329911176516    0.6262355449811748 W
   0.3853696761655427    0.9462142063857725    0.6347962457758689 W
   0.2253315396090453    0.7742169101059290    0.6356240307983181 W
   0.5562990844562032    0.7724394250189048    0.6276276817848319 W
   0.3326719333107872    0.4967538296064989    0.0013269971061524 W
   0.2246608131539609    0.9498932633472581    0.6358444897245729 W
   0.7249605729954579    0.7793116324848959    0.8672166112359107 W
   0.7225070983194739    0.6111663588864248    0.8628413954417019 W
   0.7206277754816975    0.4415684806279207    0.8672673277514941 W
   0.6142194910471601    0.3868234833932294    0.3644823271102716 Zr
   0.7284832660758208    0.2877201268224513    0.6347005495618743 Zr
   0.8371342766790292    0.3334711566283308    0.0039172627139334 Zr
   0.8973841892523858    0.9512498744099417    0.6346820095209879 Zr
   0.7299378305587998    0.1163644155237151    0.6356809743413058 Zr
   0.3874616472694228    0.6091626341766234    0.6380231977386414 Zr
   0.8850983435747130    0.6104784691181093    0.6351587669461771 Zr
   0.5552097794559503    0.9412259349640715    0.6373249367512687 Zr
   0.4996235096764822    0.5012699276175788    0.4969151636620439 Zr
   0.4456858429026559    0.3929444601129696    0.3599140261050948 Zr
   0.6683078515291997    0.5001948654727955   -0.0000130989156406 Zr
   0.5536492278817285    0.1137528929036563    0.6453061867529942 Zr
   0.5532303405195135    0.2867589715957812    0.6344296909829132 Zr
   0.2764048275480518    0.2192290474103376    0.3632166722114201 Zr
   0.6688936161793217    0.6698424692241048    0.0022916226005687 Zr
   0.1650981825391437    0.8336090706758945    0.5011515107160646 Zr
   0.7748699425183704    0.0576474367749394    0.3569471224377795 Zr
   0.4557778216490040    0.8948241002994347    0.1411913758197752 Zr
   0.5596582272641063    0.1113110076110888    0.8615963476739245 Zr
   0.4984379771487266    0.3314296305753555    0.0021142509366108 Zr
   0.7275365415650420    0.9434547713460928    0.6420196161712692 Zr
   0.7846591092830254    0.3928084444817965    0.1442082912978391 Zr
   0.5013478534425426    0.6700530368017639    0.0015334573118135 Zr
   0.8830876249275540    0.2691782887854580    0.8643909974863209 Zr
   0.2176392289779314    0.1057587840941734    0.8587224327724065 Zr
   0.8900099952984980    0.4478698930628723    0.8653895968626584 Zr
   0.2817679889861294    0.7276484415570754    0.1417624459904417 Zr
   0.1660119255940644    0.5007186068002701    0.0014589620366253 Zr
   0.0565183276671207    0.2736412794892698    0.8601854754110703 Zr
   0.2730773176424461    0.3828772640608257    0.1357951460887799 Zr
   0.0562789755139226    0.4393267924949852    0.6340062165375474 Zr
   0.9420831584829560    0.7211972821384762    0.3570184693163190 Zr
   0.0559175564620380    0.7822051183588530    0.6423872581917883 Zr
   0.1058956056492563    0.5509797193333028    0.1434175776612145 Zr
   0.6102138140625036    0.7285096390420682    0.3575440691423181 Zr
   0.3828294387404929    0.4411143874649671    0.8596816901416764 Zr
