Na100 Li5 Mg2 Ti5 Mn50 Al5 Fe5 Cu3 Ni25 O200
1.0
   7.5055765200828963  -13.0523924173168950    0.0100006589026246
   7.5371399326801756   13.0706103968154359   -0.0021183155331933
   0.0114002116157429   -0.0101300118752661   21.5624538469746447
Al Cu Fe Li Mg Mn Na Ni O Ti
5 3 5 5 2 50 100 25 200 5
direct
   0.4010234792659629    0.4006897585158029    0.7501997148110227 Al
  -0.0014669389304069    0.0033070088744931   -0.0019912009048381 Al
   0.4010172580854217    0.7980317947111105    0.7485551043418921 Al
   0.3967812051147976    0.1990850190220145   -0.0011655712933717 Al
   0.2030087631632261    0.7993704175476640    0.2502085391554099 Al
  -0.0025630293769516    0.1983270273077275    0.0010759689414017 Cu
   0.0022217507984962    0.6034005784100428   -0.0011527891995576 Cu
   0.1968813609062866    0.2011575334311451    0.0002585395314746 Cu
  -0.0036238140791937    0.3988606754154609    0.2495595173024469 Fe
   0.0017226346919094    0.6039370150113990    0.7499397224206383 Fe
   0.6023118715855232   -0.0051585755436384    0.2487310409147337 Fe
   0.5953158020044824    0.7999529010958459    0.4961843643486500 Fe
   0.4050093666207620    0.6060301281913159    0.2491067000869153 Fe
   0.1950008547854406    0.5988859885980551    0.5010365019353563 Li
   0.6087494087796633    0.8046586546188310    0.2473971414679998 Li
   0.6006655341047159    0.6029940119882290    0.7497433284440960 Li
   0.7985298420038118    0.1889485368037490   -0.0009193332207533 Li
  -0.0100741204604748    0.1959545144400194    0.2500903984542444 Li
   0.4004836027211182    0.1979792057467955    0.2492992944440656 Mg
   0.4006403601242766    0.2007044236941626    0.5002062084896133 Mg
  -0.0008074986157770   -0.0016095140056953    0.7498078273976053 Mn
   0.5993039890287362    0.6031438845291639    0.2463262229406865 Mn
   0.5973271907063502    0.4009215181740289    0.7503411611842717 Mn
   0.0039164214213147    0.1993604883664515    0.7522364254634627 Mn
   0.5951935243733266    0.1955286725863561    0.7484553093177546 Mn
   0.5992639573802925    0.1992274054272939    0.2495463977075208 Mn
   0.5955169785099574   -0.0075491802551373    0.7466855341071659 Mn
   0.0008515427596745    0.6033764237941127    0.2503915435158601 Mn
   0.3989188441980789   -0.0044351973105503    0.2511497440083134 Mn
   0.0045685069260160    0.8042304417495462    0.2527614968479157 Mn
   0.4001068387766929    0.7975354386389607    0.2521253129949531 Mn
   0.2019672080015153    0.0004049504652917    0.2509222165575002 Mn
   0.4042404177351975    0.5983558495053933    0.7504894919927978 Mn
   0.1997007327900701    0.0020392350194993    0.7514303774097795 Mn
   0.1970204471227300    0.4009429892595198    0.2490128905564893 Mn
   0.1971119868020740    0.6001299178567620    0.2511526527781172 Mn
   0.3961765078756471   -0.0024809624523465    0.7502309983597665 Mn
   0.2039365690188077    0.6016400475272353    0.7507988892924087 Mn
   0.7995673380946938    0.2005538717708479    0.2491323879726089 Mn
   0.7972251901152617    0.7993414925773309    0.4984410198816484 Mn
   0.8012818419748104    0.6055595100492764    0.2493533118739314 Mn
   0.8044459120461626    0.8039658398134079    0.0013471894222786 Mn
   0.8023336998556190    0.5996999719920141    0.5023833276024064 Mn
   0.8030605621049729    0.6007542639221087   -0.0015316196014400 Mn
   0.8030513619456752    0.3996518656624666    0.5024091510006313 Mn
   0.7977231286897488    0.3920112665309083   -0.0029172462141587 Mn
   0.8057735310199817    0.2024665586787356    0.5024413108022678 Mn
   0.7993950760211255   -0.0011194355676726    0.4988899601643918 Mn
   0.7975718582779728    0.1940218921208683    0.7504655080688041 Mn
   0.5973117703214020    0.6022839049209682    0.4978962266684896 Mn
   0.6018630280659730    0.4051003732479636    0.5010565360615228 Mn
   0.6039451665237537    0.2047260101910693    0.5019932654573926 Mn
   0.5993871123135174    0.1955866470722962   -0.0003032955673583 Mn
   0.5991737956130193    0.0004654410891664    0.4994385387699395 Mn
   0.3940076330148481    0.7967099742638583    0.4993209212994967 Mn
   0.6030802411317220    0.8002478266855237   -0.0009182522349489 Mn
   0.3943903073979260    0.5995508867475376    0.4993535643659348 Mn
   0.4030620336999866    0.8004886587756846    0.0004972542750548 Mn
   0.7987998613475279    0.5982349434225288    0.7516376651569799 Mn
  -0.0031586160980844    0.3980796114893961   -0.0001541772985745 Mn
   0.0042476584103418    0.3997167020810571    0.5029001709615107 Mn
   0.0002916366258497    0.7989317332807810    0.5024966467838530 Mn
   0.2021061303460527    0.0062537567492211   -0.0015403280648937 Mn
   0.0051738268933568    0.8062920424959804    0.0030133962387757 Mn
   0.1979316244956402    0.4044188736522267    0.0008857916184504 Mn
   0.1990667612838579    0.3992473925536248    0.5003330396615762 Mn
   0.1988150661908946    0.7987341876628296    0.5013152309732791 Mn
   0.4022589805874142    0.0006046199542595   -0.0002151502030039 Mn
   0.3953641015306213    0.4004845517048726   -0.0002004889449146 Mn
   0.2015478229967806    0.1999522085581755    0.5006432326918042 Mn
   0.8707145131791433    0.1284994339572066    0.8814323642545706 Na
   0.6656714500230193    0.7290410924573932    0.8685682372208928 Na
   0.6670021230600240    0.9350660037057767    0.3675052341391822 Na
   0.6668796982058456    0.9298846074586190    0.8732523790061293 Na
   0.8652719053340057    0.1311356227945571    0.3715507989115878 Na
   0.8636254130676618    0.3351044287006348    0.3745720188655759 Na
   0.8622520759962184    0.9295740565765116    0.8718070813224267 Na
   0.8673001462007294    0.5368972133024053    0.3770127056411806 Na
   0.8645925014417019    0.5257091206919576    0.8742749996597423 Na
   0.8645416036323579    0.7331834110564340    0.3746327269271994 Na
   0.8710536234503912    0.7379515755619015    0.8723338341660748 Na
   0.8674688698043863    0.9333834717947800    0.3714620999625110 Na
   0.6669426472392158    0.7390677459121900    0.3684131805529336 Na
   0.8594418606091909    0.3161682542259169    0.8762392644905705 Na
   0.6652764359089947    0.5338274753851338    0.8720552307760189 Na
   0.1341551736404289    0.0682839131772634    0.1223781624758086 Na
   0.6642680142667267    0.3275268072706513    0.8715450134184958 Na
   0.7322327780578075    0.6648368232778434    0.6293721469505134 Na
   0.7343831887665213    0.8697493033730517    0.1291348162186285 Na
   0.3375242462337054    0.2696477517096132    0.6261604101626171 Na
   0.3321873959200727    0.2642944828217171    0.1212809988977947 Na
   0.7350691289101086    0.8695139497284938    0.6288932808336792 Na
   0.9309275489610844    0.0684522163977401    0.1282213840922966 Na
   0.3320341305747819    0.0681003979149726    0.6221179394609602 Na
   0.3378856780435646    0.0671425734231179    0.1274263492868437 Na
   0.9356464059300128    0.0630695200554040    0.6237746670175387 Na
   0.9332367748630829    0.2670683934602225    0.1232612339831177 Na
   0.9393752939800568    0.2601035065939882    0.6253336070790675 Na
   0.9295069488089291    0.4683006107998921    0.1239628328046924 Na
   0.1331440157362877    0.8666556908327958    0.6283889396639317 Na
   0.9355366519673090    0.4627011441583428    0.6275895505125955 Na
   0.9391918456054230    0.6726819266335305    0.1247011260097191 Na
   0.9346668818562214    0.6609421529489733    0.6263719800690205 Na
   0.9377401455946229    0.8729651469805627    0.1289774752012653 Na
   0.3323427374903397    0.4704640436836194    0.1242841799792165 Na
   0.5290861005766254    0.0606330086554115    0.6222025021058587 Na
   0.3348109273634476    0.4649621421552383    0.6256904906118411 Na
   0.7359547662257552    0.4626881645514573    0.6275500431019145 Na
   0.3317024505383760    0.8667205678254333    0.6270284705209540 Na
   0.5356235490978886    0.2642229862401790    0.1234534437743434 Na
   0.5322508462341470    0.2677416332882687    0.6257175962213908 Na
   0.5311892780252335    0.4661943806256045    0.1216156684683014 Na
   0.5367551608365388    0.4739483718578933    0.6270866117862677 Na
   0.5333983035737343    0.6676034930955937    0.1222693155124652 Na
   0.5341771659466783    0.6669343930283944    0.6301978747003995 Na
   0.5360079462816381    0.8645228836660961    0.1257622133054359 Na
   0.3350414763503468    0.8631226988040164    0.1241638863341669 Na
   0.5317609820391175    0.8586230605315466    0.6252104823274823 Na
   0.7341203969493133    0.0668139786035149    0.1196229625204014 Na
   0.7333628916112227    0.0664303307415744    0.6258940590824303 Na
   0.3295798706165914    0.6631875432551064    0.6238507658542952 Na
   0.7343074632680042    0.2653326015261736    0.1238761030256457 Na
   0.7376279206015057    0.2670118724347522    0.6291234809369826 Na
   0.7382960819168897    0.4716506904108461    0.1229978553809335 Na
   0.3323343559726069    0.6652006370999870    0.1216164085328525 Na
   0.7358023402782523    0.6692478772706936    0.1237600841784554 Na
   0.0608062630867953    0.1344593857786470    0.3767954178626159 Na
   0.9308655053205701    0.8587808231700076    0.6286325738168927 Na
   0.0601955498594895    0.3275381265569358    0.3721136324440866 Na
   0.2637505626049859    0.7270009102944760    0.3777255154578544 Na
   0.2667570272165206    0.7373972577837373    0.8758582016681405 Na
   0.2662315960763607    0.9326552008272022    0.3786802104669686 Na
   0.2656036991398520    0.9330515716172342    0.8754622411771940 Na
   0.6637942195565758    0.5389384909249868    0.3745455580041457 Na
   0.4670440451316235    0.1335473459144680    0.3772717380959413 Na
   0.4598978158098153    0.1323715181213387    0.8726700721530662 Na
   0.4682736139450301    0.3359872175810159    0.3794214355670656 Na
   0.0686442433597330    0.1338703440850130    0.8771109393869717 Na
   0.4632552195731529    0.3289371794339032    0.8721344264374722 Na
   0.4690253946840325    0.5337292896551038    0.8748980370855235 Na
   0.4712205517173765    0.7355866365978880    0.3710642467575085 Na
   0.4677595057572629    0.7341398239206467    0.8737183484318899 Na
   0.4595005245332213    0.9307108847823371    0.3759784257018001 Na
   0.4710486132783608    0.9334388054759862    0.8756821844371477 Na
   0.6658518018404109    0.1361788736536102    0.3745095833446811 Na
   0.6643132498141765    0.1265454695378247    0.8780106350208449 Na
   0.6701612585753470    0.3395137393046689    0.3746362712656782 Na
   0.4629933747506891    0.5333214258871741    0.3747909691093695 Na
   0.2681072877583468    0.5386296828649921    0.8751783047689028 Na
   0.1326768222504603    0.0650384600129504    0.6236267375331270 Na
   0.2655078385887157    0.3350417505782362    0.8728643734957506 Na
   0.0719856082290911    0.3351536298359460    0.8771948868219334 Na
   0.1422032498556767    0.8749077496115488    0.1261067595564593 Na
   0.1343018305037270    0.6638942708312326    0.6234879896311694 Na
   0.0658672291672756    0.5361835652138731    0.3806924110136194 Na
   0.0659278720803269    0.5339888157737636    0.8798262775784508 Na
   0.0680624561450420    0.7352538853506996    0.3776595974509416 Na
   0.1330053281096396    0.6700405558799540    0.1191379792029437 Na
   0.0679389395271733    0.7351673637687217    0.8740516653932174 Na
   0.2625201246568550    0.5343805148867871    0.3761241183033373 Na
   0.0695162926448394    0.9409342986708359    0.3792670915291637 Na
   0.1376057984638420    0.4650991623434229    0.6262729985872962 Na
   0.2692744297179116    0.1355732956759339    0.3775848130704091 Na
   0.1331790501823002    0.4769098159040877    0.1246872630506002 Na
   0.1397785784274775    0.2663386097865323    0.6287037910365033 Na
   0.2618604126884216    0.1399630431038288    0.8731780257883276 Na
   0.2670444299422123    0.3339244863400669    0.3770068690154588 Na
   0.1270782880206284    0.2680296050432705    0.1220347834199331 Na
   0.0655208081673884    0.9333378905634010    0.8734778843393715 Na
   0.5320975050009084    0.0601724135795765    0.1253990942158104 Na
   0.6003295060874314    0.6016866563919209   -0.0012492033546794 Ni
   0.3985583526585306    0.6004702771532431   -0.0025488912168257 Ni
   0.4008568978360830    0.4018414675292654    0.5000044226072452 Ni
   0.6067241530301255    0.0006483841313181   -0.0001168904180551 Ni
   0.8029649946602976    0.0027664125799499   -0.0023905992256561 Ni
   0.2011843366508089    0.8014643269035019    0.0003485772667193 Ni
   0.2046726038144278    0.2037387526893089    0.7496430550812752 Ni
   0.2051842343380079    0.3985057484874293    0.7501463928911228 Ni
   0.1997485238633114    0.7994579047205987    0.7506275750661724 Ni
   0.3952287631923790    0.2009620711635713    0.7508118827967812 Ni
   0.3987102985394706    0.0024445182062518    0.5006601621007859 Ni
  -0.0061409831830108    0.0007789251665226    0.2521909634224772 Ni
   0.6019718570004270    0.7958945087961592    0.7493015028130716 Ni
   0.8024123544646147    0.0023177280619609    0.2498674747457963 Ni
   0.8014993489316402    0.4040114964313317    0.2493393962629074 Ni
   0.7983838948781489   -0.0056880533026493    0.7500791035780469 Ni
   0.7972973218407382    0.3962289617905115    0.7509579489627393 Ni
   0.7991348370916780    0.8063107869881210    0.2490883900346582 Ni
   0.7961676792740919    0.7957985342810469    0.7495052157449554 Ni
   0.0010364156372242    0.0003758811471408    0.5011799167229521 Ni
   0.0002993540764418    0.1950152481992542    0.5014268978122247 Ni
   0.0039598053693358    0.5971066019925066    0.5024796845615368 Ni
   0.2019758814584640    0.0022858073011228    0.5006096254033647 Ni
   0.2007811372662168    0.6044901181643200   -0.0011925432491690 Ni
  -0.0002406597221925    0.7988333150775543    0.7504722089351274 Ni
   0.7312756785928539    0.0598512183126546    0.9445924593440262 O
   0.7307834756910353    0.2744801639213582    0.4499005797795829 O
   0.7234556626369533    0.2649432340458490    0.9504666781773933 O
   0.5400045148620791    0.6737723440934000    0.9490192182204858 O
   0.5333068161871848    0.8583905047942149    0.9510295198746869 O
   0.5185254504393374    0.8570001880691659    0.4475589732119040 O
   0.7303565670513781    0.4750301854637553    0.4494074324266901 O
   0.5191712070156894    0.6666798754652319    0.4476247943471178 O
   0.7347527567029081    0.0665798128028941    0.4530376775989660 O
   0.7262192720401164    0.4510376571647186    0.9470048428130313 O
   0.9311055278658446    0.2673907952209655    0.4529266247612684 O
   0.7449294852016494    0.6725186722800426    0.9531090073438182 O
   0.7274971582164813    0.8753927218118100    0.4464361825672975 O
   0.7319583936230966    0.8551686775153499    0.9512735633047525 O
   0.9213297277985187    0.0593668698813236    0.4504239227663667 O
   0.9373661166889763    0.0525436067036949    0.9445304888621855 O
   0.5348793247967906    0.4588589137006139    0.9478047795664808 O
   0.9432722627090380    0.2739843373861482    0.9531906290896560 O
   0.9341270450159492    0.4564682876047973    0.4529629735518522 O
   0.9191410834348667    0.4446831099230125    0.9465174045681499 O
   0.9301654235413227    0.6679107900492545    0.4527888576244533 O
   0.7283535723824242    0.6754605052114367    0.4477552212797765 O
   0.5353012770748167    0.4792317966655842    0.4471538494788104 O
   0.3182300176708806    0.4626798850689960    0.9469279520687597 O
   0.5441642036764713    0.2710463100286234    0.4525008253121925 O
   0.9385665470472624    0.8767117905593537    0.7993599690847006 O
   0.1367658599610209    0.0775520668369327    0.4511254426899284 O
   0.1282183498474690    0.0572945816638077    0.9509801532422901 O
   0.1397496747031420    0.2716393932362423    0.4519283964190409 O
   0.1313179943249917    0.2735144381084748    0.9547067655931419 O
   0.1262571719448927    0.4524335995290598    0.4512469331313912 O
   0.1273435217661658    0.4614363612861140    0.9515044574510826 O
   0.1348183517134059    0.6757685738388208    0.4507639305358147 O
   0.1301779757354854    0.6702191352395757    0.9487213648674329 O
   0.1276532880138603    0.8590277300258569    0.4526998304063745 O
   0.5271361955494337    0.2615867900527894    0.9505695869288611 O
   0.1309150819270015    0.8742576565858514    0.9521610568705127 O
   0.3251959337042224    0.0756984599157537    0.9489154730591236 O
   0.3272635881452164    0.2662361107580360    0.4505178911496939 O
   0.3382867291489391    0.2696050727117166    0.9546718582364950 O
   0.3265598016131782    0.4725522751107464    0.4507548303686085 O
   0.3355872220174929    0.6681940607973713    0.4527318925163434 O
   0.3384150929216341    0.6789167528739807    0.9483754067123809 O
   0.3273485820478041    0.8569620377434771    0.4517855618047819 O
   0.3455063653022458    0.8717949454667617    0.9515282933742407 O
   0.5450188759568507    0.0758020630995327    0.4529684147406801 O
   0.5306382629085794    0.0724917439590198    0.9493230967005281 O
   0.3349824766701697    0.0665968311898239    0.4477093854175584 O
   0.9387982145294012    0.6779752987022211    0.9543403336817196 O
   0.0677349126546008    0.7515699438457796    0.0546001850315561 O
   0.9349133002003192    0.8664295071206846    0.9537216160383573 O
   0.4567123825484534    0.7292708615703137    0.5481797274333677 O
   0.4666862435090047    0.9235436270853877    0.0520428943563680 O
   0.4677925678814546    0.9255189017306769    0.5472494254377065 O
   0.6544888436391230    0.1354960468265310    0.0504284660867574 O
   0.6758227687218064    0.1474266132033934    0.5503914414253576 O
   0.6675844505056991    0.3288579627648799    0.0465718639015053 O
   0.6738192100238454    0.3287938139625206    0.5522229828101674 O
   0.6674963233121125    0.5240655958211723    0.0471886322699486 O
   0.6751765692142622    0.5346303567688377    0.5526664414381638 O
   0.6742157522115597    0.7415106436660611    0.0487665899573280 O
   0.4726546141187675    0.7393853548698459    0.0472567896516665 O
   0.6629783195009528    0.7328558964025343    0.5461765655888619 O
   0.6635580886993098    0.9337833539729602    0.5473853723861921 O
   0.8751614684692037    0.1332621675603645    0.0509138317486554 O
   0.8624374654660311    0.1164980812037397    0.5533407938906901 O
   0.8682188205006552    0.3430064014104684    0.0483699509743645 O
   0.8736410463131216    0.7284263833230377    0.5522829973559670 O
   0.8757319584942741    0.7474866361972132    0.0524319608348043 O
   0.8662042937402417    0.5204469180736212    0.5536139453986282 O
   0.9439185225212724    0.8621835397835832    0.3023723991850479 O
   0.8603935798590615    0.5266576800237049    0.0434036438826143 O
   0.8786807210537700    0.3277053900051808    0.5538420781741448 O
   0.6656747032788456    0.9230730383972083    0.0487969884191263 O
   0.9317656418635194    0.8567434726403544    0.4529060600982570 O
   0.4671039292535241    0.5446034158119627    0.5480051985371529 O
   0.4788163094986291    0.3439773497621667    0.5508537901845592 O
   0.0605832911756473    0.1248808510887595    0.0469158894633172 O
   0.0756901651090472    0.1377817285490503    0.5513763336036038 O
   0.0709348293831893    0.3504586534534408    0.0518035860321577 O
   0.0736390958482960    0.3394547600084061    0.5500407231453063 O
   0.0572515559475378    0.5293498150555556    0.0466330905108535 O
   0.0625407035962314    0.5200041944947741    0.5522080953540675 O
   0.0713356837788764    0.7394239377250046    0.5498143346602953 O
   0.0703948182991779    0.9394131479587837    0.0472927771168087 O
   0.0590458028061240    0.9212457622426803    0.5513361140553443 O
   0.2721864533349235    0.1308981644923368    0.0487474237682263 O
   0.4634351961307236    0.5249980964714056    0.0481085984034434 O
   0.2645217268911514    0.1418539963850645    0.5511885963844609 O
   0.2605805084084484    0.3329132560775153    0.5482135164428702 O
   0.2627048176454684    0.5296887110423055    0.0493922925343355 O
   0.2704953400693373    0.5260758865960247    0.5495157879297787 O
   0.2777738576428572    0.7395168461021338    0.0504641143004818 O
   0.2698085235701248    0.7430024597332127    0.5501058865519567 O
   0.2713710545063059    0.9456391905601246    0.0468328777645253 O
   0.2629620862463818    0.9253525084645369    0.5510825150014544 O
   0.4646924875292940    0.1342907321961672    0.0447638728682986 O
   0.4803311552416892    0.1403571384889244    0.5511827582891773 O
   0.4715948250808273    0.3237243862684397    0.0489687929589123 O
   0.2627087462257213    0.3431761403504572    0.0509755383728354 O
   0.9267969959825806    0.6567958136093032    0.8024979516689720 O
   0.8629582541873660    0.3294631055667287    0.1992455893496962 O
   0.9377472672404101    0.4583837965820086    0.8025128952725757 O
   0.4690912224180872    0.5348193462423765    0.1990186233498450 O
   0.4568747723988598    0.5300523131087249    0.7022223489532798 O
   0.4542504830160177    0.7329249460255992    0.1987275040202339 O
   0.4571731942226692    0.7264350602440808    0.7019264326234940 O
   0.4595508522858036    0.9248241516659220    0.2024348751882939 O
   0.4688053756286904    0.9214372743930636    0.6977806542345040 O
   0.6672988819137434    0.1372625140848634    0.2012092458566433 O
   0.6508406656314100    0.1243337076904419    0.6981142337139973 O
   0.6666519796561159    0.3479875961985435    0.1943741121835780 O
   0.4736575875803580    0.3441564188250752    0.7009724473037009 O
   0.6576113225765106    0.3233457992562707    0.7014842130796408 O
   0.6719700487786090    0.5239119721890471    0.7022957891264757 O
   0.6620992801184791    0.7207110515730167    0.1965326149697610 O
   0.6698638987346679    0.7374103520555934    0.6949816395015950 O
   0.6651028153934658    0.9414522127206684    0.1966259854960551 O
   0.6617168265196857    0.9387859621947819    0.6979799771071297 O
   0.8568891342764794    0.1400415705700014    0.1998768668376035 O
   0.8719318306406021    0.1386919143885595    0.7042615586445603 O
   0.8732104257500677    0.3284906098453169    0.7031111307833097 O
   0.9473564886709955    0.6757067053840167    0.3016892874028661 O
   0.6569275838040948    0.5315423546515149    0.1962446488483736 O
   0.4696708663133928    0.3395128411454750    0.1991764001640756 O
   0.4673430849821571    0.1292313612218559    0.7020285892913787 O
   0.4768105205958473    0.1397766802496611    0.1971329709397517 O
   0.8738695583906575    0.9297090493128889    0.0469996085649109 O
   0.0767736211028281    0.1389402771941592    0.1953068914771484 O
   0.0600820930250210    0.1324331838942941    0.7019405822619490 O
   0.0734372427837761    0.3477566904574114    0.1995161373027275 O
   0.0628716789913844    0.3265571302605308    0.7025611477313740 O
   0.0540542893044352    0.5378869651829101    0.1976404906927595 O
   0.0730934440111794    0.5297524851585118    0.7025006707815235 O
   0.0721994337260666    0.7365577414293680    0.2037176476823442 O
   0.0672572272021886    0.7280739598852167    0.6981706700967708 O
   0.0719843132490822    0.9292614800279290    0.2029083103648504 O
   0.0697324689926777    0.9410104711700661    0.7015947031827561 O
   0.2613722752798197    0.1285348670918762    0.2014701875066589 O
   0.2618493835958163    0.1245982750686784    0.6996867211257535 O
   0.2772650440190641    0.3303901619909241    0.1968595449311847 O
   0.2795591802311765    0.3385693084845331    0.6991862231049670 O
   0.2638535371666075    0.5339643644047773    0.2021862666032337 O
   0.2689219854967805    0.5390289822918832    0.7026146804136731 O
   0.2633274058263924    0.7300306261180001    0.2035807530512766 O
   0.2712085091848244    0.7280247499577920    0.7022517871021242 O
   0.2706449554746514    0.9207836460883874    0.2005590539331704 O
   0.2682329190874372    0.9422086557933127    0.7019576405653263 O
   0.8667402120306138    0.5322706521623046    0.7028695007851222 O
   0.8788339467434519    0.7362982554704059    0.2030894945831137 O
   0.8738119937848077    0.5468872869111182    0.2015220963816172 O
   0.8690609532933223    0.9353160766884483    0.1969958663058500 O
   0.8627815468097824    0.7190177849686720    0.7009547851106724 O
   0.5305117630096821    0.4546617793806463    0.7979463671110426 O
   0.5339034753653702    0.6567303878086335    0.2983395562977287 O
   0.5207717273777162    0.6616590588355763    0.8008672829838558 O
   0.5217439392286243    0.8653532724589442    0.3001283958020335 O
   0.5284938387435199    0.8697979478342569    0.7965182123587713 O
   0.7317857785954154    0.0766038605069195    0.3006696043319269 O
   0.7220783780905730    0.0640746953561234    0.7963343909601969 O
   0.7274821628598732    0.2642753148367283    0.2977556266429275 O
   0.7238805806078840    0.2534387203899490    0.7974886294028848 O
   0.7293095714541379    0.4741690143138740    0.2981978141251754 O
   0.7266997694882921    0.4642443807325669    0.7996087785282259 O
   0.7266686303813004    0.6601823488377488    0.2958888579695184 O
   0.7420945963324360    0.6608702662718157    0.8011962599426162 O
   0.7375799110642228    0.8713490940573978    0.3010343694297337 O
   0.7319421394483980    0.8652681005819103    0.8020346124122691 O
   0.9319785961403212    0.0662263269928633    0.3026843280270113 O
   0.9424020932826459    0.0702739135341633    0.7987523323076547 O
   0.9213452760806535    0.2706973667509021    0.3007323847064092 O
   0.9462614377254764    0.2691461033642024    0.8037052080722109 O
   0.9371164375357828    0.4800420732703364    0.3004865829028505 O
   0.5385970248138624    0.2659858534344345    0.7978925664190634 O
   0.5418517732078499    0.2761073527271001    0.2983780747501875 O
   0.5322674718328775    0.4682698042933732    0.2965316554371717 O
   0.5218349749714016    0.0579989731304914    0.3022282182224044 O
   0.8791723704791916    0.9389126087647579    0.6988039807963353 O
   0.1382603117115504    0.0817922303903934    0.3046867832258191 O
   0.1296111327086125    0.0604185530459033    0.7982794828131848 O
   0.1445056713483409    0.2738502836756935    0.2981038177765902 O
   0.1267063110538665    0.2617844836283758    0.8012448859516408 O
   0.1297502226215322    0.4777952962248891    0.3032854208444509 O
   0.1349341691572553    0.4723267456741468    0.8003943474761465 O
   0.5307756305787065    0.0644373921475976    0.7966360998295305 O
   0.1360807092140115    0.6600385722448163    0.8004938695046159 O
   0.1373615596257370    0.8651773075572879    0.2981511645585702 O
   0.1302102502797278    0.6691465454153162    0.2967678524653043 O
   0.3304685884059251    0.0598679652932334    0.2982466819193486 O
   0.3424635551091992    0.8674859915320184    0.7969348899903815 O
   0.1372796927418163    0.8739598549393580    0.8005257612523056 O
   0.3321398776718772    0.6678367295540535    0.7975861134669666 O
   0.3425199548995123    0.6735473141254215    0.3027795363781179 O
   0.3223567939087026    0.8493061325137329    0.3012753381276537 O
   0.3321386646999170    0.4637768491930468    0.2971049897713170 O
   0.3380017884703297    0.2786474167586802    0.8005138416284857 O
   0.3410221926138439    0.2762185969387977    0.3011992625725063 O
   0.3198183942101033    0.0650386834437325    0.8034189635578596 O
   0.3433737916245366    0.4717946022861992    0.7992113002294394 O
   0.8534978996350202    0.9266639468268131    0.5471011479863722 O
   0.5955022270466416    0.3989600154593344   -0.0032100999668476 Ti
   0.6032894438899797    0.4002304975628156    0.2461673773252985 Ti
   0.3946693949581984    0.3923246682420672    0.2502399845281267 Ti
   0.1839646997031364    0.1913738644428027    0.2490169786052186 Ti
   0.0012641200339022    0.3989697587285506    0.7546728084613917 Ti
