Hf48 Zr48 Ta48 Nb48 Si144 Mo48
1.0
  13.3553100418238362   -0.0021245144112430   -0.0018264982610225
  -0.0031867816343168   20.0372954225914270   -0.0032511629541265
  -0.0032993085045179   -0.0039164024521360   24.0397488851384509
Hf Mo Nb Si Ta Zr
48 48 48 144 48 48
direct
   0.5767598142095809    0.4485294329815959    0.6728961769905789 Hf
   0.1757746283895139    0.0540982248545027    0.9215528529242729 Hf
   0.3339755555805790    0.9430106724214539    0.0741812405270285 Hf
   0.5010288390170208   -0.0003673615980681   -0.0018503899448211 Hf
  -0.0034468810017690    0.6667360253291233    0.5019166143632257 Hf
   0.6656923558783134    0.2761463551208759    0.8283323440491251 Hf
   0.3316537680020121    0.6114143313850648    0.4250057681586056 Hf
   0.8338183834464178    0.2825457136299756    0.4215280840921549 Hf
   0.8334913846807213    0.2766571317361530    0.9214137789964436 Hf
   0.7468498181136649    0.5033413825372673    0.0003056903784034 Hf
   0.8325647580778369    0.6082884482976644    0.4240062451154520 Hf
   0.0872776892661090    0.2199658137981533    0.0777274906855506 Hf
   0.2463603775908379    0.4970019965289458    0.5035760259566302 Hf
   0.8291824129540560    0.6182986074291409    0.9242500680025734 Hf
   0.8328715157028027    0.9449300421712766    0.4250651890178516 Hf
   0.6699008158535751    0.0555343614965243    0.0742611122556897 Hf
   0.8318584426640646    0.0573706193142816    0.3243529457053368 Hf
   0.0839233991869665    0.4469321396616489    0.8236408359839142 Hf
   0.5808530912496346    0.2224528160439740    0.4226252105701739 Hf
   0.3334128046231273    0.3868982917731092    0.3236173190446835 Hf
   0.4143175466193161    0.2242027689919121    0.3238347400096562 Hf
   0.3290998315211936    0.2793594430278146    0.0793580940639022 Hf
   0.9190801329675974    0.2214741533617890    0.3246437550441524 Hf
   0.3326266549894448    0.6112814062341509    0.5822761249715759 Hf
   0.1698143170186882    0.9458318258445894    0.6746406912627929 Hf
   0.1609150170651307    0.3863801347332028    0.4234959795203233 Hf
   0.6645489095184355    0.6089917555421379    0.1727883635214419 Hf
   0.3317001208403053    0.0541094667229526    0.1743932950246605 Hf
   0.4106080359843575    0.1097593798438499    0.4202826132260690 Hf
   0.9179229740438611    0.8873561587337130    0.6731649348836622 Hf
  -0.0014424900012170    0.3321182856496766    0.2508382993361182 Hf
   0.2512778273191111    0.1657639580553019    0.7513617341062638 Hf
   0.7492505894128502    0.4950824104488067    0.2536037362346762 Hf
   0.5024802765606251    0.6688598340363349    0.7473979870751161 Hf
   0.4987950436811480    0.6640516103287690    0.2493749051762032 Hf
   0.4972430759926045    0.3321486590268382    0.7493675246449565 Hf
   0.8321559103885163    0.0551813289905298    0.6757111345264933 Hf
   0.8337972954244887    0.0559430395771195    0.1716479866626114 Hf
   0.4115495467162277    0.4524999928253309    0.9279017099229475 Hf
   0.6670666703493997    0.0552553193678446    0.9241364729158877 Hf
   0.7489530980326219    0.8326340722841615    0.2466428037143049 Hf
   0.0902752721724762    0.5567281568470339    0.9241736840470616 Hf
   0.0009362744062024    0.3325978506117700    0.7484048952058869 Hf
   0.5754604703957056    0.8858481338274590    0.4242811056497573 Hf
   0.9220599146164616    0.1137809396177780    0.4226913044454337 Hf
   0.5801341605081038    0.5514196853141834    0.4224831299267117 Hf
   0.0748928330315361    0.5477280447754893    0.4234017562088461 Hf
   0.2520386494740245    0.8342286337850857    0.2514804401460376 Hf
   0.0836868934877299    0.2269103425784250    0.4223933445958967 Mo
   0.5831752255046251    0.7777527685973472    0.8233837518550184 Mo
   0.9146068876357815    0.2217762199164149    0.8235841333812194 Mo
   0.5793518551048620    0.4426949281854922    0.3238779299146778 Mo
   0.1657325861055914    0.3900652018661016    0.0773127085164008 Mo
   0.9178054242793270    0.4428256457208807    0.4233368113054768 Mo
   0.0925227919016434    0.4438690256658887    0.3229979293022812 Mo
   0.0827207324279207    0.1115678305698502    0.3232249848417036 Mo
   0.6645163496097187    0.7249090306431932    0.5753056469020027 Mo
   0.6642546965471829    0.3945776562763313    0.9288837741019971 Mo
   0.5815639920966917    0.5577243585626702    0.0733355541907890 Mo
   0.6641547412757224    0.2775936011383813    0.3254481188038904 Mo
   0.1680669731978784    0.9447555232108571    0.8240075445373863 Mo
   0.1660145164770181    0.2766147398453330    0.8239409688432392 Mo
   0.4138962229603591    0.7766574015257726    0.4249965507015425 Mo
   0.9118540170248995    0.1118306587892509    0.9252487167149988 Mo
   0.6647099798026587    0.7240060292503701    0.9240297139687282 Mo
   0.9197169569803969    0.5567879013635950    0.3239814062011986 Mo
   0.8373052362693602    0.7226577996824394    0.8213120077975480 Mo
   0.3326418702975187    0.6121134939642279    0.0765454215178097 Mo
   0.4975025736570658   -0.0015367018654334    0.4912738372853766 Mo
   0.6629655128531519    0.6136982874112469    0.6752031001902193 Mo
   0.4972217782749523    0.6682248879421689   -0.0056211065058527 Mo
   0.6609162815839418    0.2766389937433654    0.1744573887751519 Mo
   0.1683614836605028    0.9438020879184146    0.1760216142121143 Mo
   0.1749867459259356    0.6120633812466645    0.6755574257681519 Mo
   0.1638464619214106    0.2772311834995079    0.6762699511377022 Mo
   0.1643621157890972    0.2774785267109916    0.1764613344525305 Mo
   0.8291091766145087    0.7297871721117105    0.6745415382587711 Mo
   0.5002731311940622   -0.0009363427146371    0.7509434696339168 Mo
   0.9171054716016130    0.5511533317244843    0.6753345219768320 Mo
   0.7526234044002166    0.1662635650847130    0.2435325522505681 Mo
   0.4161213978296999    0.5570983660015254    0.6752414644953978 Mo
   0.4165107078747009    0.5538355801548331    0.1741443624945676 Mo
   0.4139054877043394    0.2205559387127201    0.6787904487058326 Mo
   0.7487692489160721    0.8329210885690791    0.0079139007637994 Mo
   0.4130901228207772    0.7794598773589844    0.5764512428354478 Mo
   0.4202997008621225    0.4484090499654333    0.0767836064779724 Mo
   0.2534003562152814    0.8312644269410805   -0.0033971584719588 Mo
   0.3326636367709898    0.0548953733872832    0.3229141194954119 Mo
   0.5816541365665829    0.4432012746240714    0.1768716889509401 Mo
   0.0833866256071445    0.7829647644087372    0.6755351759159993 Mo
   0.0852585555653378    0.4392396491215454    0.6754528623137371 Mo
   0.8266983984275412    0.3825241827731996    0.3243756312746654 Mo
   0.2517173883826634    0.1680158662127883   -0.0090539524003702 Mo
   0.5810399588417631    0.2177517922160382    0.9252741159488462 Mo
   0.9165614201186078    0.4403944381520817    0.5782264013208687 Mo
   0.2534245821272518    0.5040345555427973    0.0093256701231660 Mo
   0.2480639594203841    0.1666706490678237    0.4923795268107845 Nb
   0.4156652028094859    0.8868246333375092    0.3244899508032862 Nb
   0.4185019569874708    0.5506944358724843    0.3256075857135507 Nb
   0.7504807812677780    0.5028930597055496    0.7426254306204244 Nb
   0.5841685975235777    0.8844395079181637    0.9231810123521410 Nb
   0.3362011443682261    0.0544912570255044    0.8266257003313778 Nb
   0.3309588459923954    0.9436753171421333    0.4235026399107249 Nb
   0.2500502755103331    0.5011186406388882    0.7465861105086540 Nb
   0.2498702673583643    0.1667617943288971    0.2524454536826172 Nb
   0.3352214108047635    0.7222559516329198    0.3268010969373217 Nb
   0.3348651497448323    0.7202565080090513    0.8248527375983020 Nb
   0.5803412124057852    0.1109091379338871    0.8271677248674459 Nb
   0.7502646429051810    0.1657112077437812    0.4983602109288914 Nb
   0.7478942949136274    0.8340862594603118    0.5010672747523257 Nb
   0.3317482809047345    0.2779317243395212    0.9256220904667920 Nb
   0.9179599159230128    0.8874628065931045    0.3252546226555671 Nb
   0.0019277899400454    0.3320407913658788    0.4999278248400886 Nb
   0.1696504643652187    0.6144959907072337    0.8219461230519792 Nb
   0.0007614594233608    0.6642192862200509    0.2484460094844933 Nb
   0.0874031499754069    0.7759139209720175    0.8229135113119219 Nb
   0.9113364833784638    0.7773127633701652    0.9233053546783224 Nb
   0.3254154802101305    0.2757866241266793    0.5783347791467759 Nb
   0.8340916248443122    0.9428891336147756    0.0747835731361434 Nb
   0.0908295069717362    0.5551436962045683    0.0756027747055566 Nb
   0.0853420247230088    0.2215936791461642    0.5791796827819481 Nb
   0.3353861857074327    0.9443835322097219    0.5755900525254103 Nb
   0.6656950321151806    0.9430796214671667    0.1740513628101522 Nb
   0.3417257031082340    0.7244635107098796    0.6736004507266722 Nb
   0.9180024493634760    0.2194921093697812    0.6754699820261966 Nb
   0.5811324184962879    0.5556023743612825    0.5790021167479754 Nb
   0.5836928186751067    0.8855628523254564    0.0747197581584526 Nb
   0.5824042273322838    0.7773326966696381    0.1739610357208356 Nb
   0.8306530590392369    0.9454791970308771    0.5745187548685570 Nb
   0.1688538255889177    0.0542979222151838    0.4211371680818078 Nb
   0.1687155073913640    0.6077598994259099    0.1748478434363125 Nb
   0.9181509417047111    0.8874485927568236    0.1733252350056526 Nb
   0.8376767007379259    0.3895436746216827    0.6738807181621308 Nb
   0.3308466505908452    0.3891472369807387    0.1722906474865675 Nb
   0.4118069437864405    0.4437442261058825    0.5768349044341948 Nb
   0.1740925219864981    0.7231166027045351    0.9241710926479040 Nb
   0.0808270050756749    0.1103677854691387    0.6775833141390607 Nb
   0.6661702834420462    0.3890103508235914    0.4221861096091141 Nb
   0.0833716129307669    0.1123162076054128    0.1752371252192595 Nb
   0.9195210123020635    0.1131082738715532    0.0743701323927392 Nb
   0.6645851470712091    0.7232855322962315    0.4261315083704998 Nb
   0.9167967749807575    0.7791768954328354    0.0753663350825504 Nb
   0.0846064083663908    0.8868976603476963    0.4252606523609742 Nb
   0.9195934414973906    0.4447428065134149    0.0740116902644892 Nb
   0.2544460999013327    0.1709658488600874    0.8736254525523226 Si
   0.3183699466645918    0.7093531951091321   -0.0010171076840303 Si
   0.3092267379330219    0.3729510323678592    0.5011018190813518 Si
   0.3137426320529981    0.7132059278354073    0.5018392191728918 Si
   0.2520816680573167    0.1697606807873948    0.1331876365728516 Si
   0.8117873677470183    0.0443503616925578    0.5015088084123743 Si
   0.2395628333974166    0.1661634750182551    0.3726334813778817 Si
   0.8121211774987720    0.3776866984898761   -0.0026575367256564 Si
   0.8203206599202891    0.3782274414746000    0.4988387857136859 Si
   0.5027616143697450    0.6721379413367833    0.8750141548187718 Si
   0.4977838299437827    0.6691309529867032    0.3753616671673867 Si
   0.8069484454396972    0.7154289719193009   -0.0007409139624507 Si
   0.5018107751250239    0.3312061160260458    0.8800725565223378 Si
   0.8093583859121607    0.7123028847514526    0.5014503692945839 Si
   0.4321905696977467    0.2097662469934294    0.0001138824228577 Si
   0.4289744429110531    0.2081320494012661    0.4987296740741465 Si
   0.5025853580798525    0.3362712559762865    0.3730580495988689 Si
   0.4320585099525819    0.5489249029088415    0.0059509637090054 Si
   0.8157758446462628    0.0435474764184450   -0.0004057100482842 Si
   0.2514748059897030    0.4964714339764132    0.3745688934902002 Si
   0.3150137596678276    0.0401398048443714    0.4983320040697707 Si
   0.2538528785095046    0.5072837952494160    0.8684135241948870 Si
   0.0676680520752986    0.1278420694659976    0.4982115084650101 Si
   0.0721642700701313    0.4591641517016331    0.0032107078483643 Si
   0.0570721688773319    0.4530962458317607    0.5041089134007301 Si
   0.0696920093147796    0.7924518905030833    0.0000542443962956 Si
   0.0642193884448462    0.7918735122183751    0.5011219911636372 Si
   0.5631796953860962    0.1271392316798130    0.0002388889428082 Si
   0.5600519760385625    0.1201067635416889    0.4983195040490975 Si
   0.5594034599069622    0.4624102738486960    0.0020963346573767 Si
   0.5605776886736936    0.4567215288289065    0.5011116490875147 Si
   0.5690092211746184    0.7883954452398936   -0.0034623757171127 Si
   0.5598536891724749    0.7902106997266225    0.5016726263083328 Si
   0.1903600884886335    0.2900364555836835    0.0011846628884450 Si
   0.1825654384607296    0.2871095094477327    0.5006189769917092 Si
   0.1943493601441771    0.6240255804602186    0.0009453148403994 Si
   0.3106518378098891    0.3826065856789870    0.0062917327874209 Si
   0.1833010958442970    0.6230784106053554    0.5014526170360213 Si
   0.1882787611493779    0.9558536319139972    0.4998341097432274 Si
   0.6826472451700458    0.2896835498474453   -0.0048018823829211 Si
   0.6884387844638375    0.2910277665727243    0.4987185727288521 Si
   0.6759763442131719    0.6292770718640697    0.0000137047319761 Si
   0.6834588172472782    0.6260946220614089    0.5018576936958520 Si
   0.6864337970769705    0.9527066590192993    0.0007322639018935 Si
   0.7475152841170092    0.5010509034939374    0.8811091358860049 Si
   0.7572556215207841    0.4926320331854381    0.3725749921926325 Si
   0.7525028495004508    0.1647089215386411    0.8749124007446891 Si
   0.6806009498628077    0.9581449067392729    0.5007117508489928 Si
   0.3171737921631613    0.0461296019778180   -0.0016570963565450 Si
   0.7488890900559074    0.1684995810807328    0.3769537234846925 Si
   0.2561897646777121    0.8323202319537103    0.8719111448372112 Si
   0.2547257579242882    0.8324456211684141    0.3778465983005349 Si
   0.1911270444727617    0.9535811461971370   -0.0011884058819347 Si
   0.4988407706710768   -0.0010577665213640    0.8758243643048487 Si
   0.9402935440733633    0.2102996514429804    0.4982626068137312 Si
   0.4365079445991206    0.8738391731991373   -0.0032204162452411 Si
  -0.0008352379821523    0.0013142174514624    0.6241055507514077 Si
   0.0048687889997662   -0.0021186933955660    0.1247982789986442 Si
   0.7486867694044923    0.8305712855902555    0.6221056168173582 Si
   0.8132067659356820    0.6267472935874816    0.7418136835335772 Si
   0.7502227232131105    0.8329025288537479    0.1242199090987169 Si
   0.8149437052012646    0.9562223555082920    0.2482016930693374 Si
   0.7538964081777639    0.5016738822099995    0.6271518540900773 Si
   0.7435537203666394    0.4985984614234205    0.1239313513052408 Si
   0.8127920825085808    0.9572356301505487    0.7523905509140234 Si
   0.4342306431607464    0.1240574625563125    0.2504262219100853 Si
   0.4384709782091076    0.1209181819940439    0.7510558833042970 Si
   0.4358664951079156    0.4558623338081149    0.2468261418300677 Si
   0.4322293363767886    0.4609670101719309    0.7483650260764068 Si
   0.8177005402119557    0.6219030424596358    0.2491434071075043 Si
   0.7516769283692702    0.1625656988963501    0.6246308152417630 Si
   0.7511063673781625    0.1705658192367218    0.1249355046517458 Si
   0.4408624696247542    0.7918665739884735    0.7515842616901044 Si
   0.9361278087858994    0.1259201728441419    0.2489614086335293 Si
   0.0675167548547070    0.1252339775241772   -0.0043627024000302 Si
   0.9337494758862649    0.1251416530400599    0.7514379005440787 Si
   0.9393588570156136    0.4557627783713160    0.2569662680904898 Si
   0.2551708039161729    0.8348873191262782    0.6254921214882061 Si
   0.2501944973565679    0.8364142036551253    0.1271635850188138 Si
   0.9374763924337229    0.4587109618151247    0.7463588105236961 Si
   0.2500705738969257    0.4969588708230015    0.6302362599750412 Si
   0.9369779907433623    0.7903761546598541    0.2487787414036569 Si
   0.9351205237257094    0.7895380211607473    0.7482333779057008 Si
   0.2587493820223202    0.5008784855888208    0.1231937981149590 Si
   0.4371449537907050    0.7897257414261583    0.2496916356689927 Si
   0.0074548273088033    0.3343800053097777    0.1264858653636619 Si
   0.8152903203412910    0.2879802186320137    0.7505245510663173 Si
   0.0050080346562097    0.3336690017923910    0.6268474516383336 Si
   0.4931789975485527   -0.0013124677077352    0.3724929785218768 Si
   0.4300236132977655    0.8746910836845554    0.4993078384691035 Si
   0.9371869624937385    0.2062280536894807   -0.0033042425897396 Si
   0.2497087611981256    0.1696603733395831    0.6322827459522730 Si
   0.0025071134836746    0.6710846101546074    0.8728755121567440 Si
   0.9391720870606504    0.5429693052812596    0.0005132293335054 Si
   0.0001441322216968    0.6656234418722544    0.3774326669883928 Si
   0.0046348063449781    0.3307149484946054    0.8724749474540464 Si
  -0.0030321844535639    0.3390907699785436    0.3713519041720655 Si
   0.9341075334020208    0.5388328812976676    0.5041888570667981 Si
  -0.0006352348296342    0.0017818872362771    0.8739033184369346 Si
   0.9345186591449136    0.8717516826087196    0.0006096627841865 Si
   0.9353797816043093    0.8756043328820389    0.5019628437696280 Si
   0.0052609207345688   -0.0006442715320716    0.3726391052304217 Si
   0.5066724027085600    0.6692781156706842    0.6253155633131338 Si
   0.4981548361499517    0.6603967696335937    0.1232079107186974 Si
   0.3104499759639651    0.2902536378505975    0.2458933905135225 Si
   0.4897966652392362    0.3304318587274227    0.6268006787347773 Si
   0.3111446189097479    0.2881470396335615    0.7495977238633785 Si
   0.3155843778120004    0.6186204702775752    0.2497454162515916 Si
   0.4991794303286882    0.3364885871984171    0.1283736522063351 Si
   0.3157403048442948    0.6242436400572601    0.7468915504223355 Si
   0.3132949467139196    0.9584092192926869    0.2511565366346195 Si
   0.4959176535656709    0.0011646989290056    0.6296703773255730 Si
   0.5011434489868836   -0.0018241982372461    0.1240600069224336 Si
   0.3199636643862828    0.9586515813682172    0.7537847253298277 Si
  -0.0026574619345851    0.6711884533994378    0.6313902470869592 Si
   0.8043745223657303    0.2863421628108355    0.2509107725805846 Si
   0.0051427454013379    0.6666727529919368    0.1239694142090603 Si
   0.4340545248101073    0.5407820035573589    0.5025593942136654 Si
   0.6897685019837697    0.7121488833777485    0.7477964482249139 Si
   0.7430285831912280    0.8240755401244271    0.8695578650766419 Si
   0.6873829040044588    0.3777399964366804    0.7487024963158230 Si
   0.7499832290956705    0.8314581309742056    0.3766851424393323 Si
   0.6855015921209131    0.7087724478142365    0.2484891089619601 Si
   0.0681678665530036    0.2084960681446082    0.2493266510469316 Si
   0.0640166282194594    0.2105985746711988    0.7501861437366064 Si
   0.0660028710189579    0.5396811126648198    0.2522083997586181 Si
   0.0657830040381526    0.8778017603926164    0.2499144189698339 Si
   0.0652217514078781    0.8769126784604461    0.7513051624245540 Si
   0.5712154730782649    0.2128503302922098    0.2500455235372626 Si
   0.5620622359730904    0.2061243582964496    0.7508408694447377 Si
   0.5605182405719626    0.5376539753433738    0.2482053178513035 Si
   0.5644180128090648    0.5456155213232099    0.7482469851276528 Si
   0.0680036017167118    0.5420234976541869    0.7422948120637162 Si
   0.5646754168292424    0.8765339834721493    0.7512865295117450 Si
   0.1875471041413174    0.0437854668212703    0.2521807660012318 Si
   0.1856301299928571    0.0408926783715890    0.7533586269471059 Si
   0.1851150873563265    0.3753840672623373    0.2479945164990057 Si
   0.1857755196092633    0.3744334266778456    0.7484443062908511 Si
   0.6784587721557818    0.3721914657412884    0.2519691005450269 Si
   0.1873947804265935    0.7062707089220732    0.2506794189127832 Si
   0.1899040063361015    0.7101577106910332    0.7449156406563258 Si
   0.6858090074783216    0.0431464314064331    0.2469909589028111 Si
   0.6815572667774985    0.0424167519903277    0.7536276882906305 Si
   0.5616490215704714    0.8755490141509502    0.2488584454299430 Si
   0.1681045731795582    0.7241850603263559    0.4286769881732965 Ta
   0.6647753297627218    0.0545486417320472    0.4266387522737577 Ta
   0.0888110426794020    0.2231129273610325    0.9227542245772938 Ta
   0.5743563143630253    0.5615867928718239    0.9275663452681786 Ta
   0.4190765817753364    0.1152611903256976    0.9236266584284957 Ta
   0.1651198039335336    0.2777072679591039    0.3256955385350598 Ta
   0.4183905541852947    0.7782831457548717    0.9233536192405229 Ta
   0.9217858195719740    0.4461466923445843    0.9267900531684450 Ta
   0.9169472293821324    0.7790602493573754    0.4283023563772495 Ta
   0.1720896839199379    0.9451718494304043    0.3272654937073487 Ta
   0.6634007123756513    0.9431413897288143    0.8252168653842226 Ta
   0.5823782359073492    0.2239099343592688    0.0758769400397094 Ta
   0.4151844284244760    0.4435173224445125    0.4254955703992104 Ta
   0.0847046206271455    0.8866496590093348    0.5758713248269386 Ta
   0.4150112378010472    0.1153933941359024    0.0742149097187734 Ta
   0.6628036964919702    0.7243518196545212    0.0751760356390698 Ta
   0.4182885738737028    0.8899599823435655    0.1763828884211923 Ta
   0.4188148524152889    0.8898494708048855    0.6764985564934911 Ta
   0.9178386429746664    0.2213096847123642    0.1760380819357965 Ta
   0.3347348220391989    0.0541399966864448    0.6791986381732416 Ta
   0.3278596388470114    0.3864724088408458    0.6750004561201223 Ta
   0.8330991346640902    0.7217926814233031    0.1740124033185050 Ta
   0.3378963884570964    0.6132175081392540    0.9243699884327321 Ta
   0.9180566105327445    0.1138943536797401    0.5747698172995052 Ta
   0.9162356088561002    0.7794654770221553    0.5765941188779705 Ta
   0.0898025805078396    0.4447136977018829    0.1729920433350266 Ta
   0.5831761578843730    0.1091448978628129    0.6770811160917282 Ta
   0.5849014484972394    0.7790350736864776    0.6736438529815706 Ta
   0.1667383463276477    0.3853610925832193    0.5788517476232671 Ta
   0.1739223866083296    0.7234416403554139    0.0725484078330311 Ta
   0.6626714454353868    0.0554344383522512    0.5741333438419101 Ta
   0.0871054059535590    0.8875213846818226    0.0758445479751646 Ta
   0.3342799059365344    0.9429495760330380    0.9234333660246195 Ta
   0.3261123365644665    0.2783542176849141    0.4229400671687101 Ta
   0.4208788162666408    0.2235627706815249    0.1758890542613056 Ta
   0.7490063266266128    0.1667267245141924   -0.0026583575392075 Ta
   0.2486969640225060    0.8341864567755202    0.5006725883331078 Ta
  -0.0003878377556821    0.0006046953325085    0.7529786536618702 Ta
   0.4967548360827734   -0.0010454160851428    0.2491886080227628 Ta
   0.4243055021891491    0.8889016546635764    0.8270216300061655 Ta
   0.4182297872475984    0.5607575930383475    0.8240273329851513 Ta
   0.4193461128166689    0.2204468705461161    0.8264128423530462 Ta
   0.8322974738578622    0.0561256169575437    0.8259799911633708 Ta
   0.4977820345995615    0.3335493379855807    0.2462456246199971 Ta
   0.2518471397475870    0.4972193270783349    0.2456098132208843 Ta
   0.7479907175470624    0.8323771593060829    0.7511117030086697 Ta
   0.5806214139530390    0.7776490588130222    0.3248917945990769 Ta
   0.7492439914568640    0.1643938093151979    0.7538583949798069 Ta
   0.3318066831321976    0.7185553333836030    0.1723702550152479 Zr
   0.8293121131580212    0.6150675620073746    0.0751045355954956 Zr
   0.8383434743348941    0.2770380473777245    0.5761978099489667 Zr
   0.8341285097183578    0.2778728168900682    0.0747514865887357 Zr
   0.4966189684647869    0.3351636070504733    0.0006302662698976 Zr
   0.4958098034261856    0.3323113617210433    0.4998247830759202 Zr
   0.5814392172684462    0.1139665738617527    0.1727169259874690 Zr
   0.0835250967102182    0.7781523692922813    0.1724487394161115 Zr
   0.4973478942380960    0.6674626428776390    0.5028519702136357 Zr
   0.0029018202427382    0.0010223425518637    0.2489137371404779 Zr
   0.4206441112408282    0.7779369557386747    0.0740763877485186 Zr
   0.4134866463693874    0.1097656748587004    0.5769679776271621 Zr
   0.0020830667279444    0.6668713207173745    0.7455239831909874 Zr
   0.8277984599901209    0.6169957407435328    0.5838063826992170 Zr
   0.6669299684411432    0.9452657769661538    0.6745990818768862 Zr
   0.6676510982780520    0.2757530690392061    0.6752096216384212 Zr
   0.9214979510782982    0.5508342481886380    0.1731228697918870 Zr
   0.8318611970936070    0.3865913581461737    0.1760147584375669 Zr
   0.2532498170446235    0.8344770800085948    0.7507444774320204 Zr
   0.1711206711654619    0.0583319557432335    0.0749933247301493 Zr
   0.0786612268411098    0.1157228574598435    0.8282130952710181 Zr
   0.0028634597667395    0.6691787292750618   -0.0007317297804975 Zr
   0.0835052963837854    0.7784576877860485    0.3278247985046654 Zr
   0.5844869275068496    0.1122060422785367    0.3245679023228804 Zr
   0.6655640099853438    0.9441794770923896    0.3257850392905331 Zr
   0.6705501143695185    0.6154862028637131    0.8261273820875882 Zr
   0.6665927810523754    0.6088928623187807    0.3251446472214525 Zr
   0.5823999017931260    0.4466418921562689    0.8280854283448825 Zr
   0.1690695904372040    0.6093399707136662    0.3272659355157569 Zr
   0.9157593496132800    0.5570272538774791    0.8234332253895820 Zr
   0.9157725703742773    0.8847102901947769    0.8261512837189642 Zr
   0.3330328147353465    0.3878203462854067    0.8258413227174298 Zr
   0.0881744863018373    0.8860882876199450    0.9197401873303117 Zr
   0.1706103555706955    0.0583290332655991    0.5770571841817385 Zr
   0.8327766203075607    0.3910102694221275    0.8264003373952921 Zr
   0.1723601272561185    0.3917696375234306    0.9239978878002637 Zr
   0.5746217830830339    0.8890911234320096    0.5760513808509355 Zr
   0.5798637074510872    0.2177335173919924    0.5758817555657744 Zr
   0.7486358991190770    0.5000103862495934    0.5011959716199851 Zr
   0.0781515392948570    0.5527530318603073    0.5856889207936242 Zr
   0.0017020251917983   -0.0010451634588001   -0.0006048768505103 Zr
   0.6682385530077021    0.3879972751908074    0.5775324510720903 Zr
   0.6625713486833217    0.3880378947301059    0.0771402146942752 Zr
   0.0017713547008943    0.0010563548034044    0.4997031569341867 Zr
   0.8276002555251933    0.9394618604374875    0.9237489326062657 Zr
   0.0030234468576188    0.3335536215439721    0.0004191055837132 Zr
   0.8335120161615779    0.7215535506741877    0.3265551453396703 Zr
   0.1659112865244167    0.7241119911086001    0.5816998669468469 Zr
