Ba14 Sr13 Ca14 La13 Pr13 Nd13 Co80 O240
1.0
  15.5988830535308232   -0.0004581814354852   -0.0013665585187438
  -0.0004582058622538   15.6029265019195496    0.0061472631410121
  -0.0017084238469542    0.0076853613996914   19.4970802224532171
Ba Ca Co La Nd O Pr Sr
14 14 80 13 13 240 13 13
direct
   0.4968199861113364    0.4957248758598795    0.8037207414157190 Ba
   0.4971059410554386    0.4942266509070577    0.6024332758130102 Ba
   0.2472887270686303    0.5007964090024728    0.3988980245682041 Ba
   0.7522946539669843    0.4944674364831512    0.6019308588964982 Ba
   0.7490415152620491    0.0019036898678686    0.6015347874917607 Ba
   0.4987453708592268    0.7505086641953174    0.3970299694731598 Ba
   0.0011108328894636    0.2511675852750529    0.3977217042111175 Ba
   0.7530503320594960    0.4999575775470980    0.7997590038812945 Ba
   0.0004002105327178    0.7473474707336034    0.3954956307107962 Ba
   0.2538429686390459    0.2520942492096142    0.1964278345411155 Ba
   0.7512357149515916    0.7489478673621340    0.3982488948521857 Ba
   0.2515887438691782   -0.0026239048167833    0.6043477258083488 Ba
   0.7509476557996062    0.0001063349889807    0.3974812424908523 Ba
   0.2506302815567762    0.0011417067203328    0.4000190701776379 Ba
   0.5058957930639719    0.0023488958198935    0.4049474771628278 Ca
   0.5013239442882890    0.7488390420765253   -0.0105599369614258 Ca
   0.7446562299842050    0.5046691441701561   -0.0028513890417483 Ca
   0.2606266110188305    0.2388634168914719    0.8101952196867375 Ca
  -0.0003540685125575    0.7468942430505450    0.7892230355884519 Ca
  -0.0007075478753571    0.7564088150481089    0.5985165065541790 Ca
   0.4981349281754573   -0.0026988861973071    0.5832095838993191 Ca
  -0.0038339843968793   -0.0071463335286967    0.4052556247832650 Ca
   0.0051267033286128   -0.0022701345851476    0.5913049598534051 Ca
   0.4987675612190538    0.7462219418536673    0.2040472730372450 Ca
   0.0020104364408718    0.2401741142023857    0.0008597158070742 Ca
   0.2506979705262279    0.7548967737788974    0.1997981891550773 Ca
   0.0014441547236663    0.5019696972610496    0.4110046346211582 Ca
   0.4984767182569392    0.2593416445386900    0.0035268649975513 Ca
   0.6218735265206163    0.1264704171108578    0.2980681073382979 Co
   0.6235997889250565    0.1250486805922520    0.4996578142592442 Co
   0.3785513071628013    0.8740997276655676    0.1035109025947994 Co
   0.6205496071676416    0.1301016689427850    0.0999251002307574 Co
   0.3782047252105821    0.8743277708239859    0.4994638931898091 Co
   0.3739440709989181    0.8772868626643083    0.2980311033336881 Co
   0.3768364339225765    0.8710726147164505    0.9000317892262101 Co
   0.3794270424087965    0.8768779736846440    0.6975513514755438 Co
   0.6256421644802871    0.1238846340000645    0.7041319505671630 Co
   0.6230472784010903    0.6229698546892884    0.4995993298811193 Co
   0.3736218889585146    0.6232104585215948    0.7011683933548187 Co
   0.1276331415702261    0.8738260418995617    0.2960361640368206 Co
   0.1219002500472429    0.8759022577221937    0.5003108535247854 Co
   0.1188309542997842    0.8746561847491374    0.7007605291516216 Co
   0.3805429015031322    0.1250980085632690    0.0989882652088886 Co
   0.3787102634699312    0.1240906211900345    0.3017319585418064 Co
   0.3761477087209217    0.1270545994692786    0.5038103811280997 Co
   0.3732668294042565    0.1233411267470956    0.7048088219074166 Co
   0.3773070485639450    0.1261304505891054    0.9049240898057606 Co
   0.3807011134613704    0.3771026343696650    0.0981582187673210 Co
   0.3778921629204037    0.3743421654547101    0.3012134571046889 Co
   0.3705989219726665    0.3749433920826864    0.5033723761536468 Co
   0.3673743899874747    0.3701464458151653    0.7053235465931355 Co
   0.3736822348569965    0.3699390135181501    0.9050863046733332 Co
   0.3772555501778070    0.6297116970608270    0.1012881774614506 Co
   0.3731453977335117    0.6265035728897906    0.5001990574883827 Co
   0.3736042838654695    0.6254640115268983    0.9021136739848685 Co
   0.3709720234554596    0.6353912059434983    0.2976395507340842 Co
   0.6249554429563899    0.6283854015291922    0.0988647153915112 Co
   0.6245667175265095    0.3775344232526068    0.0995727401840059 Co
   0.8782500212573885    0.3766132967222106    0.2983527873686916 Co
   0.8776306056437321    0.3742529363271890    0.4990428479748333 Co
   0.8779202377549965    0.3662697012969784    0.7008973526960840 Co
   0.8755402974993939    0.3759109010133778    0.9058692662561389 Co
   0.8735230892745045    0.6243453092398594    0.0970401159545932 Co
   0.8762122998433077    0.6224406326910499    0.2940079109413375 Co
   0.8727513343497366    0.3766289251902470    0.0981613563663120 Co
   0.8788490961050783    0.6207377390101546    0.4982612297445939 Co
   0.8748614894718547    0.6261019931870733    0.8975596885658808 Co
   0.8752086604523669    0.8734124349517784    0.0949741227211920 Co
   0.8794570777262459    0.8754905379359825    0.2950877950773690 Co
   0.8787080243888368    0.8770726714166245    0.5001216878074257 Co
   0.8777344329993976    0.8750698204369394    0.6996760586259348 Co
   0.8737456454067057    0.8739315560379239    0.8944491561123840 Co
   0.8784507243714839    0.6281038626960718    0.6990799290487724 Co
   0.8732535418326333    0.1244119883136135    0.9026238606310532 Co
   0.8753770151159580    0.1246142941737861    0.7002809755599908 Co
   0.8761493451765919    0.1253171554644648    0.4986007879106490 Co
   0.6248591171621359    0.3739402801577740    0.2994009986172920 Co
   0.6247767036922932    0.3720156274485301    0.5000567849266494 Co
   0.6255844429202160    0.3681647989656386    0.7033003645896327 Co
   0.6265256101139006    0.3744941441832996    0.9054327729055958 Co
   0.1238959451015100    0.8718794726849947    0.0984562266685507 Co
   0.6257549354739400    0.6249055254198348    0.2982490062841197 Co
   0.6238768351338635    0.6241479208825107    0.6989867747304604 Co
   0.6245705343672431    0.6253881347781508    0.9005105259375095 Co
   0.6211208033123421    0.8749581321322102    0.1003391728355813 Co
   0.6230956416371936    0.8772567434182118    0.2981096318092949 Co
   0.6237752604658284    0.8741584919941067    0.5026696204868375 Co
   0.6237531173057181    0.8760587404636669    0.6999043291293138 Co
   0.6222136362444916    0.8715770181966155    0.8988796276838277 Co
   0.8730601882735254    0.1273589089013746    0.0994420722000066 Co
   0.8798271538414795    0.1215235706747583    0.2992414884217415 Co
   0.6254330081280536    0.1254298072865504    0.9068276727847053 Co
   0.1229672388911497    0.6253067159871470    0.8997087572334758 Co
   0.1233610511551474    0.8736206617465450    0.8986999205575482 Co
   0.1217940795230254    0.6248103768756502    0.5004910115216301 Co
   0.1241057889984015    0.6282827469715391    0.7025822156388503 Co
   0.1256523254003234    0.1247215770056277    0.0971791317586646 Co
   0.1246714529674329    0.1229617462481582    0.2993631766572203 Co
   0.1221461557031241    0.1269346463905514    0.7014751965002356 Co
   0.1252231136047512    0.1256456312769565    0.8985486886743895 Co
   0.1251653991157463    0.3785789993201713    0.0961487899636561 Co
   0.1222939034941198    0.1243279696485380    0.5014985686897945 Co
   0.1241003978203428    0.3769909994421728    0.5014970707863236 Co
   0.1264392263940126    0.3710182132269805    0.7031954650199878 Co
   0.1285609464383748    0.3726337891887397    0.9007771163958114 Co
   0.1261272371422323    0.6270257784857380    0.0972635610534785 Co
   0.1270904440976066    0.6291131337442446    0.2934203807329226 Co
   0.1236958966881800    0.3779198118251315    0.2981596430426287 Co
   0.2574213450502090    0.4976706923944886    0.1981002373591358 La
   0.5002075334291760    0.4978602323149896    0.4016302750931934 La
   0.2456683805156026    0.5099289319517297    0.6062748611254373 La
   0.2547067343874967    0.7487258993986077   -0.0019225810081501 La
   0.2434000565795853    0.0028886233962400    0.0009220389101937 La
   0.4996580822523140    0.0029596560209251    0.8014455072029035 La
   0.5006480000014299    0.2382925108841228    0.6103972958084973 La
   0.0024270871592827    0.4948154427989656    0.1949520857639336 La
   0.0034326572967263    0.2473273540744156    0.1902341638179876 La
   0.2486599691792437    0.2499051699208959    0.3974116620177268 La
   0.7525478029124939    0.4991366341168334    0.3985391880200018 La
   0.7479133815993306    0.2473292536171731    0.3976084262003027 La
   0.7417073401875475    0.7519929226950464   -0.0064968706592686 La
   0.2516362822101978    0.4995134062771911    0.0040811138600162 Nd
   0.7465958892441126    0.7492216728039029    0.7888672523613907 Nd
   0.7434288619046295    0.7569575354336902    0.1947550205799364 Nd
   0.2457994076829915    0.7505302180498256    0.4096649923047459 Nd
   0.2562776849757217    0.7490015970506774    0.7904166265859905 Nd
   0.4998606388331137   -0.0012245743171886    0.2096136672641897 Nd
   0.0012938720395984    0.7482050004100950    0.1830258261196617 Nd
   0.7606294752800938    0.2469333361794884    0.2049166540186334 Nd
  -0.0016114181881127    0.7618569240129005   -0.0148873447855478 Nd
   0.7496246329904186   -0.0047527511549755    0.8064424302592036 Nd
   0.7424240931979389    0.4967377974307381    0.2002672080615459 Nd
   0.7455138666268908    0.2492718094194596    0.5964014918953265 Nd
  -0.0063683815891181    0.2503060743974583    0.8187157359430137 Nd
   0.8778795174539409    0.6036064687836110    0.0076096683746247 O
   0.8570979381054961    0.4020359463997336    0.0105315056709551 O
   0.8945452985489742    0.3709618378252797    0.7967923720781109 O
   0.8833829422431776    0.6030750175212218    0.3951651332579442 O
   0.8711118359570355    0.3494014434281616    0.6049312852966060 O
   0.8823250462627712    0.1316114600500304    0.8100920202620273 O
   0.8765721725194534    0.3967262031598420    0.3972400271212749 O
   0.8632434032924937    0.1464319495555342    0.5943406044412725 O
   0.8779707845841287    0.6288555657287521    0.6043961077049429 O
   0.8633878894740613    0.6510679797468435    0.1872525298906922 O
   0.8796943592865277    0.3528620203891544    0.1898495632905479 O
  -0.0086159222682817    0.1176524976663081    0.0947204814294137 O
   0.8853028888793626    0.8832639743350259    0.0022116069692672 O
   0.0097680251047559    0.6382858233198734    0.2776284701249491 O
   0.0045586808314249    0.6046259811772022    0.1078751329297838 O
  -0.0078074695797133    0.3577935399768787    0.9194868405954303 O
   0.0130835734356072    0.3867693455196613    0.6887831938347505 O
   0.0075610893752049    0.3702451683898157    0.5156038211122316 O
  -0.0029818955953786    0.3641238352055747    0.2859472801788610 O
   0.0005899460624649    0.4009172403742151    0.0915455876579463 O
   0.8697711226826432    0.6418280015821869    0.7942585423454374 O
  -0.0012064557955892    0.1402220132354388    0.9098220192164305 O
  -0.0047920618342980    0.1274719970220062    0.5130215574587027 O
   0.0073295974098051    0.1400877223901494    0.2889245747238465 O
   0.8880593232649012    0.1118956721970396    0.4023480032614805 O
   0.8459039277442206    0.8672470283041017    0.7932471090277188 O
   0.8954058373956220    0.8858427429372827    0.6099730031383686 O
   0.8853033358099665    0.8827732209474316    0.3973040791965869 O
   0.8694744868653903    0.8548376379926096    0.1863994316866624 O
  -0.0135560695631375    0.0990947006398469    0.6847477350557932 O
   0.8798075398471735    0.1455951360567693    0.1969295700537049 O
   0.3680616365664915    0.9055034472083793    0.1988272184748620 O
   0.6502154069141537    0.8770945950979812    0.7957858794018486 O
  -0.0057371914900325    0.6221052969880725    0.5005649720617290 O
   0.6276456775793533    0.6235096471276627    0.6054278684091130 O
   0.6200334757727526    0.6231008613081114    0.3931919730038758 O
   0.6380255776477853    0.6103003771282384    0.2036252540534733 O
   0.6151445406377711    0.6475462311144309    0.0010223733707452 O
   0.6223366118130962    0.3707448526161823    0.8114999485322473 O
   0.6208832562821688    0.3553626235429472    0.6025856896878896 O
   0.6434290696395369    0.3634509412013632    0.3939221464745290 O
   0.6107615521932696    0.3943189453886141    0.2043586620069535 O
   0.6390011466162296    0.3765569422432509   -0.0033144873192570 O
   0.6146800546060109    0.1208924838441479    0.8126421401302917 O
   0.6234722045488467    0.1347371799254980    0.6036172028270727 O
   0.6255051054059778    0.1431605585605680    0.3915867327099316 O
   0.6287582347829384    0.6290685783358522    0.7936223368651794 O
   0.8627902785155138    0.1119677484002288   -0.0039741016258176 O
   0.6129111829370164    0.1131496568248746    0.2024864115496200 O
   0.3567380701903316    0.8745869368776427    0.8079806635584671 O
   0.3939277438316988    0.8851949020248354    0.6038533923270625 O
   0.3589247289808984    0.8559223386174521    0.3967919361812390 O
   0.3953627768005220    0.8603493006383031   -0.0059373270178057 O
   0.3649761487674540    0.6263185853593665    0.7951838926126036 O
   0.3710141244914121    0.6221660761637151    0.6079153591625057 O
   0.3614129836027676    0.6397269391018970    0.3972084254882448 O
   0.3688342769687296    0.6109250334745056    0.1936766969819672 O
   0.3886468170613053    0.6481864065506330    0.0090720514741122 O
   0.3783631045399473    0.3573440784730031    0.8110430122571993 O
   0.6072030037379557    0.8576955807404101   -0.0016562280692256 O
   0.6324539124173050    0.8940999312470133    0.2060823403666307 O
   0.6250098482124165    0.8718723086172765    0.3896536553485530 O
   0.6031143003048826    0.8863919212502114    0.6085174445205088 O
   0.6416127649700517    0.1160591064223693   -0.0009479778204571 O
   0.0077245300073902    0.6136135343000754    0.7124618113456065 O
   0.3490125246342800    0.7430809358365843    0.8928130652800887 O
   0.0081069435825896    0.8846112812510907    0.1046708592988222 O
   0.5096776071086561    0.6116959466974833    0.1125481781055041 O
   0.4993093011464811    0.6299324540007375    0.2873531315270610 O
   0.4919687521465128    0.6178360568372445    0.4961514063981712 O
   0.3455848586967130    0.3831483314744937    0.6031969044358513 O
   0.4990247873857974    0.6197463210373657    0.7037076659204856 O
   0.4961802449887483    0.6467971383509992    0.8934522842927290 O
   0.5011285120017135    0.9044420731899484    0.1088356125277777 O
   0.4920047709382767    0.8636494442238748    0.2860724846322317 O
   0.5070861947134471    0.8796310406158705    0.4926617111277181 O
   0.5020879153420794    0.8834908474892421    0.7243013287152404 O
   0.5024852592453586    0.8509217505214040    0.8831174259181005 O
   0.7543746952416132    0.1435141542434336    0.1090441576938137 O
   0.7482732571713798    0.1204826120722598    0.2939283896309544 O
   0.7515432322904136    0.1384104053173604    0.4938365858797358 O
   0.7602625566697309    0.1496479400676490    0.7026027349145334 O
   0.7487252038514817    0.0986253223210774    0.8956774900989943 O
   0.7374063486272985    0.3561945590090608    0.1163470323234419 O
   0.7513349258054444    0.3923383528006788    0.2897149816953006 O
   0.7436066073581389    0.3631294846304796    0.5022861800288576 O
   0.7547979561861604    0.3515825058656231    0.7013299943640426 O
   0.7628230453878360    0.3863830715455327    0.8997842731584975 O
   0.7404009420122332    0.6550917955627995    0.0935402790983682 O
   0.7483084627817016    0.5992621245654234    0.3026827750071026 O
   0.7606902858462378    0.6197478470015790    0.4964894541215078 O
   0.7507749186252528    0.6428931287891857    0.6963182579424240 O
   0.7568695036880226    0.6151751548825253    0.9092753910953587 O
   0.7473105017508748    0.8520815310695969    0.0899505446118716 O
   0.7632096318476129    0.8800515171097568    0.2922233694271051 O
   0.7427930703295892    0.8707676414313436    0.5090074189126012 O
   0.4997351349321160    0.3560534228076847    0.9086892954145933 O
   0.4871472629016977    0.3610442486916718    0.7014094469017652 O
   0.5073648912262051    0.3817847884027514    0.4881534008643789 O
   0.5065834079463440    0.3574302469445201    0.3144182166308707 O
  -0.0056989383459512    0.8572151276858234    0.2823799332002642 O
   0.0067912937050645    0.8757851747695030    0.4983735531286748 O
  -0.0041860505902887    0.8830715160905185    0.7213151768394666 O
  -0.0015594670246106    0.8519777897055716    0.8827219166994682 O
   0.2594284779974239    0.1286372632390056    0.0996489269756306 O
   0.2499420357547054    0.1135324592782078    0.2911587551294606 O
   0.2595966016892563    0.1382015772466416    0.5099416607593783 O
   0.2491161045638121    0.1252002521217279    0.7212608655501618 O
   0.2509310380354012    0.1046945211136172    0.8896028817092483 O
   0.2511904648363412    0.3755307257518286    0.0999861346669869 O
   0.2528493562206601    0.3896919071039314    0.2913806756642918 O
   0.2413657038350388    0.3556654361389704    0.4910472325911270 O
   0.2404880895192298    0.3519929502456935    0.7216377197910929 O
   0.2470556301445417    0.3933311601237170    0.9026911461955596 O
  -0.0070787853781949    0.6504265162776657    0.8997101312929416 O
   0.2471330212181237    0.6411760924200608    0.0860628771566687 O
   0.2536806739095747    0.6306306292145694    0.5048805882384956 O
   0.2419557985797613    0.6423923862019092    0.6970833407810525 O
   0.2507333497306894    0.6070437099926864    0.9146284166147530 O
   0.2401990547920810    0.8561171485216180    0.0873062228678594 O
   0.2571442384267836    0.8948566672025972    0.2893385751583609 O
   0.2397519187895760    0.8685435242355330    0.5025231463499520 O
   0.2518409325561873    0.8598851551569143    0.6989816715028153 O
   0.2507191432229773    0.8915710199166871    0.9164069411294427 O
   0.4965908280931604    0.0960258700295759    0.0936516914448573 O
   0.4984598998240955    0.1497625861040074    0.3054201644766494 O
   0.4929889841368602    0.1197527456604322    0.4921543607630137 O
   0.4985371695327978    0.1262484231566397    0.7084386988778003 O
   0.5029197420405261    0.1458497224195785    0.9184189137773514 O
   0.5114304280356680    0.3952768386998740    0.0926804406682503 O
   0.2441069927860398    0.6119011783910365    0.2890827944799749 O
   0.3739142242358375    0.3596252994483961    0.4028229639560273 O
   0.7445383230634666    0.8955045774912190    0.9122945376420666 O
   0.3700746133725984    0.3784139256745427   -0.0008291842553884 O
   0.3891079462014043    0.2578704227294843    0.5183524269368731 O
   0.3672887044876816    0.2387894686607250    0.6860807088098815 O
   0.3570791556934005    0.2465881459030831    0.9116752505972793 O
   0.3628797628731927    0.5065799185009511    0.0899196971593633 O
   0.3946212304143684    0.4928379943020406    0.3048203422211324 O
   0.3695081163535061    0.4926338579893847    0.4975501219069204 O
   0.3541743886855621    0.4973875008977828    0.7045139118020156 O
   0.3834739523210646    0.5088348160814780    0.9110904721936965 O
   0.3867072553848659    0.7615980727531886    0.1193202415458610 O
   0.3614272983010865    0.7515676108334585    0.2830176477101392 O
   0.3736223775435392    0.7589046102006063    0.5094252455806730 O
   0.3865648523474428    0.7499110326194481    0.7074788800020235 O
   0.3908717789183780    0.3887148301440363    0.1959333208011246 O
   0.6432378424492817   -0.0098350079874013    0.0881186845400174 O
   0.6012053751171570    0.0039008403510976    0.3082157312978713 O
   0.6203537344281064    0.0077853065575084    0.4960139488083284 O
   0.6399983503374450    0.0054878122213635    0.7132006806407353 O
   0.6004912441911751   -0.0090135817633093    0.9043407604731472 O
   0.6031207658353928    0.2473091746565628    0.0976767156836403 O
   0.6455656646111380    0.2568526338223104    0.2845222139557683 O
   0.6120366150345996    0.2436342773774328    0.4998940113890013 O
   0.6139784529082832    0.2495719015227872    0.7140794807168275 O
   0.6394984178266081    0.2476848930125441    0.9022568098459444 O
   0.3655464187227959    0.2577259979692372    0.2979415746972638 O
   0.6517478184358307    0.5048995925611802    0.0941619891062244 O
   0.3958195484694521    0.2480628632450305    0.0962942315692111 O
   0.3689492692341144    0.0056452697177629    0.7197406697640871 O
   0.1436110361156674   -0.0023940463698763    0.1062658781886630 O
   0.1159337022127547   -0.0091559091131690    0.2883881442919967 O
   0.1174192705462926    0.0096646836646399    0.4976410822314460 O
   0.1346849365519862   -0.0109508468348425    0.7174843936584639 O
   0.1155851557081196    0.0066580079388940    0.8882976177281087 O
   0.1087933538451059    0.2517497784838761    0.0872731284634109 O
   0.1390418396247619    0.2617949060523182    0.3042652892730983 O
   0.1229944678192295    0.2402784825504337    0.5128743825323878 O
   0.1143127101102793    0.2484883331470402    0.6801826112193750 O
   0.1383588223038267    0.2444507335504853    0.9040809162271751 O
   0.1462090097300848    0.5099176194524999    0.1158291725459801 O
   0.1165077764445574    0.4946419874207639    0.2829841147128749 O
   0.1262913781231021    0.5072141852621967    0.5066595283826507 O
   0.1404592963794314    0.5018559000468806    0.7089015051459809 O
   0.1005738204865742    0.5080971706315037    0.8873176409976611 O
   0.1006723007251252    0.7439431311576440    0.0759355429751907 O
   0.1515157162687137    0.7570291988071530    0.3091903407721631 O
   0.1267751210897072    0.7430829948673073    0.4980421828628107 O
   0.1066971897421519    0.7591766823015345    0.6954660563435145 O
   0.1377493692655541    0.7420369677894659    0.9190312653219868 O
   0.3545379573829058   -0.0136178492566495    0.0859249517183523 O
   0.4014180927062734    0.0026314899778123    0.3142433038973093 O
   0.3795494135675931   -0.0104724373256482    0.4928258292760845 O
   0.3997343847955486   -0.0023115814200041    0.8994924130834905 O
   0.6073631620054503    0.4928240792155540    0.3094515115273875 O
   0.7481792830054416    0.8495008563099418    0.6828384808175320 O
   0.6269874271110364    0.4844495691930156    0.7014754797995140 O
   0.1320039834460975    0.1330316522024597    0.3998498968922340 O
   0.1274699319873648    0.1128340820083746    0.6109975519292928 O
   0.1015320836569610    0.1423799592342398    0.7911602241719858 O
   0.1314942676806627    0.3992971673194453    0.0035604709338229 O
   0.1156714115863467    0.3676626567301098    0.1885069412214961 O
   0.1110925816831238    0.3869406042395486    0.4018678600752559 O
   0.1519461128783762    0.3839612497640212    0.6028913896891160 O
   0.0977208872191223    0.3664797113180132    0.8029721622107735 O
   0.1181310407986918    0.5962435418158560    0.0028525831415322 O
   0.1341943174757194    0.6566604151961936    0.1880935657287668 O
   0.6303146857507979    0.5020111490566335    0.4895984272599385 O
   0.1182892697977825    0.6260062778961710    0.6036733839368759 O
   0.1354186889101648    0.6477541732654644    0.8028080026258546 O
   0.1052386737638433    0.8857573738864597   -0.0097402933812713 O
   0.1309668027361201    0.8502953354811854    0.1949630519434004 O
   0.1239765471438651    0.8786315807522983    0.3979571254128824 O
   0.1088102249673242    0.8824621821377199    0.6019439862892785 O
   0.1484479700894137    0.8602651132827195    0.8093223431327786 O
   0.3655500622660347    0.1105347485567822   -0.0044293581647013 O
   0.3825282584365345    0.1052703713815723    0.1985041831374563 O
   0.3667338326895465    0.1499093241508407    0.4050886627491634 O
   0.3916328773114736    0.1082470345792739    0.5995122270611876 O
   0.3920952991893066    0.1387533992514451    0.8119075980909350 O
   0.1227633207637338    0.1315470807198964    0.1898699603074229 O
   0.1310217350282322    0.1141023292606915    0.0043624576880076 O
   0.1211030381483841    0.6196526958307957    0.3973120606005771 O
   0.8931259891770477    0.7504517018310282    0.6909007525750057 O
   0.8543650948981121    0.7583825151437953    0.9065812167251485 O
   0.6191128899798874    0.5068107792718213    0.9086422046882809 O
   0.6072938088405134    0.7614759155632460    0.1203459832271425 O
   0.6367685632814271    0.7502013161892709    0.2841217496910819 O
   0.6284273522071372    0.7432135304796970    0.5103665206913607 O
   0.6114898885795375    0.7541498835914382    0.7036204211091507 O
   0.6474496343595003    0.7509302129920542    0.8876638365815925 O
   0.8574156522054792   -0.0004884016204730    0.1017233792347953 O
   0.8894873600320120    0.0030972727449595    0.2886716803645274 O
   0.8502564751397824    0.0047438128334008    0.7148038327404402 O
   0.8844895459624992   -0.0100908500195461    0.8918984089494808 O
   0.8917511079921128    0.2555535828504623    0.0824260903281652 O
   0.8824422215308252   -0.0053615083544226    0.5046512497491829 O
   0.8713830729030544    0.2589527295340073    0.4887439892767916 O
   0.8739869565874363    0.7587261850278334    0.5093701351939199 O
   0.8635847364320046    0.7369650413391181    0.2974968894998023 O
   0.8559515054058430    0.2498694509710096    0.3075223196813622 O
   0.9026406843464658    0.4999457337978683    0.8909264804924631 O
   0.8787063509955154    0.4976259726462852    0.7013302574830068 O
   0.8999769860749698    0.7461891219456017    0.0797602111059178 O
   0.8845646418694697    0.5069546538892375    0.2756333237193979 O
   0.8559894064406516    0.5024076930420275    0.1220782219480756 O
   0.8642010939162662    0.2513030073904646    0.9069802651445193 O
   0.9121037155188683    0.2448217848452355    0.7096782291685878 O
   0.8808550344234206    0.4887437616144481    0.5072077801969852 O
   0.4984748073333232   -0.0077448391170554    0.0015876002928204 Pr
  -0.0061273112362796    0.2447213903001732    0.6003176447048505 Pr
  -0.0010870012992188    0.4979649211375816   -0.0073621309924352 Pr
   0.0007340134265382    0.4916289702996369    0.7911498798451361 Pr
   0.2512129156226288    0.0070092222237965    0.1970483315686054 Pr
   0.2479417957655481   -0.0084810527867676    0.8038981805089416 Pr
   0.2457351256268108    0.2584359135524917    0.6007913043462921 Pr
   0.4939126493195515    0.2483657507274141    0.4069062883423063 Pr
   0.7546033491666982    0.7406070072549555    0.5951676969299770 Pr
   0.7534830328712796    0.0005419456000907    0.0023039967462120 Pr
   0.5005342480224502    0.5061309068225681    0.2051569214796148 Pr
   0.5013808085550290    0.7432237566420793    0.7935016508949756 Pr
   0.5083554930600754    0.2485249679507632    0.8131404991512095 Pr
   0.0019446336343284    0.0015935854006202    0.1955499045505955 Sr
  -0.0030187054600910    0.0060561457022664    0.7988784186900636 Sr
   0.7519086712648710    0.2488991385258211    0.8054840757062421 Sr
   0.7506828606179315    0.2517517889505398    0.0038520213735146 Sr
   0.0022352539204076    0.5047058232965129    0.6015767283754448 Sr
   0.5022728879916080    0.5096584493308099    0.0026449190256622 Sr
   0.2484345792187429    0.2515974709354156    0.0050251814702921 Sr
   0.4985569930326348    0.7489264333080827    0.6013186496113982 Sr
   0.2473415496850846    0.5010930493451142    0.8054288041593142 Sr
   0.2434894861150727    0.7518906495402160    0.5998053085951052 Sr
   0.5030432552620613    0.2553434826742927    0.2026645942999316 Sr
   0.7506926912409281    0.0054133827754635    0.1983312746346243 Sr
  -0.0032872878966605    0.0064607453505261   -0.0020188098199793 Sr
