Na100 Ti20 Mn30 Fe20 Cu10 Ni20 O200
1.0
   7.6341290000919164  -13.1688623990070628    0.0001742287789814
   7.5909398833988719   13.1439292747419376   -0.0001335389579522
   0.0000520335683294   -0.0002589787712146   21.6894852415056683
Cu Fe Mn Na Ni O Ti
10 20 30 100 20 200 20
direct
   0.3990162775862077    0.3972512896092339    0.0032746719961065 Cu
   0.7998174964349670    0.7986627160453991    0.0001095322780118 Cu
   0.2035796670466193    0.4033573964243727    0.2516627291900800 Cu
   0.5912444867469350   -0.0070804965995662    0.7491429447194671 Cu
   0.0024124057064365    0.4002648555715190    0.0019604825093391 Cu
   0.6004067033221355    0.6037884884292595    0.5001378063377684 Cu
   0.0088962180998238    0.4031051575955076    0.2515921339446524 Cu
   0.1975193136771308    0.4018135894998582    0.4992308785714056 Cu
   0.2022158224921063    0.5984523441511659    0.4998446761836040 Cu
   0.0008114485409430    0.8003926010794716    0.0015925497736923 Cu
   0.4075966176848373    0.8007651391380806    0.2498947688305999 Fe
   0.3989254429891116    0.4071344389169287    0.2483588922280752 Fe
   0.2003532495442596   -0.0034965912942971    0.2504191886420259 Fe
   0.7968558858443441   -0.0052723133133945    0.0014728755525912 Fe
   0.1975921067939669    0.5978809397498385    0.7506580285484855 Fe
   0.5982372033235538    0.2004351015568830    0.4983299871430154 Fe
   0.6016625239612574    0.1982215458347912   -0.0047185050843611 Fe
   0.7962222913945440    0.1962005735560728    0.4979789895399219 Fe
   0.8007688815840522    0.4027459658192198    0.4985782328073847 Fe
   0.8022544788986510    0.2008175900017177    0.2488438012788306 Fe
   0.2039733997360330    0.8003164989089855    0.2525239831927993 Fe
   0.4027545992991953   -0.0027214592780720    0.2482362655562754 Fe
   0.0038386512167845    0.2041295177001434    0.2511927853233729 Fe
   0.2052282302596800    0.8023230489766262    0.5014603591725849 Fe
  -0.0017363020022398    0.2005190954119087    0.0003398444695432 Fe
  -0.0043399247174151   -0.0024918815664349    0.0020843821608474 Fe
   0.7975027595845200    0.8020008500007865    0.7499515545447856 Fe
   0.4004973364965773    0.0002543712921143   -0.0017962703229356 Fe
   0.8033706442136535    0.6054731462565748    0.2490881309242143 Fe
  -0.0041765656679310    0.3970871338677816    0.7510911609674188 Fe
   0.8065847749097409    0.4015023565256193   -0.0004025663888449 Mn
   0.0044562527370682    0.8007511125903243    0.2476402380607195 Mn
   0.7981808584235476    0.1956480571980558   -0.0035268021951676 Mn
  -0.0063928092817895    0.1975963207335796    0.7507590794900654 Mn
   0.0020004895747971    0.5977944289255123    0.7549936527939627 Mn
   0.2047738077148440    0.6003389334241956    0.2525425678997951 Mn
   0.8042928026762936    0.5995647336073180    0.0002071861863198 Mn
  -0.0051822657343053   -0.0022454355997254    0.7489803013483912 Mn
   0.0013017766909552    0.0014574508245442    0.2494537151775272 Mn
   0.2007932791145104    0.6032126694599331    0.0021114772881117 Mn
   0.2005984029142084    0.7989786874138575    0.7514330521827871 Mn
   0.4021221042324251    0.0015247542791278    0.7475623717097205 Mn
   0.1977976936283507    0.1995728303058751    0.0021642688793807 Mn
   0.1983132624654283   -0.0006685463668595    0.5004051199414180 Mn
   0.1983870861994135    0.0004789113293046    0.0012088268435136 Mn
  -0.0016112375937594    0.8000861124710885    0.5019118120318252 Mn
   0.0045032981392368    0.6026726738430893    0.0055434470707115 Mn
   0.7988462290984446    0.8004760200746776    0.2466052711880500 Mn
   0.8023807708660793    0.5982916582176606    0.7523466776885636 Mn
   0.3992956084370980    0.2002873903141903    0.0013064819058944 Mn
  -0.0032891382801257    0.3976254539336602    0.5012762754492484 Mn
   0.7916355165844456   -0.0004395874622880    0.7462850296869742 Mn
   0.7994757447295254    0.0018203508964660    0.2492761443775934 Mn
   0.5939306734567111    0.7989952197419690    0.7507165168826178 Mn
   0.5971826208186085   -0.0003294007316560    0.4998463798531342 Mn
   0.6011942418510665    0.3981069669117298    0.7491744956169142 Mn
   0.6015445066634852    0.3989126316990255   -0.0018716882974503 Mn
   0.5995827174635097    0.4028187806335889    0.5000324832196300 Mn
   0.3979433011536045    0.5958446973029714    0.0019091742622902 Mn
   0.3984352345069113    0.5978099454584193    0.7517717754588135 Mn
   0.6631366327743210    0.9302139940493848    0.3739434493827152 Na
   0.6671156432248136    0.7363631143668763    0.8783441869255761 Na
   0.6694363609049441    0.7355036638275453    0.3755008122234587 Na
   0.6691861407674647    0.3381343381486215    0.3745728359208623 Na
   0.6689713328192046    0.5396714253896633    0.3731093059846530 Na
   0.6608929856492500    0.9307662803757714    0.8772028722343945 Na
   0.6643010951700141    0.5244857487607084    0.8741834741473297 Na
   0.8623844596790657    0.1287004276298386    0.3751795774107485 Na
   0.8641023278259901    0.9320144631600499    0.8762692497766915 Na
   0.8679883610540192    0.3323664765407991    0.3747529746591934 Na
   0.8676987137591052    0.3298951353566776    0.8755778311776378 Na
   0.8743078930849183    0.5416803755419956    0.3729620866930853 Na
   0.8758306035137061    0.5370275318752598    0.8754028650664536 Na
   0.8766736951634513    0.7459793765376912    0.3712983291274556 Na
   0.8624659781118540    0.7318896539776544    0.8835547002935673 Na
   0.8631905767210415    0.9359660615279387    0.3739259403647344 Na
   0.6601903380136329    0.1248848483842717    0.8728442749829666 Na
   0.8608564267743176    0.1272305557172363    0.8740942751160882 Na
   0.6666517030368699    0.1323367027663290    0.3726150707569409 Na
   0.1331623821669028    0.0667564396541414    0.1286775079676462 Na
   0.4687704044829522    0.9363502460749916    0.3738329205565618 Na
   0.5342656368906541    0.0690911171475400    0.6245259592721705 Na
   0.5354917822720886    0.2661706950748116    0.1231336883952592 Na
   0.5296849455935843    0.2675645863544137    0.6266985169076642 Na
   0.5316650929196325    0.4620024517696066    0.1238450560514979 Na
   0.5322451478165613    0.4652546575436585    0.6212019609835852 Na
   0.5339463089475750    0.6680735065447476    0.1293292905691751 Na
   0.5284285627043829    0.6640751915431038    0.6177216039078122 Na
   0.5342234535567008    0.0616917606855526    0.1216753378611496 Na
   0.5385990737056093    0.8678754683386772    0.1257154236232582 Na
   0.7306459252731932    0.0656298953594065    0.1233438765773410 Na
   0.7279073191237359    0.0654912728946818    0.6212327732530053 Na
   0.7300487019009901    0.2660697649110807    0.1203971078127847 Na
   0.7300417098009808    0.2734359587800819    0.6221907182112841 Na
   0.7393771170241668    0.4674313065177962    0.1224133560755478 Na
   0.7354937364987758    0.4713936531973284    0.6259603619671292 Na
   0.4656053784047760    0.9289433516248232    0.8715238224717167 Na
   0.5311201178386770    0.8679087746270022    0.6262284640587824 Na
   0.7321340007551486    0.6666574623514755    0.6220782793271644 Na
   0.3345277883049388    0.8700148660985162    0.6229115166910790 Na
   0.3306361252347024    0.6636483201256970    0.6240960288891385 Na
   0.1269990090859991    0.0641679178023565    0.6207550713855943 Na
   0.1342649517355015    0.2677468277401644    0.1284819216770968 Na
   0.1304840737527344    0.2671275419307824    0.6209344936002229 Na
   0.1355099296784369    0.4647492769869931    0.1268809868342501 Na
   0.1278540456238713    0.4631596441529722    0.6192662397740084 Na
   0.1378683943979001    0.6707531159176565    0.1293386806132370 Na
   0.1367532003860609    0.6639584071001552    0.6281734479327640 Na
   0.3322054899805821    0.8639977333801429    0.1254367935460662 Na
   0.1364068240415347    0.8660916435718954    0.1223023113020446 Na
   0.3360010738223861    0.0680215891230088    0.1244203567425559 Na
   0.3366062940933578    0.0690880171378054    0.6220182681268175 Na
   0.3312914924970370    0.2664884360407456    0.1254024589610827 Na
   0.3235990044610038    0.2608247026458238    0.6218502626448739 Na
   0.3343580882546733    0.4683434531933952    0.1263904934125834 Na
   0.3244528942742669    0.4638406710585177    0.6236680681584115 Na
   0.3348594914387862    0.6679369386479528    0.1278770199185726 Na
   0.1301735876666598    0.8638012918347057    0.6241300881244641 Na
   0.7342779804702452    0.8660782749348591    0.1225954213234084 Na
   0.7278320581582469    0.6608588710108296    0.1245815653825266 Na
   0.9336767813876514    0.0724074562068416    0.1264796380714901 Na
   0.0674863696215870    0.9353714485395845    0.8791696760748955 Na
   0.2619630428249739    0.1335874859198926    0.3749505349809542 Na
   0.2686644906966578    0.1334920779771639    0.8764378103122409 Na
   0.2642916640048964    0.3329901433319765    0.3732519684756336 Na
   0.2690911936559314    0.3365273508727192    0.8829576790343056 Na
   0.2791011719138006    0.5382989714852416    0.3768933765181099 Na
   0.2650012134502529    0.5323690680170912    0.8802539976238756 Na
   0.2706437782845905    0.7346873545620850    0.3748504661915273 Na
   0.2654580341138908    0.7337477965576242    0.8743881657850180 Na
   0.2759093191565190    0.9398000371431532    0.3774702943359950 Na
   0.2717167004918281    0.9363366504665783    0.8772590863865568 Na
   0.4706846640950763    0.1373874832090665    0.3753778461277578 Na
   0.4698704644845192    0.1370452749121156    0.8709052798145293 Na
   0.4669009730088455    0.3367385387258715    0.3760112289226600 Na
   0.4654197987773074    0.3294269527049793    0.8772816123706688 Na
   0.4760423222545793    0.5392094915163695    0.3723797966466111 Na
   0.4652871843064046    0.5249002464460503    0.8793925212004823 Na
   0.4755838301540435    0.7349069954401091    0.3709427416703701 Na
   0.4632957762528910    0.7237209787340925    0.8763108205085860 Na
   0.7273799074880812    0.8668986303338132    0.6180488152355149 Na
   0.0728900643571301    0.7386416103601751    0.8839974011196379 Na
   0.0694863196437885    0.9336963814342125    0.3737543434737445 Na
   0.0661954067861719    0.5292428469753880    0.8798686467101159 Na
   0.9247277189445208    0.0651613513345025    0.6235173326886073 Na
   0.9311748576623651    0.2683040418562361    0.1246490964871173 Na
   0.9229235185827941    0.2604139734083302    0.6254837579157074 Na
   0.9450329339264538    0.4687322537144514    0.1275671083632172 Na
   0.9259806044147095    0.4624461356434057    0.6309409865293321 Na
   0.9367067241664172    0.6698153510153243    0.1264991249242007 Na
   0.0719938277039386    0.7355621493379889    0.3743810856288651 Na
   0.9317984649921870    0.8640865406855893    0.1210282145987110 Na
   0.9370754147507789    0.6668117089549874    0.6269095021306640 Na
   0.0658861308644142    0.1328848397267978    0.3733805355113237 Na
   0.0640512417229205    0.1311093648722926    0.8774858916754686 Na
   0.0698228160793813    0.3387116793143741    0.3724548338246242 Na
   0.0651177105391735    0.3304704560298575    0.8816018661576657 Na
   0.0702853761760260    0.5349162978696876    0.3748061176658127 Na
   0.9242846438750815    0.8624757294635885    0.6255493295158457 Na
   0.6742872814036596    0.3341190913619644    0.8713388016318303 Na
   0.4017672777533082    0.0019649326329491    0.4992799120826406 Ni
   0.6007122418388426    0.7997554604294954    0.0003749128200757 Ni
   0.6024342455921119    0.8006080405745083    0.4985012990430426 Ni
   0.6005003120657525   -0.0015599304982662   -0.0009966235235237 Ni
   0.4024865023651911    0.6003596066923867    0.4985044385046874 Ni
   0.7926129870022121   -0.0036023678817357    0.4979347605054311 Ni
   0.2005405052977788    0.8030274665228365    0.0009492931720830 Ni
   0.7948171979866979    0.8010228029745919    0.4969608567473623 Ni
   0.1957426671186212    0.1991660162652786    0.4990355160521643 Ni
   0.3974052552105488    0.7971924157162072    0.7502500700694243 Ni
   0.6009835805162512   -0.0028140332998660    0.2487509912731438 Ni
   0.5966674486978647    0.2009040971047192    0.7474896999600827 Ni
   0.5999415007703681    0.6049004793315389    0.2488752603891610 Ni
   0.1990939766056851    0.2022770168466978    0.2500863447989121 Ni
   0.4047553432206328    0.6031091959728865    0.2503924764124799 Ni
   0.6010734389299559    0.8001112130486631    0.2495888656758679 Ni
   0.4006323047004016    0.1991340574436912    0.7491420348225246 Ni
   0.0057812407022264    0.6019782432729498    0.2508043801994218 Ni
   0.1986490106842431    0.3993425781319844    0.0023484032402802 Ni
   0.7993342701573839    0.4003441425017530    0.7518079825933895 Ni
   0.5330342852878621    0.2724064551543833    0.4503030666261947 O
   0.5367629829414262    0.4609268582235247    0.9501733909099757 O
   0.5366464352623176    0.6644779113717472    0.4513608784633450 O
   0.5286004612058086    0.0666351614729224    0.9463082508526015 O
   0.5285331752721112    0.6566450172939883    0.9517423077449437 O
   0.5379039175224534    0.0682548198794499    0.4496703635622898 O
   0.5312916414072487    0.8756960543459954    0.4516212588208606 O
   0.3373092703510938    0.8673025855649968    0.9483961270088969 O
   0.5452772044258331    0.2748427478722497    0.9459139330757805 O
   0.5342706882987028    0.4646449239195268    0.4543881054422275 O
   0.7215027074860554    0.0643385011073383    0.4489904230764652 O
   0.3315970362678090    0.8633373466650961    0.4503684537078856 O
   0.7361949854462716    0.0689730847127908    0.9491077687696678 O
   0.7330474969757916    0.2700234172556675    0.4482662549870142 O
   0.7347522513687107    0.2555520571207199    0.9455167250963087 O
   0.7490754552617294    0.4792361198623538    0.4460197746006850 O
   0.7526140618864781    0.4728466437487332    0.9504866202525085 O
   0.7542125236182483    0.6693187574897775    0.4422902107951076 O
   0.7147908235914674    0.6499361246178775    0.9438516968824958 O
   0.7320996355151692    0.8680524525017984    0.4456045598474078 O
   0.7361110074278571    0.8671562582927987    0.9497169828919304 O
   0.9389836686439232    0.0694534651410422    0.4496872835816512 O
   0.9341255230490861    0.0652281161808455    0.9496709504365671 O
   0.5212972211091855    0.8574143267305727    0.9476834903659823 O
   0.3222493312170313    0.6697442930393260    0.9493502314107115 O
   0.3301486497213722    0.0699785354396824    0.9521379338734237 O
   0.3364851974023214    0.4720844088092985    0.9524792966357246 O
   0.9222002660100563    0.0678515406757833    0.7970999302219226 O
   0.9311458800174858    0.2693087696338975    0.2982806911959327 O
   0.9328579205376953    0.2629449065162949    0.7992058104602080 O
   0.9218558908317648    0.4607276609670666    0.3010983730853992 O
   0.9386190508114962    0.4673798615655939    0.8026400434821530 O
   0.9349597632408263    0.6735496747792510    0.2984769775440231 O
   0.9459892791021299    0.6856418673662324    0.8107836246982033 O
   0.9346966299251147    0.8676615361938571    0.2935589124727543 O
   0.9388433800911895    0.8637685771244078    0.8048930048193549 O
   0.1293247049387580    0.0598714489152246    0.4531940420353362 O
   0.1367726347567771    0.0682942096103532    0.9525974031237937 O
   0.3521632586907394    0.6836625103884273    0.4441066058350741 O
   0.1223860198286061    0.2652545897353904    0.4513387953887102 O
   0.1246977625140268    0.4631027492806840    0.4550185169510887 O
   0.1363726558908216    0.4761492267255650    0.9538350456581518 O
   0.1284484144626259    0.6634347528782479    0.4537348569716937 O
   0.1304827246033423    0.6608181461239689    0.9540215063220159 O
   0.1301426269958161    0.8664104028437255    0.4542993310019598 O
   0.1430327300806910    0.8813654189362174    0.9496702755671778 O
   0.3425521700718544    0.0808159241357108    0.4464471634720955 O
   0.9272509277241513    0.2538603288098605    0.4464503406798701 O
   0.3363069668858287    0.2664625229864493    0.4496643071109309 O
   0.3240012879583841    0.2563437675343147    0.9526571049277779 O
   0.3484322197231083    0.4645648146703737    0.4438659819968648 O
   0.1339742637873863    0.2594158950779491    0.9508403626497091 O
   0.9226248336561779    0.2525347427457920    0.9466450779255446 O
   0.9362089315752549    0.8801625390178938    0.4447494118094097 O
   0.9396604177665723    0.4724177264129011    0.9560318781608335 O
   0.4788373523944565    0.5338814854556790    0.0528385746637058 O
   0.4509469692488182    0.5169911971845959    0.5558405492036407 O
   0.4584127456745739    0.7293452572536065    0.0471546999991837 O
   0.4615941939786310    0.7380742567391122    0.5521323569765159 O
   0.4585401789877359    0.9254077350274226    0.0493617943808928 O
   0.4733921887859592    0.9377943118795171    0.5492625499969815 O
   0.6723201371082952    0.1380502262954080    0.0469450987938621 O
   0.6619666354799902    0.1306392742231628    0.5479738828837287 O
   0.6719840834165349    0.3367604268313400    0.0458645737380211 O
   0.6662708000801623    0.3399701586055271    0.5478162435246249 O
   0.6685450657791502    0.5281763932034075    0.0470618885102837 O
   0.4538810472310907    0.3251625092698935    0.5510788613149643 O
   0.6747764550151415    0.5365810587770766    0.5462026293664310 O
   0.6664093796580836    0.7292679962068620    0.5503810509436292 O
   0.6670703039877006    0.9324171153830015    0.0510034503409159 O
   0.6590751103579591    0.9384872593252898    0.5488955286656122 O
   0.8624310931709128    0.1367844874627879    0.0485524821933917 O
   0.8645057054250681    0.1338218479560061    0.5483557218478701 O
   0.8604029803861912    0.3250447059442809    0.0449888328693057 O
   0.8635816548458751    0.3324780776821285    0.5482202517990176 O
   0.8863193871315873    0.5396606420232751    0.0566369285043836 O
   0.8689355744513141    0.5364793812819725    0.5499157770343760 O
   0.8565581916604372    0.7232886043642456    0.0483342830129772 O
   0.8690767643000603    0.7292932851958988    0.5494335181323420 O
   0.6640788552662763    0.7221100728816309    0.0493111391066127 O
   0.9398194092885050    0.4706110958358951    0.4522932651855353 O
   0.4596397017251871    0.3202830872165811    0.0521726738353815 O
   0.4685512461485749    0.1349001632083661    0.0482427409988030 O
   0.9410377265067958    0.6725908355369352    0.4532878514879621 O
   0.9370599718829917    0.6586742656882109    0.9537543079030160 O
   0.9244222730754121    0.0680283519437066    0.3006463402457328 O
   0.9343905342161581    0.8677449879220960    0.9525953451389013 O
   0.0709362770231764    0.1368352378969758    0.0498207699046932 O
   0.0573729831325160    0.1316508386832309    0.5502126111153820 O
   0.0612920835788839    0.3297824097031265    0.0506917096898633 O
   0.0447291431590263    0.3204064395926760    0.5526596983883908 O
   0.0790467588393192    0.5504257775941174    0.0538313441834775 O
   0.0509457037335077    0.5344174697789278    0.5602601188331903 O
   0.0650131942909338    0.7301190055219986    0.0501180185980067 O
   0.4680551808273630    0.1429774206059068    0.5492746060228700 O
   0.0714350923679723    0.7268808675712392    0.5555623547368786 O
   0.0505243657474498    0.9254573332685220    0.5519742907622954 O
   0.2536003544711815    0.1276473152079388    0.0509807444729263 O
   0.2679347235186600    0.1294602563872627    0.5486617117357855 O
   0.2585860265082909    0.3208349787960124    0.0507577521202331 O
   0.2661266509086204    0.3346377633856351    0.5480323770650560 O
   0.2677287267578306    0.5418230992691966    0.0498421834552464 O
   0.2647492817421938    0.5327955981232624    0.5465780200332264 O
   0.2688388134234858    0.7309945747253485    0.0498012571033102 O
   0.2747324927787497    0.7385330526257214    0.5500572474406923 O
   0.2667014656080528    0.9426224496883188    0.0491019364771343 O
   0.2614306080591861    0.9353624002876090    0.5501242467508236 O
   0.0757533160535864    0.9406153532283680    0.0503397371454231 O
   0.7279910394166569    0.8743080520738906    0.7974567256246492 O
   0.7354500121722841    0.2591175835305358    0.8009390084769361 O
   0.7280323407160979    0.6582110433270394    0.7972212109965084 O
   0.4711256587136336    0.3315731600891782    0.2013218851146307 O
   0.4507703904213798    0.3331739263787902    0.6943124259305731 O
   0.4687464733285085    0.5304823474280751    0.1971876513369438 O
   0.4610892075940632    0.5287355875469565    0.7033544617587683 O
   0.4683387108630043    0.7379285048732120    0.1969952773659203 O
   0.4657967937890257    0.7243062760544414    0.7021621356797864 O
   0.4661024029755831    0.9345398883200960    0.1971890682962362 O
   0.4563209875401800    0.9351914552704953    0.6984911884535402 O
   0.4602350894677367    0.1247528274019327    0.6988831898424573 O
   0.6652628478334369    0.1408264066501492    0.1983142794075937 O
   0.7448819961839671    0.8723829312610754    0.2960574758772652 O
   0.6653343913798311    0.3407526334141783    0.6984525912913452 O
   0.6668116567899119    0.5251818712873239    0.1981187442050954 O
   0.6543796259181086    0.5283353184705527    0.6988577156465449 O
   0.6794119436726287    0.7410888834287651    0.1983033903826194 O
   0.6528712661036657    0.7220482072425778    0.6994200740981539 O
   0.6798732389240267    0.9406255829638005    0.1994694824908512 O
   0.6684107677549842    0.9398045908362170    0.6979112555514096 O
   0.6763509374567896    0.1484354554808417    0.6930755252587855 O
   0.4730032384944086    0.1388615433513011    0.1996387877218372 O
   0.2695434937898961    0.9456588043397673    0.6979723029144407 O
   0.2705338142303290    0.9348985675114726    0.1993088806485892 O
   0.8741119140669353    0.9463209859284134    0.0565061281056421 O
   0.0608521249847220    0.1271467291063531    0.2002221264417944 O
   0.0737573002719191    0.1450369508227541    0.7022985636940211 O
   0.0636008796337631    0.3297060072235351    0.1987947840035754 O
   0.0676444485237927    0.3275341361909170    0.7036571580671830 O
   0.0765282462533645    0.5353127784742820    0.2041412810945946 O
   0.0688627800838320    0.5237781889167485    0.6998393747688337 O
   0.0705336289055656    0.7383589337559302    0.2009315900342693 O
   0.0686953251181336    0.7318019462481344    0.7072509317386363 O
   0.0721178681875087    0.9261722686074018    0.1973616087874627 O
   0.0730114187867672    0.9303740295166690    0.7011386728135612 O
   0.2771361090934094    0.1359893795836935    0.1996657836390887 O
   0.2556311875942714    0.1295727693339467    0.7004448312552729 O
   0.2708538236316274    0.3348203834424143    0.1989976403919506 O
   0.2640855254966051    0.3310611167007405    0.7022916470410934 O
   0.2634685002175027    0.5382979598611101    0.2018602236805417 O
   0.2527209899557354    0.5169802010634044    0.6980760803149473 O
   0.2651975995382328    0.7292808019468568    0.2024496809699133 O
   0.2600493376274613    0.7299314811717771    0.7013292220694747 O
   0.8623311104547741    0.1293033725870515    0.1995287294336812 O
   0.8525740475509136    0.1249964889234367    0.6975736059792599 O
   0.6639484378205173    0.3334151112870700    0.2007307930707100 O
   0.8663092371925182    0.3278222071326538    0.7002240300588154 O
   0.3287550159262885    0.6546975462430628    0.7997544067571977 O
   0.3383910004339130    0.8714740868144895    0.3008253977274138 O
   0.3292230734598138    0.8719502780280670    0.7968858215645441 O
   0.5373205051829155    0.0779034806488288    0.2995178407463962 O
   0.5220111919768552    0.0586128128520956    0.7965542755916600 O
   0.5361922495297964    0.2681003621073595    0.2981273175643855 O
   0.5354367751301000    0.2738411644027691    0.7981810018638139 O
   0.5395215662308113    0.4612925235641672    0.3006785755235565 O
   0.8514879012288583    0.3326469327468498    0.1950290004327450 O
   0.5385505858129678    0.6691103062737536    0.3015236369560200 O
   0.5411399553133818    0.6522307816045479    0.8069721187861564 O
   0.5325045333389185    0.8682680911068739    0.3022063549402975 O
   0.5280478384694303    0.8506079685565495    0.8028992332992463 O
   0.7386218301958674    0.0667263854860283    0.2980267680507201 O
   0.7353280829187315    0.0687116030479474    0.7963650738503298 O
   0.7308545688570084    0.2687267193483841    0.2978632467663478 O
   0.7316454420784509    0.4660775955219351    0.2979350794602215 O
   0.7445232560063837    0.4777885130697307    0.8032523986274165 O
   0.7425164505591854    0.6777657262746437    0.2973352586179408 O
   0.3308584720168894    0.6684220504972960    0.2997230990701440 O
   0.3288577241685134    0.4640023322096200    0.7985454628921992 O
   0.5253313234401583    0.4571043529386785    0.7975242777465683 O
   0.3313108853413319    0.2708069346879831    0.7996450079453636 O
   0.3393560737339669    0.4655635494068425    0.3026158020066267 O
   0.8635152339625182    0.5289813375707951    0.2001234356899126 O
   0.8745995548076259    0.5429729911109308    0.7047813039899077 O
   0.8574543683140374    0.7336565237830321    0.1962196033224019 O
   0.8764559138833554    0.7331969934468159    0.7032844534545171 O
   0.8666693334842202    0.9352681455309457    0.2025505770453588 O
   0.8532257212303563    0.9348218374325131    0.6973103863744602 O
   0.1294386995187858    0.0603134963002774    0.2984898127969660 O
   0.1438434805803496    0.0752876979081646    0.8019148040615028 O
   0.1301550654139448    0.2649788865585954    0.3025768363983887 O
   0.8714186341011717    0.9367873612311380    0.5501648344482466 O
   0.1493415217504057    0.4821879016585964    0.3048002172331329 O
   0.1346267692721370    0.4565763865992647    0.8034855421628156 O
   0.1407628399498729    0.6667889997222797    0.3018956681796459 O
   0.1280792718626958    0.6542824262658703    0.8051376170741673 O
   0.1460791282877641    0.8726583391244107    0.3054094652779153 O
   0.1378774329342494    0.8733419529051560    0.7992716496253310 O
   0.3402365009747314    0.0750692072527032    0.2990078399387858 O
   0.3296650842395901    0.0608375588194081    0.7981877103256126 O
   0.3410979866998908    0.2648537300576718    0.3010112689031650 O
   0.1448677142518864    0.2691289455304088    0.8040026309540527 O
   0.7852754983945311    0.1971180704534850    0.7460956540297458 Ti
   0.3946434421217530    0.4072627519193400    0.5014368475744897 Ti
   0.8100277778265312    0.4043629018233207    0.2476119372365853 Ti
   0.0086384957308710    0.6004939861889607    0.5077864661100518 Ti
  -0.0124096756055171   -0.0076812425116451    0.4982634177184972 Ti
  -0.0013435574483791    0.2015241362018640    0.4994578942093033 Ti
   0.4038052986747588    0.8028678234177932   -0.0015242163558417 Ti
   0.3950760732392202    0.1996093863198653    0.4983067201379615 Ti
   0.4018382425943908    0.7928732617361888    0.4983995790545587 Ti
   0.4020768866659076    0.3935949696713242    0.7474052822755811 Ti
   0.6018766131038068    0.4066170277445992    0.2491209304564213 Ti
   0.6000638479698083    0.1971211259247212    0.2479129194972042 Ti
   0.6018882991817336    0.6031311808779309   -0.0007611708145770 Ti
   0.3947840805167795    0.2008938170573409    0.2516597914892857 Ti
   0.1980884221273477    0.4022368076694940    0.7516672458698861 Ti
   0.1949731085994704    0.1983063122900117    0.7532286475357329 Ti
   0.2034295039625310    0.0009321199901880    0.7467597193340716 Ti
  -0.0057983842502970    0.7970220589012678    0.7582345435111491 Ti
   0.6030609626190283    0.6058606314133250    0.7501173960654458 Ti
   0.8001310847005529    0.6066665677594771    0.4948504399726980 Ti
