Na100 Mg7 Ti1 Mn65 Cu5 Ni22 O200
1.0
   7.5618048550969670  -13.0952332941797245    0.0111440410058235
   7.5846028529715221   13.1083929034286868   -0.0071550766322815
   0.0057741758565553   -0.0153011212721099   21.5935996843814344
Cu Mg Mn Na Ni O Ti
5 7 65 100 22 200 1
direct
   0.1966391350203764   -0.0003475850221840    0.7500833968718228 Cu
   0.3991871461639276   -0.0001410402315158    0.2494519178530570 Cu
   0.2017832625008167    0.5997113750376719    0.2496114489906115 Cu
   0.0016888827366828    0.2034032002022592    0.0010240609609385 Cu
   0.1980271770964674    0.0046774239431301    0.0008392582786871 Cu
   0.8004250813418364    0.5997610555695874    0.2473134893078088 Mg
   0.2027688250385296    0.2020093641323958    0.2485653424851343 Mg
   0.5972946894823666    0.5978731336471756    0.4978688813527826 Mg
   0.7921420973377552   -0.0020006697903774    0.7514808235350556 Mg
   0.0038267954192758    0.4019526956165581    0.0017244920936905 Mg
  -0.0013277164855423    0.1970739898636208    0.4996059202442506 Mg
   0.4035278757531681    0.3994843987039983    0.7516361957036850 Mg
   0.6005674563859998    0.4008757414881196    0.2479858506639775 Mn
   0.6017662624888249    0.2061318132408684    0.7468918131883234 Mn
   0.3976294711504709    0.5961790739581677    0.7533579914136208 Mn
   0.5978369556782287    0.1981334342208699    0.2494391816534012 Mn
   0.5950257764157757   -0.0008875576834401    0.7519434624382213 Mn
   0.6014245037621746    0.6015523427052775    0.2475927206049656 Mn
   0.5999423569211652   -0.0001976118144571    0.2509343550258324 Mn
   0.3945454035975907    0.7954178164687776    0.7541765613752822 Mn
   0.6050937781177714    0.6020869306016560    0.7499299340095645 Mn
   0.5957489491976435    0.7981157492843342    0.7544834985370971 Mn
   0.6060323461030878    0.4026780902387176    0.7464297387776621 Mn
   0.3981358079202243    0.0022937761670666    0.7476553925816251 Mn
   0.3996477479930381    0.2013074387210048    0.2491240532223086 Mn
  -0.0052292885943823   -0.0013795701275310    0.7509880226031997 Mn
   0.0003071595299088    0.1974424284040125    0.2492246305149796 Mn
  -0.0043066692611879    0.1945771608637802    0.7500206534481558 Mn
   0.0006101969049332    0.3964392304443778    0.2538789542443131 Mn
   0.0040753127986024    0.4010301295504365    0.7510604269868169 Mn
   0.0016152274010183    0.5977311460624123    0.2499974514237912 Mn
   0.3997335798835898    0.2020079150908242    0.7486381595316218 Mn
   0.0043988485121882    0.6017995850261760    0.7530250502656772 Mn
   0.1989685844355637    0.0018913721359601    0.2494182403167844 Mn
   0.1992960683652814    0.1990464469567811    0.7526976629652421 Mn
   0.2012695282775520    0.3989668199813170    0.2504293420070960 Mn
   0.2010604379722180    0.3945605603768783    0.7498946385987062 Mn
   0.1997285587694815    0.8017773728432408    0.2473947223673276 Mn
   0.2004530701068090    0.7983618222602062    0.7506498394763609 Mn
   0.0006573499775958    0.7997529009774136    0.2489109270034211 Mn
   0.7981452681030343    0.1995440764085485    0.7495890602529254 Mn
   0.8001954801451626    0.8014546473509412    0.2498149583328671 Mn
   0.8091358217914495    0.4046768949863253    0.7508135484334678 Mn
   0.3988332783657847    0.8020763989041757    0.0002725794945995 Mn
   0.3941135546451977    0.7984207610242169    0.5003793638566076 Mn
   0.8015545894512692    0.3987030326500783    0.2500240824899082 Mn
   0.5984934080431923    0.0043277823452201    0.4990178336616751 Mn
   0.5995150335967465    0.2042294069486378   -0.0005477091939432 Mn
   0.6034043442961470    0.2045588785186793    0.4961171104633442 Mn
   0.6048801695806837    0.4034408373703014    0.4964440459986094 Mn
   0.6006289819781977    0.5980737266735564   -0.0009837861711985 Mn
   0.6034321205510867    0.8000672642717679    0.0038247022408906 Mn
   0.5941566145766390    0.7981448510147896    0.5010552225012699 Mn
   0.8000158717567343    0.0000179587316167    0.0037377841201973 Mn
   0.7974301642067684   -0.0017676993271041    0.5018120311880687 Mn
   0.8014949072835006    0.3993360432991107    0.0006647374423790 Mn
   0.8004993813053526    0.5976283857623382   -0.0014090850781737 Mn
   0.8014377205054379    0.5982716340714457    0.4984565242781239 Mn
   0.3953714867345353    0.5979434181851094    0.4996605548147137 Mn
   0.4020351736008019    0.5994742613474779    0.0019645795839130 Mn
   0.6003295819642912    0.0024056044688234    0.0017301251477432 Mn
   0.4009005329844426    0.2063132925934882    0.0002493548185103 Mn
   0.8001193711262168    0.7980669854422416    0.7491424976318061 Mn
   0.4025323928292722    0.4021656506325183    0.5006550628340590 Mn
  -0.0026768190374852   -0.0011032885494152    0.4985058646681274 Mn
   0.0010483982628704    0.3920877163067713    0.5007530917531310 Mn
   0.0017070985418969    0.5937552361935935    0.5016384194269393 Mn
   0.0014212249843726    0.8006135061438243   -0.0005075310486654 Mn
  -0.0027717124031714    0.7971584482864519    0.4988126862649665 Mn
   0.0002546770107212    0.0017346091872278    0.0016144969150463 Mn
   0.2018137666147033    0.2000118867292360    0.5007957476430688 Mn
   0.1972851595266435    0.5912685783723569    0.4975062673233295 Mn
   0.1988495981686544    0.8010486130081831   -0.0042307842814711 Mn
   0.1975052999043763    0.7983114350531813    0.5025930160618721 Mn
   0.3976996846936340    0.0053995138583259   -0.0038478445655436 Mn
   0.4019563390937479    0.0068716515319348    0.4998659553763688 Mn
   0.2029075873063446    0.0036372289420427    0.5017843454486347 Mn
   0.8635404697068841    0.1303834622103361    0.8788780555481879 Na
   0.8659298385218102    0.3287407123292871    0.3782868218989989 Na
   0.8731757517542132    0.3341622914597939    0.8783320137784597 Na
   0.8695227411313243    0.5285127527304788    0.3751288001360438 Na
   0.8697909154223348    0.9393394287404728    0.3698665991445598 Na
   0.8648464891779543    0.7331349095202674    0.3718730961609387 Na
   0.8683817680831533    0.7328862778270373    0.8734144178235044 Na
   0.8611252778982951    0.9291470370053716    0.8767896744914133 Na
   0.8641525159643317    0.1318944029071144    0.3743581898928254 Na
   0.8676791883092092    0.5326788182146730    0.8752331528351254 Na
   0.6589834202982635    0.9279613767786853    0.8761208313694354 Na
   0.1376216526292350    0.0757393970056908    0.1243826148211590 Na
   0.6685766581409982    0.7322383012097542    0.8776216288716926 Na
   0.7393065673339309    0.2723351718161792    0.6208201822121455 Na
   0.7298234002791346    0.4652650404153818    0.1245765685549260 Na
   0.7421937375580938    0.4655449992674577    0.6226035269150125 Na
   0.7371965995409202    0.6701761503109436    0.1231889785067466 Na
   0.7356965475897251    0.6626124107794710    0.6240611815492680 Na
   0.7316126135610332    0.8672681345580795    0.1296030800796342 Na
   0.1376730679326177    0.6623601744719922    0.6268179389858927 Na
   0.1356096306359476    0.6702486012865034    0.1219115227688984 Na
   0.7336547371292049    0.2659332018037565    0.1257155918858172 Na
   0.7274696970553697    0.8626177826433979    0.6281252711424681 Na
   0.9227005480383144    0.0598496681364440    0.6253968621270448 Na
   0.9345200680445457    0.2668548303960188    0.1227621274373925 Na
   0.1329361445147153    0.4559065356022191    0.6246718897315225 Na
   0.9294349266497430    0.2601532644275546    0.6247364846622874 Na
   0.1367663111881356    0.4689456393111184    0.1225035249730828 Na
   0.9367915559538669    0.4668290107383852    0.1233822651416280 Na
   0.9419819526965133    0.4681622068925199    0.6236864074386568 Na
   0.9363455781103117    0.6647932744225077    0.1234188105875983 Na
   0.9323997449817033    0.0650290156143048    0.1268970474113172 Na
   0.1333330600981993    0.8732788758102070    0.1212821717885563 Na
   0.7239388343144998    0.0644630092485525    0.6242392396526860 Na
   0.7372184567184339    0.0711679717525405    0.1286395001739176 Na
   0.3323226113269523    0.6686326910499447    0.1301780803703474 Na
   0.3267324414093545    0.6600378778465095    0.6281495704137418 Na
   0.3360873363813890    0.8754144857917825    0.1252579591471808 Na
   0.3372120164052522    0.8720298658401022    0.6235919534338575 Na
   0.3356981059842648    0.2686258295599854    0.6258496637831549 Na
   0.3355363011253218    0.2753708999051243    0.1240946705897792 Na
   0.5325631287554597    0.0692108547358955    0.1255318781612731 Na
   0.5342940672313191    0.0777942136836717    0.6256253472879100 Na
   0.5322305411254457    0.2694596183676283    0.1235915686767299 Na
   0.5323889017844495    0.2697683908131557    0.6210851892539145 Na
   0.5327733646414557    0.4671356882642070    0.1231764427845750 Na
   0.5386028037148052    0.4686200451994716    0.6246651747580101 Na
   0.3259389747714749    0.0689245879321440    0.6264962243587716 Na
   0.3359032469279423    0.0706861666169114    0.1242803943004457 Na
   0.5349212668519051    0.6676212030778546    0.1286628677059946 Na
   0.1303972780014251    0.8653757395303503    0.6291124255332826 Na
   0.5301798689560874    0.6637963716771305    0.6248539551158657 Na
   0.5329016649877228    0.8660330573988446    0.1286309626467697 Na
   0.5266008775078930    0.8662892262861021    0.6264017437095261 Na
   0.9368507844611911    0.6667908074797652    0.6280346235676878 Na
   0.3316117143496297    0.4609439635067707    0.6236347836512144 Na
   0.9327492597988871    0.8683986879417801    0.1258071315483676 Na
   0.0720735346056063    0.1316267079210404    0.3721300432135898 Na
   0.1297779518896002    0.0646190407560494    0.6260086188499845 Na
   0.2621365684692703    0.9351421312466213    0.8739967434509859 Na
   0.4640628559988268    0.1316079899049016    0.3736321607897132 Na
   0.4670790305177500    0.1412996600018321    0.8717939701134839 Na
   0.4701604454928925    0.3359599588992979    0.3731825013322997 Na
   0.4736299661032238    0.3392583532952724    0.8767833763094065 Na
   0.4651508900654080    0.5307989180192997    0.3708550566077875 Na
   0.4684000889046612    0.5341896158367795    0.8748826135476656 Na
   0.4612681937174761    0.7313237757392962    0.3688859347500219 Na
   0.4649881759470948    0.7307005099268056    0.8780403099158668 Na
   0.4631362145187696    0.9359307243881256    0.3714324794913622 Na
   0.4597892541706801    0.9357285784407473    0.8760090532802043 Na
   0.6714051730905688    0.1366182212522186    0.3739068853225351 Na
   0.6677361082833785    0.1363105484383947    0.8764827984652439 Na
   0.6679700595064718    0.3344086594658219    0.3736045358056163 Na
   0.6709513412397071    0.3368394838886066    0.8753189769442227 Na
   0.6728666729992506    0.5392873500390383    0.3717676612623912 Na
   0.6723923655962755    0.5338995019395162    0.8737589762271012 Na
   0.6617421773901567    0.7341366921029161    0.3711806192114436 Na
   0.9302850206318923    0.8661901059339524    0.6248963847067711 Na
   0.2643994454736945    0.7254192809685727    0.8761177185688249 Na
   0.2614892177260659    0.9316876643547344    0.3743039534366209 Na
   0.2628895628048343    0.5280722271840583    0.8789446258107864 Na
   0.0617026429741937    0.1353396698291438    0.8804642383174650 Na
   0.0655905516154349    0.3231760408973761    0.3768112997765379 Na
   0.0695955693853082    0.3336945347796991    0.8806447117831518 Na
   0.6673144125277743    0.9316739781376283    0.3716435233761959 Na
   0.0719534801352492    0.5268673345805712    0.3746758877440600 Na
   0.1283102576059156    0.2574705806142038    0.6237178429105358 Na
   0.0694634470189846    0.5367968597035411    0.8820798985438810 Na
   0.0635036817462494    0.7253834761930591    0.3752518495978102 Na
   0.2625917251441868    0.7303375328305690    0.3715327627727716 Na
   0.3358929978447985    0.4684847280076465    0.1256453021986662 Na
   0.0657809545720512    0.9317481413864370    0.3733697726610973 Na
   0.0659522402826840    0.9336747756793609    0.8737174469316917 Na
   0.2717699401536611    0.1362669416061543    0.3749274289177361 Na
   0.2626636086304425    0.1333410807558616    0.8769524543115624 Na
   0.1336028251172751    0.2687253139921776    0.1214458944178184 Na
   0.2669505100173942    0.3314852024271174    0.3743996915184997 Na
   0.2709230232730292    0.3359171098822226    0.8817071671155544 Na
   0.2638413816298215    0.5285237433162994    0.3730470813547741 Na
   0.0638066182302189    0.7307680303807258    0.8752614193961475 Na
   0.5994822501468520    0.4020677495037947   -0.0004219674548340 Ni
   0.8047851039515647    0.3984459488340423    0.5006739924687081 Ni
   0.8027494504459312    0.2014991413958369    0.0007280795147836 Ni
   0.8011750297943591    0.7986490622763150    0.0009777619406044 Ni
   0.8012365676531470    0.2004546316528938    0.5002227238068144 Ni
   0.4021460938760346    0.2040610576665765    0.4995733834845963 Ni
   0.3984662654356397    0.4003249474173735    0.0006582588513836 Ni
  -0.0000308684309916    0.0016911744518478    0.2496287721082102 Ni
   0.0003368863659364    0.8000042886934692    0.7499495063190047 Ni
   0.2002694223427460    0.5941286870906338    0.7510397313355958 Ni
   0.4002230075450853    0.6018040925774348    0.2492867161985842 Ni
   0.3983164376443796    0.7997772929562510    0.2484118517348023 Ni
   0.5966613002854609    0.8004063469258814    0.2496374752837698 Ni
   0.8001995874604348    0.0009865284464412    0.2501165901919981 Ni
   0.4003071321914317    0.4025124016536146    0.2494372539867595 Ni
   0.8052611023299651    0.6015613429447435    0.7482666955033038 Ni
   0.0008064361819971    0.5977702591863763    0.0005335912358861 Ni
   0.2019055814725670    0.2048032637921105    0.0010999415044244 Ni
   0.1999165255829302    0.4014090080170497    0.0021325858962320 Ni
   0.1972539075433802    0.3918654581323363    0.4994256137432431 Ni
   0.8001129378887072    0.1975370898386748    0.2500566115750710 Ni
   0.1992787904357729    0.5990505470564166    0.0018729669221066 Ni
   0.7337904958676913    0.4687949229602599    0.4489223077240770 O
   0.7284351345572166    0.2709706118901771    0.9511791867583761 O
   0.7281005707022806    0.2656297508920695    0.4487997952396636 O
   0.5326926908298624    0.8701502551344158    0.9550940677541564 O
   0.7286324259516002    0.0553795990722731    0.4523072933430011 O
   0.5262169894239136    0.8659993273142131    0.4533020096391003 O
   0.7388068806252031    0.4694587116946328    0.9512952189213519 O
   0.5344230223221250    0.6586695676576716    0.9507493312489881 O
   0.7295885402884320    0.0571680315548708    0.9538124025607880 O
   0.7335526141921255    0.6811457821013243    0.4451448377893486 O
   0.9326029328800735    0.2617063737831344    0.9491271110482919 O
   0.7400196886217341    0.8727273322730033    0.4479769445763913 O
   0.7283902182414895    0.8686173295817872    0.9536105975912462 O
   0.9242186563346914    0.0586235693984177    0.4526346724252914 O
   0.9243058764240255    0.0531863920257779    0.9513360968664368 O
   0.9352501357698348    0.2699150396999882    0.4502810689413068 O
   0.5250525948223973    0.6707116431297028    0.4520890800973173 O
   0.9415319452565114    0.4644591428257353    0.4531243500804032 O
   0.9217801083271501    0.4596163427685946    0.9516087354806479 O
   0.9261126779757000    0.6685788619224453    0.4484403467240627 O
   0.7314881738207206    0.6588915169510431    0.9508166843185234 O
   0.5410011133897242    0.4773122175088977    0.9490732061025556 O
   0.3460406495996166    0.6718723398685396    0.9547078996258967 O
   0.5333243300100113    0.2650131571564656    0.9504085138597992 O
   0.1236843797274898    0.0603696504702009    0.9514608375785244 O
   0.1368078431678919    0.2549163171849684    0.4491174008675148 O
   0.1329336686101718    0.2660343220484687    0.9497998479799454 O
   0.1228452172629608    0.4502727422617284    0.4483274266680671 O
   0.1355029972597749    0.4709717516168135    0.9487913142915001 O
   0.1263604844580032    0.6523673115982890    0.4497831919335094 O
   0.1363575436484901    0.6764885226456265    0.9498144691947314 O
   0.1258786865807482    0.8529945878838616    0.4509748706352719 O
   0.1282085600857440    0.8591683560511495    0.9489059006665034 O
   0.3343557691878169    0.0624985274820097    0.4493560400199060 O
   0.5469026586846458    0.4655920499439147    0.4457641378053874 O
   0.3430139058768097    0.0785260294968497    0.9496617536321721 O
   0.3415742228877457    0.2640626991626186    0.9487991158557093 O
   0.3414235053277678    0.4673550185796658    0.4508451705578054 O
   0.3417254899576807    0.4802563103514847    0.9511610906250325 O
   0.3174794532107198    0.6587884599632642    0.4454118465646545 O
   0.9194980541018420    0.6565133424973395    0.9481469773528116 O
   0.3313090198702712    0.8693504194270993    0.4534521568690806 O
   0.3187508538415535    0.8620403681536164    0.9435120704497941 O
   0.5416455974874353    0.0840767333688483    0.4443215931780713 O
   0.5306774003686512    0.0787180295999683    0.9480055193786623 O
   0.5436864116968144    0.2751065571977401    0.4493584751366724 O
   0.3300008452249582    0.2699593983973925    0.4528502693823966 O
   0.9268348509730249    0.8729536166414026    0.4479364276594533 O
   0.0707383474551491    0.7236908638904326    0.5520867640796364 O
   0.0584574427547234    0.1257777396852694    0.0484291816409026 O
   0.4637333789279971    0.9385083440412681    0.0457908942978303 O
   0.4733668977577099    0.9505508362793776    0.5493103245146311 O
   0.6568944423508190    0.1333384182138986    0.0476947819358295 O
   0.6609025234713880    0.1376253211593874    0.5469860656338733 O
   0.6686036812427951    0.3297739638435399    0.0488029458968242 O
   0.6620434159940648    0.3314524925027183    0.5468108679383241 O
   0.6700431353812731    0.5405671152791373    0.0482571807322574 O
   0.6741736481031849    0.5305046664087185    0.5461496635714390 O
   0.6640296807017055    0.7257595707115343    0.0491416965709086 O
   0.6685724240559591    0.7364740255271716    0.5481641167796898 O
   0.6802505976897569    0.9400819152172691    0.0567173943918219 O
   0.6676070548751757    0.9260312728647951    0.5500538935814530 O
   0.8631564295493586    0.1243179953919884    0.0500180854406888 O
   0.8564037428013165    0.1181225531277041    0.5507987921191797 O
   0.8588622975786691    0.3373611639447926    0.0509710331776939 O
   0.8764295774474121    0.3346365924823547    0.5514214172415494 O
   0.8552666218670220    0.5274315083886656    0.0489101853546478 O
   0.8795446677052881    0.5366366765317906    0.5530680220767951 O
   0.8685835575055695    0.7240964885325755    0.0480806615806752 O
   0.8653127487384703    0.7365420722737773    0.5463375314838113 O
   0.1477901298836242    0.0711632031238526    0.4499117313378995 O
   0.4509300804890794    0.7298161013660547    0.5523796064476837 O
   0.4767280733253791    0.7308972983237847    0.0507414156600557 O
   0.4664902238072042    0.5246606030912722    0.5521464608692039 O
   0.4751060408688119    0.5419046768761803    0.0487652421340223 O
   0.0697472189669921    0.1254031507759661    0.5471957377754113 O
   0.0662278651313517    0.3335140100418682    0.0548877830865617 O
   0.0599649680492283    0.3290217326786717    0.5507254556563833 O
   0.0685804772031956    0.5385486046402322    0.0547684764796659 O
   0.0746520405315632    0.5208712389631196    0.5506411428164255 O
   0.0724644956999797    0.7438518366939143    0.0477669578678960 O
   0.0600001936644737    0.9434519458542955    0.0544892654840987 O
   0.0576980367154772    0.9271565019161162    0.5467757193219230 O
   0.2804693948001127    0.1430504327162425    0.0501626631422070 O
   0.2664804247448445    0.1412819204587091    0.5523644509647876 O
   0.9399243184400475    0.8697313599355297    0.9521396870164829 O
   0.2688438698172144    0.3362091540598511    0.0520504876585019 O
   0.2844659407112353    0.5453863860828009    0.0529093480457968 O
   0.2694642833714578    0.5351074266859731    0.5476748970562249 O
   0.2707221000750537    0.7479262596491081    0.0469310763002436 O
   0.2697740720516806    0.7438802605417939    0.5513735422144848 O
   0.2678382241300489    0.9347202117463433    0.0443944294385491 O
   0.2578147231450113    0.9417399477695233    0.5552302602243290 O
   0.4739566653984562    0.1471577670614488    0.0497576765354901 O
   0.4745228700640057    0.1389680661878113    0.5456104622055280 O
   0.4650766859192896    0.3287643623184232    0.0497389183769567 O
   0.4789662353776101    0.3442704021822026    0.5463497937679419 O
   0.2556261381318888    0.3187796984147421    0.5526597297427590 O
   0.9267966735879054    0.8697589926739939    0.7995384942892627 O
   0.8532490407737713    0.9283581582091963    0.5514121614340833 O
   0.9401163826210952    0.6646837953496302    0.7993707611622100 O
   0.4724584445140589    0.5426696661947397    0.7044143030002696 O
   0.4662305530733397    0.7345092789336602    0.1979715520679575 O
   0.4621910865780647    0.7311670213395332    0.7042083313630997 O
   0.4741139883212864    0.9423601753275148    0.2014721167314474 O
   0.4711590738589845    0.9458383776450519    0.6997740707909530 O
   0.6592674478459223    0.1322658085227113    0.2009710756863325 O
   0.6695027353327732    0.1479958851771347    0.6980652571596313 O
   0.6549230918512251    0.3235469765907438    0.1988813559040568 O
   0.6618785255829212    0.3331285173527464    0.6967064168941669 O
   0.6668276137227985    0.5425716072157104    0.1955289526125757 O
   0.6701203464739292    0.5223780565515722    0.6956770787733882 O
   0.6735466659637482    0.7324248482187257    0.2011509064879567 O
   0.6749179262291570    0.7294760804949847    0.6992194186268937 O
   0.6620397401847126    0.9409175147846010    0.2010527493087358 O
   0.6520093104661004    0.9234749863308168    0.7031334294142779 O
   0.8773090131446706    0.1395236233580480    0.1999484948418811 O
   0.8501328359967637    0.1310695957729318    0.6984378693520105 O
   0.8741707716932248    0.3396644052790511    0.2031620879534447 O
   0.8787224167328840    0.3475518576467638    0.7011742781885180 O
   0.8721914479407494    0.5280949263337872    0.2010568052123295 O
   0.8798245854144863    0.5349488190666755    0.7023051256214484 O
   0.4774239731858269    0.5378030180381054    0.1997132508990677 O
   0.4772159665831317    0.3395679627920676    0.6998544046941209 O
   0.4700180650755438    0.3294393603191084    0.2022834106619155 O
   0.4567013477869377    0.1412549349063855    0.6939600217434779 O
   0.8682495498892544    0.9381307385294581    0.0493560651885946 O
   0.0630844837026990    0.1383262486350618    0.1992681851784105 O
   0.0476393013939978    0.1207359109035627    0.6997089160388136 O
   0.0649928518073750    0.3323704147573875    0.2035503038171629 O
   0.0733473504771143    0.3227507038411380    0.7008630201015404 O
   0.0633022319451715    0.5254394660228314    0.2058200892465833 O
   0.0654544181744940    0.5335129082327164    0.7030323548921841 O
   0.0691701261255040    0.7443764167930473    0.1978327784983232 O
   0.0734946840384489    0.7292595022152858    0.7010953980072209 O
   0.0666510558442090    0.9282049831098679    0.2024247564664527 O
   0.8747875617912033    0.7412350054494491    0.2004630749594274 O
   0.0610012819258558    0.9395085030774217    0.7024251420122440 O
   0.2554258086652517    0.1336847512752844    0.7007613041281012 O
   0.2625987848207509    0.3400694470002937    0.2002313240659871 O
   0.2629421802340988    0.3288716049721002    0.7020187006573094 O
   0.2571743466209478    0.5229372802191594    0.2019721860173334 O
   0.2581300622815263    0.5157520694667049    0.6981276978918537 O
   0.2625148290983094    0.7481441946153057    0.1954347736063377 O
   0.2691798684360865    0.7361608672791132    0.7025083704951932 O
   0.2547111440085607    0.9292483900067851    0.1998912942633940 O
   0.2683565044663732    0.9208427271865227    0.6998755001420193 O
   0.4702689187350554    0.1393638190487406    0.2009965099331231 O
   0.2819591585051960    0.1462419271577292    0.1964164692543829 O
   0.9297700076207621    0.8569385061969047    0.2978609707608541 O
   0.8645590820453002    0.7383548533209250    0.6991892645544686 O
   0.8653372785635812    0.9270824041130653    0.7022749629328267 O
   0.5373593262542088    0.6603956728588589    0.2990642936511362 O
   0.5391395358602943    0.6767524757589068    0.8055567238063478 O
   0.5367370251915009    0.8785649999871257    0.3012393263099992 O
   0.5139351515410231    0.8605520915334059    0.8064962058782215 O
   0.7257085576944806    0.0637785250834944    0.3005996498611607 O
   0.7160856957349203    0.0565405680271579    0.8037132632498452 O
   0.7257992993875088    0.2675769416196003    0.2968124631672882 O
   0.7494552405021471    0.2762571950391859    0.8004614300359237 O
   0.7311171062094181    0.4609393412877467    0.2966023767854628 O
   0.7325401228493257    0.4602764150834787    0.7963403535323915 O
   0.7323048412842457    0.6706992430046769    0.2968069982465384 O
   0.7364743890460347    0.6723441369964358    0.7984122809610595 O
   0.7398237029016042    0.8621318023044032    0.2992806099052100 O
   0.7311877902440419    0.8578438873234936    0.7985527673400193 O
   0.9404964522966829    0.0786746295038904    0.3006490626967631 O
   0.9315469578920446    0.0663436224219933    0.7996980862062282 O
   0.9392725718472122    0.2667689496239717    0.2991732531038370 O
   0.9349954082517653    0.2637351112428413    0.7976412883082119 O
   0.9416086654523327    0.4562532796799134    0.3068066335930312 O
   0.9486782168172091    0.4846146012686400    0.8056985848340595 O
   0.9395210208373180    0.6692970678196358    0.2964022424448662 O
   0.5489512702677212    0.4720375657776122    0.7972007815666561 O
   0.5459562444047396    0.4754725534928888    0.2967073492778380 O
   0.5473365550462050    0.2763337301905417    0.7981266393729364 O
   0.5275104551543465    0.2531932653585220    0.3000166990098103 O
   0.1386091408512163    0.0637721297306214    0.3001514951806736 O
   0.1172008669473966    0.0688731458382519    0.8017004760674371 O
   0.1304735105248108    0.2672755242183384    0.2977066273706645 O
   0.1458950927518235    0.2714466144235398    0.8019650871220091 O
   0.1261023739311555    0.4500203324816562    0.3014477295764503 O
   0.1307044308135210    0.4523329124448389    0.7979299942938790 O
   0.1335983970998904    0.6718912553892694    0.2947801568543722 O
   0.1325440949653122    0.6708477468738513    0.7995341480925622 O
   0.1238918005003403    0.8536207247759852    0.3003000270448974 O
   0.1387915488354263    0.8639497751134444    0.7975080096616581 O
   0.8614721076125876    0.9231443079478334    0.2005347084889260 O
   0.3327126967057080    0.0712797308434589    0.2960875373608689 O
   0.3416435465652747    0.2637898659128510    0.3002312187654297 O
   0.3458803499602924    0.2645470257655600    0.8031038167184730 O
   0.3218688937787746    0.4589087908290515    0.3005623341462046 O
   0.3269487163883131    0.4620163340244589    0.7993706462928520 O
   0.3277456810770992    0.6653169401104531    0.2993017361851349 O
   0.3300321770656247    0.6514130453566167    0.8034311890099772 O
   0.3191496729681675    0.8633798658801644    0.2996287990501468 O
   0.3225548751912298    0.8546106043435863    0.8012126517527712 O
   0.5437324346830649    0.0741559860436380    0.2993141237014511 O
   0.5311766788016812    0.0743069987830261    0.7965003486627045 O
   0.3337390637835146    0.0637910963540356    0.7972045922869109 O
   0.7927608097389097    0.7988142573475800    0.4949399564264939 Ti
