Na100 Mg1 Ti1 Mn66 Nb1 Co12 Cu1 Ni17 Mo1 O200
1.0
   7.6180032420864299  -13.2278432253098170    0.0085776423028407
   7.5821385434666633   13.2071558070785411    0.0006731529836102
   0.0133665592433801   -0.0066009219704911   21.6917209267052513
Co Cu Mg Mn Mo Na Nb Ni O Ti
12 1 1 66 1 100 1 17 200 1
direct
   0.7975067048694040    0.3940032346015210    0.7473367808311226 Co
   0.4066025241214556    0.6046703416750362    0.2519865698387441 Co
   0.4064590351681254    0.4064109003404034    0.5003071571790756 Co
   0.2028052075152569    0.7969951915319200    0.2508135842790972 Co
   0.1947279710315225    0.4073837953873028   -0.0026295135547850 Co
   0.4010279559124751    0.8062384385254122    0.7501142298207997 Co
   0.6087241896454793   -0.0011294006905991    0.2517471293465589 Co
   0.5944607626870738    0.1924043164379813    0.0002884973434390 Co
  -0.0015307985594436    0.7943187529144029    0.5036351818868604 Co
   0.8138959683818113    0.2049663281854200    0.5000741990347641 Co
   0.0062378920349125    0.1977615319036021    0.2470700859499590 Co
   0.1996994514086178    0.8034744732695990    0.5037687796916864 Co
   0.6034932381798476    0.8033232737071234    0.5004090176264722 Cu
   0.5924379104296201    0.5978928028001336   -0.0008965303098354 Mg
   0.6000674019829301    0.6021271563125897    0.7495696102747312 Mn
   0.3965599810921551    0.4080569125349703    0.7491428235890923 Mn
   0.6008978569165663    0.8006958663936333    0.7479284447994741 Mn
   0.5932054837400980    0.1998158378830149    0.7497397990565644 Mn
   0.5980550516898432    0.0002712535012546    0.7502887388012326 Mn
   0.8080464767961993    0.0021214633433115    0.2497026127769154 Mn
   0.7983016535641293   -0.0059900307700120    0.7482175463154490 Mn
   0.8091635208237095    0.2024937118319335    0.2471054419409962 Mn
   0.4068197325421719    0.8016009631885731    0.2522502929811063 Mn
   0.7961750729678395    0.1953171815853681    0.7502228936915869 Mn
   0.6073680071087367    0.8044093288743956    0.2535797599474565 Mn
   0.7985070262652146    0.7980936648569675    0.5018106039540949 Mn
   0.3934090374760550    0.2074142020517289    0.7511385531575233 Mn
  -0.0026154349795202   -0.0051271906261462    0.7479406301928989 Mn
   0.0041918045846471    0.4043184154186534    0.2499679625384901 Mn
   0.0068816225419468    0.6011902802713657    0.2519452881122466 Mn
  -0.0023069764047372    0.5924279598468331    0.7495526192553149 Mn
   0.0041135453324957    0.7957328617780068    0.2508315533325709 Mn
  -0.0028140756677024    0.7925958258905951    0.7514739556890472 Mn
   0.1996710914434134   -0.0049287719887229    0.2502446113411270 Mn
   0.3953647031109682    0.4010262836697658    0.2505082781538269 Mn
   0.1948980228333373    0.0017376451915601    0.7521879198996623 Mn
   0.2016619794876382    0.4017393984940827    0.2500056550666682 Mn
   0.1993266613265301    0.4057546002752626    0.7476866613668658 Mn
   0.2076107657972943    0.6029784423155836    0.2519027168592334 Mn
   0.2017458958159671    0.6053191964545483    0.7489522203467701 Mn
   0.3980032443164607   -0.0080053607912873    0.2499705758948950 Mn
   0.8008328282489851    0.4030666182723465    0.2483243412045594 Mn
   0.3937177961142216    0.1979256206876541    0.2519579355857267 Mn
   0.1947326828824371    0.2046326966271432    0.7505485005484730 Mn
   0.3967794877012564    0.0037827791593030    0.7507127730683655 Mn
   0.8019895028134207    0.6001751391735957    0.2467651791371714 Mn
   0.7965061154480979    0.5914139762135195    0.7508750618112132 Mn
   0.3901097441815781    0.3972790584123711   -0.0007782384418531 Mn
   0.3986585469255535    0.5999912950546089   -0.0008201578274869 Mn
   0.4020339861330298    0.7966669505519010    0.0026613396958882 Mn
   0.4044540412565721    0.8115979761510297    0.5034073947446117 Mn
   0.5979659905991926   -0.0033536027718575    0.0000840306274436 Mn
   0.6070473461884804    0.0089111955826424    0.5001406017903662 Mn
   0.4032835568201413    0.2028863672119844    0.5011822559964626 Mn
   0.6091055556866593    0.2049568552455228    0.5001474115953441 Mn
   0.7956441461638751   -0.0036336785119471   -0.0038377998279141 Mn
   0.8021241397591325    0.0018179027370175    0.4996961991104029 Mn
   0.7962510472298581    0.3900440919799632   -0.0018341973727981 Mn
   0.8068085572821836    0.4007394801083338    0.4991215366402372 Mn
   0.8016624058091595    0.5976701087949535    0.5006336441748301 Mn
   0.7964789904220443    0.7969576920355828   -0.0006770524851358 Mn
   0.5878152377575313    0.3904142176940196   -0.0001249262062034 Mn
   0.3916550328569436    0.1952592472142546    0.0030344532559396 Mn
   0.4072561007061027    0.6078126726833435    0.5013957596932975 Mn
   0.3955572658720114   -0.0053805053347444    0.0015138955253280 Mn
   0.8033270084663480    0.7983611646299571    0.2498530729349237 Mn
  -0.0040757016950268   -0.0010883748689409   -0.0001369885058545 Mn
  -0.0012175903159920   -0.0035191088230898    0.5006597330004172 Mn
   0.3983074955865981    0.0046850621898195    0.5022792073212043 Mn
  -0.0023810921638272    0.3993066697864171    0.0011510551048723 Mn
   0.0081284512909333    0.3994668556460606    0.5002856220511367 Mn
   0.0008348305608867    0.7978637195609967   -0.0020234329624758 Mn
  -0.0029921361812793    0.2036682329169507   -0.0016239449953594 Mn
   0.1953822215880690   -0.0033367383033830    0.4998009324096981 Mn
   0.1918419113709469    0.2058818711762643   -0.0010313074785431 Mn
   0.2025906256609640    0.1992094427145780    0.4974223237655421 Mn
   0.2048396257153011    0.4027739708893686    0.4994107553962295 Mn
   0.2081512281243068    0.6075345425952691    0.5018620095166488 Mn
   0.2008952024715791    0.7992603069907995   -0.0003682474589768 Mn
   0.1957141068954419    0.0033275276433172    0.0008365719416099 Mn
   0.7967047683106036    0.5925588132188845   -0.0045269245068426 Mo
   0.8612485380711470    0.3276680360749897    0.8725533990254263 Na
   0.8735958532799292    0.5363740878359542    0.3768114665991510 Na
   0.8627535398253180    0.5203166434495597    0.8711874339187359 Na
   0.8597368966517877    0.9228969970634886    0.8720000012063065 Na
   0.8602652885606206    0.7252089259505752    0.8695635023717483 Na
   0.8692552400733018    0.9329582821656949    0.3747102502194496 Na
   0.8759645313324147    0.3390427905508193    0.3754745705185588 Na
   0.8715035579769888    0.7322838551947447    0.3771845434122771 Na
   0.8575763068935570    0.1277701376372956    0.8750241862434407 Na
   0.1328845374562069    0.0681124082391780    0.1281234711331523 Na
   0.6607352690540493    0.9323393961710079    0.8746562752666114 Na
   0.5386654857374968    0.6698604923318289    0.6236335627729401 Na
   0.5397793767181350    0.8634907647618852    0.1252687449529372 Na
   0.5380480796876614    0.8716298731126284    0.6245148785529625 Na
   0.7369233221335447    0.0657079591368160    0.1232996234111787 Na
   0.7375529731771577    0.0682928505209097    0.6242715812829066 Na
   0.7316350480158039    0.2617554875051425    0.1182011178463628 Na
   0.7367076934344244    0.2641534804848253    0.6254170176046566 Na
   0.7263920094543835    0.4583262039737847    0.1233608197156724 Na
   0.7329968703762970    0.4606063903062284    0.6261487354281370 Na
   0.7272813039137217    0.6605705496854966    0.1259760632342431 Na
   0.7354300131391658    0.6613232787888519    0.6250095213131410 Na
   0.7357429775790905    0.8664348330836892    0.1230639089159695 Na
   0.7333886644732982    0.8612288908359798    0.6249352482929632 Na
   0.9370272392505994    0.0624191628604982    0.1241249213184079 Na
   0.9357236344137311    0.0635799436740075    0.6239122457176878 Na
   0.9339587506488466    0.2629184892703887    0.1237152961931400 Na
   0.9386204288261386    0.2625174283008484    0.6267708967146014 Na
   0.9301057707399916    0.4620208673346438    0.1230432622413528 Na
   0.9394106118985979    0.4632953559751164    0.6246386583477173 Na
   0.9355878224651559    0.6574433725959929    0.1242772308602590 Na
   0.9349610124481510    0.6583331896050951    0.6239041299812258 Na
   0.5339766317875880    0.6637369321055105    0.1280558815973348 Na
   0.5348481672730657    0.4684628277266517    0.6220598444677051 Na
   0.5226295890336818    0.4594019258993161    0.1217390089068297 Na
   0.5322130334428876    0.2669307079622852    0.6252629988720284 Na
   0.8806608180268389    0.1392816889945745    0.3759683458505325 Na
   0.1342758083539421    0.0672706608690061    0.6243584077976463 Na
   0.1305830574051166    0.2719194247364939    0.1254197755427832 Na
   0.1349624085839215    0.2681070794549262    0.6232725989711037 Na
   0.1361750751323982    0.4726671802332625    0.1229541342527047 Na
   0.1349306745276401    0.6641511300086306    0.1226104328043552 Na
   0.1378529232581548    0.6696915347613256    0.6247262177540905 Na
   0.1341572920668846    0.8638488668648887    0.1249130797224190 Na
   0.1286058502676095    0.8638320164034313    0.6267136142965651 Na
   0.3307881254735527    0.0599306493971477    0.1254150547622343 Na
   0.9347627548676464    0.8600155761237581    0.1272921574142075 Na
   0.3297197373511513    0.0722652247006046    0.6273075495974830 Na
   0.3325183844910916    0.2768539863861638    0.6226935729875785 Na
   0.3301898035067455    0.4681734201721020    0.1244456506110630 Na
   0.3362556969779118    0.4795966928781804    0.6241237930884361 Na
   0.3359728086047306    0.6649691051306156    0.1256114464228500 Na
   0.3422174509349512    0.6804653591613272    0.6278312140092783 Na
   0.3321239764297802    0.8600525341035145    0.1274716671543902 Na
   0.3318103807204022    0.8732282532631920    0.6301283346967094 Na
   0.5323909274776627    0.0560754506778977    0.1234799341647207 Na
   0.5340835631166455    0.0693017493036453    0.6258914886835867 Na
   0.5260865131000040    0.2551932079338826    0.1211176529355120 Na
   0.3229006731573552    0.2613542898016347    0.1274849850725446 Na
   0.9305694772096378    0.8568433589180144    0.6254322480726978 Na
   0.1371357185255481    0.4696550971502154    0.6260638628625025 Na
   0.0550794857142565    0.1309377109026225    0.8728888034827029 Na
   0.2760091043005191    0.5430060719669639    0.3747515610545361 Na
   0.2619819029482516    0.5405878864567196    0.8757167854667086 Na
   0.6702949782157172    0.3424351816115355    0.3803597547380406 Na
   0.6574006157163013    0.1332976281376767    0.8760361201363694 Na
   0.2753165650545781    0.7426922137420074    0.3769505775832877 Na
   0.2655295461048472    0.7400812225907922    0.8726826712323930 Na
   0.2671694816414102    0.9355081078723063    0.3771553135430357 Na
   0.2576156048678322    0.9354663513821700    0.8734781438453781 Na
   0.4719672371002251    0.1350270717337115    0.3787894557366751 Na
   0.4550010403392049    0.1342042075673645    0.8766673674857745 Na
   0.4688806329531145    0.3352910224261142    0.3792373687429211 Na
   0.4538670733299309    0.3335059078412201    0.8745310224477616 Na
   0.4696994713166642    0.5355724990983869    0.3756654913076597 Na
   0.4590678952118221    0.5368125164269454    0.8729514379475347 Na
   0.4752924252063098    0.7424782552511298    0.3783788318956564 Na
   0.4655699145009006    0.7367059534471199    0.8723545917910793 Na
   0.4756593494835035    0.9427457317354230    0.3755623930950520 Na
   0.4616612407561440    0.9346856747058012    0.8742901242877537 Na
   0.2703445979051471    0.3357334250339136    0.3759511208620981 Na
   0.2553517310653380    0.3413200249229250    0.8755677898448673 Na
   0.2688207577630266    0.1340341414940914    0.3737409094678809 Na
   0.0733668925234559    0.3333518204766379    0.3747092633112339 Na
   0.0592750501112387    0.3336567269404517    0.8704882151633780 Na
   0.0722949102309229    0.1306989255137831    0.3704406023797793 Na
   0.6616100188432564    0.7345048977121638    0.8757804276713932 Na
   0.6687708242514243    0.7360371463887256    0.3796211038139415 Na
   0.0759344823319992    0.5357320638455462    0.3780642007886899 Na
   0.6540029272509706    0.5271688553933490    0.8705579761298835 Na
   0.2546364922914854    0.1396100989398276    0.8759169416091235 Na
   0.6862188406321610    0.1437457518754939    0.3791679148352341 Na
   0.0744499326348801    0.7334673005817345    0.3808532556295796 Na
   0.6687904137882792    0.5399808469999845    0.3794531735911253 Na
   0.0616998701314161    0.7265493717483383    0.8744265737102432 Na
   0.0654861428972352    0.9284632585783668    0.3748567530239416 Na
   0.6738428289569258    0.9416776004357098    0.3769266962636063 Na
   0.6579905197717713    0.3313307515687812    0.8709750042293116 Na
   0.0584578439502592    0.9309605575307918    0.8754379669336394 Na
   0.0639426956833089    0.5319895396136877    0.8750222468533310 Na
   0.6015322511305389    0.1998361458274666    0.2521092635597962 Nb
   0.7950975653712693    0.1958399873571136   -0.0013088075697292 Ni
   0.5982653002266577    0.7956388306346430   -0.0005172253216389 Ni
   0.6013225619885484    0.5996019084578205    0.5008206750730161 Ni
   0.0054225354416027    0.0006951781884140    0.2496565471122706 Ni
  -0.0027305189807581    0.3949815396840396    0.7487203037241211 Ni
  -0.0037505046639344    0.1974632755511883    0.7502631116801122 Ni
   0.6008418948998783    0.6033434993961478    0.2509493894285105 Ni
   0.1969321118642148    0.1987441736583812    0.2491367491195009 Ni
   0.1969849337604442    0.8003446178485570    0.7521611297236673 Ni
   0.1994316189198812    0.6008576348973406    0.0000213754100640 Ni
   0.3998944152994249    0.6081765703276745    0.7479316015748501 Ni
   0.0056858548207142    0.6011578786593917    0.5011046714501378 Ni
   0.0031193709271932    0.5964745573011041   -0.0029627816946426 Ni
   0.0050001875848219    0.1982079186406128    0.4991410872981494 Ni
   0.7980462323381299    0.7938739078700535    0.7483841468443743 Ni
   0.5941673674150912    0.3987285356092491    0.7504281777980660 Ni
   0.6024080258316490    0.4038282683484223    0.5000100016449629 Ni
   0.7397503967695261    0.4794934432848093    0.4472720036812794 O
   0.7308808221062439    0.2701704237903286    0.9477276984663903 O
   0.7485658489461831    0.2806844189551504    0.4474536391159049 O
   0.5235742551166819    0.6609788524088392    0.9488834876722592 O
   0.7512972936872447    0.0710982139897496    0.4480967750323746 O
   0.5285192566044359    0.8682589807035674    0.9524540373529036 O
   0.5305333044023637    0.8798239482159951    0.4537134870452110 O
   0.7329336745128614    0.4768940399081512    0.9424561808269810 O
   0.7160068583290103    0.0619760241572476    0.9470802061585223 O
   0.7441442229916424    0.6692473625984813    0.4528342497150095 O
   0.9230214727403222    0.0499728549918537    0.9480561374082694 O
   0.7327280160357167    0.8756817394964473    0.4497984283557463 O
   0.7308741192865357    0.8716117530740738    0.9467418320431711 O
   0.9299111067411082    0.0568915625384063    0.4521347465741976 O
   0.9478762644446400    0.2776342305904251    0.4495106445958842 O
   0.9350624810235522    0.2698338645843970    0.9512935441109465 O
   0.9417308847389889    0.4618806450461246    0.4534803013680093 O
   0.9274698526299964    0.4541619299493779    0.9509514444877412 O
   0.9290908585207593    0.6620017003878031    0.4516105393815388 O
   0.9243729105859502    0.6537628498330239    0.9438878348366893 O
   0.5266839859431600    0.6645584165647630    0.4498055122875497 O
   0.7333262989280637    0.6650831103451220    0.9496710406946939 O
   0.5217211847497565    0.4539175874514674    0.9527750766764258 O
   0.1405511577958304    0.2560541940156766    0.4462859000339113 O
   0.5195747579390759    0.2636336761490723    0.9521041323134871 O
   0.1215197487503057    0.0748458287503759    0.9501479620201886 O
   0.1182980638904927    0.2690430548042095    0.9467813089974062 O
   0.1350281329419463    0.4595908196854295    0.4499497302040648 O
   0.1192179392138966    0.4646151736855343    0.9487406896520936 O
   0.1455161022620513    0.6672205305267322    0.4520159841195897 O
   0.1388698961309286    0.6765091041482453    0.9487561925307219 O
   0.1333225778498553    0.8678596684358163    0.4510056410414123 O
   0.1267782318535707    0.8769482917454682    0.9503970141881801 O
   0.3458060202251350    0.0767656453700553    0.4508366521791733 O
   0.3216218197558625    0.0720610103964483    0.9499729367851713 O
   0.3382105008439510    0.2621807120224096    0.4510637285006993 O
   0.3180236713580588    0.2714924228837339    0.9490738093673332 O
   0.3347426343268209    0.4802080412234186    0.4517234361727074 O
   0.3305635887515279    0.4796109148563758    0.9463366554495535 O
   0.3423009196125655    0.6755775519770774    0.4540332363462126 O
   0.3431921113579358    0.6713718071152499    0.9520152996432414 O
   0.3375967043941887    0.8831925236408978    0.4504162550823940 O
   0.3267892833121238    0.8723123762269847    0.9492629296496897 O
   0.5516238577710175    0.0800168814272010    0.4507877290933042 O
   0.5257554252239426    0.0533386104743851    0.9534324727688094 O
   0.5306340477563002    0.2615699682392558    0.4539069697002744 O
   0.5325095695012803    0.4675690695701953    0.4494248287235315 O
   0.9264222805471504    0.8660127463793108    0.4531064809577308 O
   0.4672017650949005    0.7188864233699538    0.0528905559068453 O
   0.0678975588694021    0.1486693675261802    0.0493461556414807 O
   0.4734313055648499    0.9234965671021760    0.0523331279840800 O
   0.4597599475575677    0.9396062060489480    0.5525984318106967 O
   0.6598889211255489    0.1200050734986378    0.0502126814038382 O
   0.6679188406279255    0.1352242897151202    0.5498587160089499 O
   0.6654668742678730    0.3356620391491067    0.0453889684157349 O
   0.6761209093172946    0.3301365674827241    0.5479908228833458 O
   0.6632575295808520    0.5241169656962533    0.0473709809507004 O
   0.6768217676030108    0.5346365133146017    0.5506818637590025 O
   0.6748285573363662    0.7334791998680434    0.0502736880808496 O
   0.6761424307793552    0.7349352726149193    0.5504450534755355 O
   0.6681229968051362    0.9389855686179397    0.0472853521003616 O
   0.6745377211873506    0.9469320285615331    0.5475414752118075 O
   0.8666190694392858    0.1242595705268547    0.0452961531492962 O
   0.8693512053070837    0.1246560715877356    0.5504683981009184 O
   0.8726929880602194    0.3307865877826199    0.0515170086886257 O
   0.8886175656437847    0.3374885152669037    0.5519950547888923 O
   0.8563378912544861    0.5220745785532627    0.0467624203405757 O
   0.8604995062784474    0.5274905894568013    0.5473493765722622 O
   0.8673372478156203    0.7135975760904529    0.0481712092888660 O
   0.1392381215518658    0.0576342633024112    0.4457761686873312 O
   0.8659317473914770    0.7191900638685679    0.5531685693635502 O
   0.4736703855706688    0.7331762968787640    0.5497256921994503 O
   0.4641249423329300    0.5423252010213548    0.5507471626954280 O
   0.4545078392370438    0.5271293223154082    0.0469152847189136 O
   0.4638357806931164    0.3244059821458662    0.5515882620284552 O
   0.0723030213669689    0.1282584213119183    0.5479977973719806 O
   0.0621144561223705    0.3440916035695124    0.0517001455281667 O
   0.0754881561751412    0.3401983590277494    0.5480284065068795 O
   0.0592763486910318    0.5252512927035806    0.0491031019128204 O
   0.0762383220554656    0.5289166049326166    0.5486479066665739 O
   0.0682738649547749    0.7383961482655348    0.0466875143578386 O
   0.0710327710473111    0.7321102796721618    0.5536027062487066 O
   0.0686521098389658    0.9453480707272210    0.0510099166697496 O
   0.0556072459273497    0.9328511828317457    0.5525086160732131 O
   0.2639423681217586    0.1261082723731945    0.0516373959976194 O
   0.9244149800947269    0.8484634875192832    0.9499397616349312 O
   0.2703866034190958    0.1389210250996344    0.5462133409206699 O
   0.2670311015115072    0.3435432485485003    0.5499187389007000 O
   0.2735393018635102    0.5381439704544533    0.0487750342297296 O
   0.2791385794930845    0.5527731539908680    0.5502927447794007 O
   0.2770450821732445    0.7354634657674485    0.0516828117212747 O
   0.2815263859098287    0.7496602466271501    0.5531384211482018 O
   0.2676714169703820    0.9248026804341171    0.0507367653094295 O
   0.2553952560906691    0.9394215280339657    0.5538735043636774 O
   0.4595453445594745    0.1156305282899849    0.0528022764555434 O
   0.4571919201179305    0.1326705607395686    0.5516375936578668 O
   0.4519991342321830    0.3150473316232608    0.0559609653954021 O
   0.2635106887663559    0.3323596526457906    0.0485748241369221 O
   0.9363699510639846    0.8663464987811340    0.7966394379613837 O
   0.8778427683868857    0.5284765369377622    0.6972052785960274 O
   0.9267934645381559    0.6466636180225057    0.7997573733005409 O
   0.4641351868598831    0.5281414903848468    0.2022198515165451 O
   0.4708169275116938    0.5330303641511397    0.7002461974518476 O
   0.4825662152227478    0.7459495149653506    0.2037100201123612 O
   0.4777448222637264    0.7423106262575342    0.6992528277190729 O
   0.4658695815961775    0.9304986826781427    0.2031079668769966 O
   0.4755515152893272    0.9386870913228476    0.6983825751784551 O
   0.6731774939687961    0.1411177292851215    0.2013430576861180 O
   0.6706713229872284    0.1263529500862343    0.7000132806186772 O
   0.6512465006442871    0.3237822221282498    0.1962492302505698 O
   0.6556930717389544    0.3216312845201520    0.6989767543204359 O
   0.6543766158080317    0.5202373350181769    0.1944451925082319 O
   0.6645945975531973    0.5367440790094280    0.7032055384852141 O
   0.6711445791337250    0.7421186634803578    0.2032820272502508 O
   0.6643746128802294    0.7190617506763349    0.6974641515556986 O
   0.6767083339665256    0.9319052194406459    0.2017916879229216 O
   0.6742625939213277    0.9277110662110333    0.6975674214409335 O
   0.8677058825132636    0.1205004480889527    0.1958664013233364 O
   0.8569699281578756    0.1267669492035407    0.7033546921820618 O
   0.8554875130377907    0.3286208639537129    0.1987838063018295 O
   0.8605472433804583    0.3162796371414665    0.6994254246673656 O
   0.8558859754616724    0.5246822683574683    0.1979552072967352 O
   0.4549554663451567    0.3378716460983375    0.7025775999703954 O
   0.8614444808014838    0.7173202585521640    0.1931381002987038 O
   0.4680356132551390    0.3369876396929570    0.2024258631355620 O
   0.4729333584152658    0.1234900383787950    0.2013088050248826 O
   0.8711199235127201    0.9223731165115201    0.0509749102258620 O
   0.0681324273691015    0.1318011015083122    0.1971761169709542 O
   0.0650448381060811    0.1254648523772453    0.7017001070920550 O
   0.0746264973145188    0.3467626365487728    0.2016975837289521 O
   0.0736312204458528    0.3355070141290571    0.6991721085135941 O
   0.0568011108736563    0.5282920191328669    0.1993847173717749 O
   0.0709838295411991    0.5411612796338107    0.7007510173879747 O
   0.0620691412988722    0.7256531814799710    0.2006551303292695 O
   0.0576623037342550    0.7244413546595985    0.7034497486022672 O
   0.0732479598307453    0.9265766713941390    0.2024989304934733 O
   0.0700389344246507    0.9416213031079541    0.6999231166319033 O
   0.2630654156880892    0.1218343645476333    0.1998417067510713 O
   0.2674496448904781    0.1515676698559416    0.7002512083680335 O
   0.2576035477016173    0.3387044460822960    0.1975152395510271 O
   0.2729086743207584    0.3526197874482305    0.6980381529673086 O
   0.2636139176367909    0.5316940722613059    0.2020054433759055 O
   0.2649533357305163    0.5498158143796469    0.6973854229557150 O
   0.2629818235335759    0.7224966847468272    0.1982333040432676 O
   0.2610960678774208    0.7308377391581318    0.7019469548138858 O
   0.2598798735830135    0.9315737816711042    0.1986373689920585 O
   0.2648417804340140    0.9443491794212830    0.7035804904188661 O
   0.4647519657262655    0.1297717663548149    0.6995143832250654 O
   0.9315694865338410    0.8544604367367439    0.2971154577545443 O
   0.8682585756248760    0.7219389582538603    0.7039004929197474 O
   0.8792781240338182    0.9318903107276243    0.6961898765224912 O
   0.5469714192823827    0.6806921219271473    0.3022502331567851 O
   0.5391487332783251    0.6702199817941265    0.7965415917041365 O
   0.5504098905866794    0.8691254418432646    0.3033798380227564 O
   0.5348122165695092    0.8785089254741213    0.8025015662374699 O
   0.7519607928602305    0.0752776638717996    0.2968472804804776 O
   0.7258332854484867    0.0702476964140384    0.8007955789471320 O
   0.7322306915840434    0.2794367461611561    0.3013301369928132 O
   0.7274345073724132    0.2564441444170537    0.7966681164072948 O
   0.7328253921225523    0.4676941804205088    0.2946253048239233 O
   0.7306137749507350    0.4674765792565068    0.7990763268696086 O
   0.7426922655235034    0.6680251268788037    0.2970004063054601 O
   0.7179199500500799    0.6612974543981712    0.8022771256643922 O
   0.7345002411205934    0.8752570401639848    0.3010453185288835 O
   0.7293758081397117    0.8668439394653460    0.7966151807489373 O
   0.9286555628335962    0.0609647108496233    0.3002041039254238 O
   0.9267838507073526    0.0508290294957765    0.7967049589152222 O
   0.9336174591316587    0.2735778798161331    0.2961922432615485 O
   0.9189394317765210    0.2563479435417683    0.8003922990971377 O
   0.9460961038225006    0.4732421984685943    0.3017128837616697 O
   0.9387521923338477    0.4692389110904606    0.7984983858432614 O
   0.9480910276745047    0.6693439042653897    0.3016860555057841 O
   0.5219566328615488    0.4723809263774535    0.7986236013857443 O
   0.8629312357103841    0.9292876282391306    0.2028400737110588 O
   0.5449436600912015    0.4656517088522771    0.3041141462086990 O
   0.5372738144657999    0.2668075184552525    0.3017257510723531 O
   0.1403398174044957    0.0601819640899320    0.2993931877606713 O
   0.1210683322641894    0.0553608865727704    0.8004770821165219 O
   0.1379907380709618    0.2772202833313730    0.2988680656659615 O
   0.1285738503796533    0.2586369071035937    0.8009303702886632 O
   0.1486070638499936    0.4727505836222445    0.3013697760184944 O
   0.1412794652965856    0.4737238222323081    0.7965710464756911 O
   0.1471818419158789    0.6651592401846559    0.3036322336776766 O
   0.1270482542833603    0.6569008251760577    0.7986247856328397 O
   0.1438219074086149    0.8746879209114843    0.3020901876860531 O
   0.1178280813599362    0.8548281505204424    0.8029002014028043 O
   0.5155586484210396    0.2666439310310866    0.8024457984556466 O
   0.3307384919752701    0.0565710878316547    0.2978700548952913 O
   0.3361310776150744    0.2774798440759428    0.3012747469969315 O
   0.3245747642615067    0.2840858900552234    0.7997047052888362 O
   0.3282724820825576    0.4620029033955470    0.2993839305798018 O
   0.3309307654171424    0.4695275944733224    0.7959427290444328 O
   0.3493042649317223    0.6809092892887987    0.3033449373976291 O
   0.3232214512474288    0.6681270329873242    0.7999920222938256 O
   0.3461004731968241    0.8719306128955754    0.3010342876190844 O
   0.3341431090049802    0.8809505826576806    0.8008157327840637 O
   0.5500558833044856    0.0813115253014211    0.3075304951984230 O
   0.5234150361311303    0.0760993396504419    0.8014075287944975 O
   0.3199288692011065    0.0791472671053680    0.8011250287448420 O
   0.8538302583391197    0.9293354658552581    0.5501014705303400 O
   0.5954821467728640    0.4105805329675145    0.2479010121447587 Ti
