Ta29 Ti29 Nb29 Si288 Mo29 W28
1.0
   9.5309013763363026  -16.5085649161320802   -0.0006611297778529
   9.5352617805900302   16.5110823610825221   -0.0002522266560510
  -0.0009390415491436    0.0002428321662466   19.6137101729352104
Mo Nb Si Ta Ti W
29 29 288 29 29 28
direct
   0.6261573018448150    0.0040768714326094    0.4984034894386908 Mo
   0.2491316296700610    0.8751389782133219    0.0621770432596320 Mo
   0.8742112394924946    0.0008044572571021    0.8320710586340823 Mo
   0.2468556120032485    0.8757841643279043    0.7238767047608748 Mo
   0.1251647004525444    0.8749172765904110    0.9412003740700964 Mo
   0.3742413905460713    0.4981864673548452    0.1671234635271207 Mo
   0.3783017582291354    0.5030199484666226    0.8354718041025744 Mo
   0.3731402794283967    0.2467544614035681    0.4974495912879248 Mo
   0.6239396001675013    0.7501309830242089    0.1698461226148132 Mo
   0.4979047617497095    0.6209713780153872    0.3860374424846929 Mo
   0.6224128207121030    0.4954299666329374    0.5001341533358815 Mo
   0.5022737636773353    0.8765170533390494    0.7248377606880910 Mo
   0.1274329216518327    0.1257919293789317    0.6122700908800858 Mo
   0.8733478310114726    0.6222766152870484    0.6119964750267139 Mo
   0.7506705206230690    0.6245967844289352    0.7245902461162284 Mo
   0.3759882164395308    0.7526507907449463    0.1656196370090077 Mo
   0.3729603626392436    0.3720949991616435    0.2793590927045301 Mo
   0.2536332981427322    0.6285736910239449    0.7210735402531445 Mo
   0.3769734674182033    0.3753881457432567    0.6095298905664577 Mo
   0.1232873174106365    0.2456527334659037    0.1674718147275681 Mo
   0.6292616607046315    0.8734200210352102    0.9423284434034935 Mo
   0.6291019765217329    0.6296164283329651    0.9426078894019128 Mo
   0.1214228111921864    0.4949388616859671    0.1663977362339165 Mo
   0.8802915090575011    0.7538713115745750    0.8347019074511668 Mo
   0.2461392011768247    0.3736561674425710    0.7219091997453803 Mo
   0.7496003752194557    0.3753490461087616    0.7228858099296974 Mo
   0.6281235495373264    0.1259528018641925    0.2781437509610437 Mo
   0.3718632154995723    0.8762959053223798    0.9438716196001804 Mo
   0.1232857356543821    0.4963895289280478    0.8321180008656152 Mo
   0.1273409808317210    0.6267028582315088    0.9438965426076222 Nb
   0.6266036225581586    0.3776918147765490    0.9447954701954382 Nb
   0.1278043920243163    0.6273360752974065    0.2782956071175811 Nb
   0.6252101949962835    0.1234618357089332    0.6126251067863762 Nb
   0.1252934772518259    0.3729825809604226    0.2774277342778122 Nb
   0.3731778980138692    0.6279028756238753    0.9435836144783946 Nb
   0.1228815927398987    0.1249262777084641    0.9450656468165277 Nb
   0.6242379318624999    0.8774991113667938    0.2784214992405986 Nb
   0.7488855525627870    0.6247184181886422    0.3900135730002895 Nb
   0.6278717899426547    0.0006069699327317    0.1664515196992959 Nb
   0.3784803867317902    0.6242500061326419    0.6094768536005141 Nb
   0.8716727177675001    0.6247148551452516    0.2790790213742982 Nb
   0.1222521735769387    0.5003311163738347    0.5001955971423026 Nb
   0.8732970677875780    0.8763996414029956    0.6123806320629720 Nb
   0.2509404238869469    0.1250307242966392    0.0519832452054010 Nb
   0.4979309124671970    0.1238673872714644    0.0561430990546717 Nb
   0.8763232332748834    0.0022113830737363    0.5002995241602379 Nb
   0.8762536795098801    0.2545380971678648    0.5004827753178323 Nb
   0.0016066861760774    0.6272455252517525    0.0557204280244090 Nb
   0.6267985468221696    0.7506565945255023    0.8299634101987063 Nb
   0.0004731561739320    0.1285737616499757    0.7221229782332100 Nb
   0.5006121017632447    0.6233403200467302    0.7211501868607656 Nb
   0.2522891595769775    0.6264806129571554    0.3903968661611723 Nb
   0.8774469673130700    0.5045224018542666    0.1668103820165170 Nb
  -0.0026274007021212    0.8743070096597363    0.3867944967915198 Nb
   0.7562686606585717    0.1311844010690151    0.3888115166809699 Nb
   0.7477308285283253    0.1233930321228138    0.7245786045892145 Nb
   0.6226181024664136    0.2477870229721071    0.8357200967950056 Nb
   0.4995699694635812    0.8716400940014002    0.3900662957257887 Nb
   0.7875584947330940    0.8250421095003641    0.1645363609535730 Si
   0.7859927596883336    0.5764293332855687    0.8333606822393077 Si
   0.2860430319186347    0.5752878172060818    0.8311731376631145 Si
   0.7868795909789033    0.5762736172672172    0.5020834446162071 Si
   0.5409283468675811    0.8258679695545454    0.5023075553476060 Si
   0.2904361081928885    0.5752406851452457    0.5000592726545774 Si
   0.2873851232876369    0.8259986942436853    0.1692792070821743 Si
   0.2851811549473461    0.5722540543001158    0.1647522156727045 Si
   0.2971675213693058    0.3390038127265462    0.8304774380251472 Si
   0.2900477493518473    0.3283378273848738    0.5021471797570786 Si
   0.2883070733673203    0.3339766062089469    0.1664815183368809 Si
   0.2879781345550146    0.0810871785135640    0.8316681423837513 Si
   0.2084623389612616    0.0348624041180894    0.2754395679851822 Si
   0.7879446970823761    0.8265181324339882    0.4988029252394422 Si
   0.7937900510723293    0.8329409484771234    0.8329042220158659 Si
   0.7877764229176158    0.3337647275880215    0.5014621191996264 Si
   0.7884193772798815    0.3293824661754776    0.8329679413137510 Si
   0.5424747285710596    0.5773541507907681    0.8327982755505532 Si
   0.5396143339632578    0.5848030509024801    0.1632138425226430 Si
   0.5419143677383857    0.8317567856914015    0.8344924045624247 Si
   0.5419013830839216    0.3352011026726875    0.8315124572035542 Si
   0.7945105576908951    0.0877925447411107    0.1683127843039987 Si
   0.7870037917876392    0.0801262697489728    0.5022110645801801 Si
   0.7892017732902111    0.0751267466535799    0.8331712701603916 Si
   0.7896709887194040    0.5877538819404341    0.1660035727241206 Si
   0.5397615349083064    0.3306720675571790    0.5021279261758025 Si
   0.5416284840415865    0.0829420308873554    0.8340211226324302 Si
   0.7921417788419665    0.3294301822892221    0.1678701357865037 Si
   0.5390114538363471    0.0808180723835360    0.5020111758405208 Si
   0.5407674302346627    0.0824678415650484    0.1694182768666454 Si
   0.5392222684601717    0.8265470469633297    0.1644288861923774 Si
   0.2871990688285148    0.8295138770078767    0.8332228753349319 Si
   0.2911310880968390    0.8287598431791324    0.5024778287063218 Si
   0.5385371151407577    0.3282000727376739    0.1635990114205374 Si
   0.5443189077986682    0.5845920093179131    0.4999799169659216 Si
   0.0441368786885155    0.0822418227467837    0.1668604394452800 Si
   0.2893491058989583    0.0774578524474025    0.1633748953012254 Si
   0.6676522463674724    0.7119472980624582    0.0558779932033003 Si
   0.6733944708820498    0.4620721471432325    0.7200577592355736 Si
   0.6675105485113879    0.4597938091623400    0.3883284799349749 Si
   0.6723937910589065    0.4621874789917265    0.0559566473594194 Si
   0.6656846262599753    0.2135646340656475    0.7205938705898085 Si
   0.6635065847184333    0.2069018688316678    0.3918828471800812 Si
   0.6734433321425684    0.2109830047245924    0.0575247391897116 Si
   0.4235777303376273    0.9613055216543788    0.7211911905823674 Si
   0.4235076797322880    0.9614774904025821    0.3916130554821278 Si
   0.4187297406597692    0.9547815993530141    0.0572207897741118 Si
   0.4200098583058833    0.7138860034032085    0.7211412961148592 Si
   0.6658099672176673    0.7077000765846384    0.3892739753750478 Si
   0.4187302287667021    0.7065382607765464    0.3877150730287598 Si
   0.4119120721599414    0.4547903015429139    0.7221530939726727 Si
   0.4207530160523453    0.4590544954522276    0.3885640873432287 Si
   0.4202841435412639    0.4636352550037718    0.0557336404549049 Si
   0.4206368875501827    0.2090678816395048    0.7172519555223630 Si
   0.4205940878455891    0.2082267599513735    0.3875232790639289 Si
   0.4176944776596427    0.2094511244691600    0.0528520061681764 Si
   0.1701153465680738    0.9621788031826077    0.7207542740611526 Si
   0.1713748946184448    0.9576691672719159    0.3893182692427030 Si
   0.1658644203747467    0.9559795952644894    0.0538057355190119 Si
   0.1710189898486775    0.7089519259884626    0.7217066956750904 Si
   0.1641784124157206    0.7055668211218910    0.3925961766225822 Si
   0.4210114313102966    0.7124894141748496    0.0563440626968338 Si
   0.6743999205457394    0.7100840718564319    0.7190235178968981 Si
   0.6673881013062144    0.9547043742360377    0.0542015714340132 Si
   0.6718297395907784    0.9607627020635645    0.3910700677974522 Si
   0.0412083727400663    0.8344686917707579    0.8306545422250404 Si
   0.0374426338015959    0.8306027669228397    0.4988169659414209 Si
   0.0401655048110289    0.8303337966221087    0.1645114970258042 Si
   0.0434915414272955    0.5789960042548261    0.8321132844818863 Si
   0.0357439987086380    0.5812959770251359    0.5001955892421810 Si
   0.0447100288114338    0.5800342764845271    0.1667984972361255 Si
   0.0415245539086542    0.3355051234385545    0.8321139165141227 Si
   0.0448471082286088    0.3336484473648625    0.4987681791937216 Si
   0.0400447712993503    0.3306589139289184    0.1656090245718655 Si
   0.0370720918804739    0.0779847655941327    0.8325258769935669 Si
   0.0428212719402318    0.0781919062869507    0.5026343813912416 Si
   0.2118163211451144    0.0470878570305489    0.6088402339257123 Si
   0.9223084522247623    0.9594655108866419    0.7249820722071141 Si
   0.9148689795942835    0.9603623515821701    0.3874340089402789 Si
   0.9155207201183038    0.9545880186679800    0.0546456878693838 Si
   0.9149177276481770    0.7064882282217713    0.7233533229089573 Si
   0.9172801605558899    0.7057192810160529    0.3927829514217585 Si
   0.9200941811130686    0.7120084664894257    0.0566733743150967 Si
   0.9143766795835970    0.4593337593275250    0.7206743439714949 Si
   0.9215360493447090    0.4633781743612870    0.3915670182373506 Si
   0.9143474017147580    0.4543511167596736    0.0569724783746375 Si
   0.9153151349335813    0.2096206612597563    0.7216556920165677 Si
   0.9225947308346041    0.2115830355342866    0.3894467297327519 Si
   0.9220309613730281    0.2123041975307564    0.0559375902792208 Si
   0.6649977299122330    0.9536296000777259    0.7249096132563683 Si
   0.2908535642532863    0.0778421893509296    0.4991033596388757 Si
   0.2077914953246272    0.0366844920705129    0.9412310104192008 Si
   0.2898318849399767    0.9556563893477741    0.9476216880489517 Si
   0.2115569329963879    0.2874145164809283    0.6124856092543605 Si
   0.3335010183420939    0.7955282841483282    0.0546923950511906 Si
   0.3315522193093905    0.5400987590877580    0.7225054040550081 Si
   0.3358635764318742    0.5373846468329379    0.3869925466787337 Si
   0.3376610727621833    0.5424558577107900    0.0556948886405221 Si
   0.3283480831356351    0.2905763387230330    0.7193277407778104 Si
   0.3261602707375222    0.2874016893152321    0.3893546938719735 Si
   0.3301364116311656    0.2944038338754964    0.0531262399436010 Si
   0.3279316193046122    0.0378473806551437    0.7197444268095368 Si
   0.3330558511785411    0.0384953451172963    0.3897485779587740 Si
   0.3317561209843283    0.0360679899859827    0.0555045122616906 Si
   0.0825865658639951    0.7933562051262059    0.7234120777025246 Si
   0.0798402973228873    0.7886193967619567    0.3894957356774057 Si
   0.0871770522707236    0.7964064877951833    0.0554455455097979 Si
   0.0890253786119225    0.5449513405945026    0.7225478415972081 Si
   0.0756935351371701    0.5401442609991890    0.3881546648488294 Si
   0.0825188043066135    0.5404151312918577    0.0564493194073040 Si
   0.0840795360274912    0.2970008200720322    0.7242110525200646 Si
   0.0798021936792699    0.2899998219445146    0.3904334307027014 Si
   0.0839365615397607    0.2925528731951108    0.0587903343199053 Si
   0.3340578348007064    0.7951909937396064    0.3935376850298755 Si
   0.3268284697845285    0.7923361311403669    0.7213876410282880 Si
   0.5774512451758279    0.0364745951380180    0.0571368690923984 Si
   0.5796170884593097    0.0424990543949900    0.3887548348933282 Si
   0.8334668086563797    0.7918334657686619    0.0530513325676192 Si
   0.8276726273617063    0.5386656789262643    0.7216931494518302 Si
   0.8332104235494352    0.5399009672975105    0.3918190636466158 Si
   0.8249436383020318    0.5387902935664245    0.0568247107647900 Si
   0.8305459297044012    0.2913180468187846    0.7219960201854476 Si
   0.8317285453375947    0.2956053713442960    0.3879975356129155 Si
   0.8285438463855580    0.2891932648856257    0.0545709995653312 Si
   0.8294867781724264    0.0379221118386412    0.7199162373667060 Si
   0.8264900494267051    0.0368104746646543    0.3882738295754048 Si
   0.0766012873577982    0.0367222645561702    0.7202417575531352 Si
   0.8269575564590240    0.0377960857368603    0.0575246831325464 Si
   0.5867973200304352    0.7887443239711576    0.3886062502090287 Si
   0.5833262306269105    0.7903003963063356    0.0547264969396198 Si
   0.5847025169354493    0.5410558067099626    0.7214820008130576 Si
   0.5761041463306567    0.5380969832511886    0.3911252762308702 Si
   0.5767980534517726    0.5431876321789355    0.0522752176171265 Si
   0.5769796835067794    0.2885488800562771    0.7243033655967985 Si
   0.5795009098205318    0.2875299525108719    0.3915347801928795 Si
   0.5851823290152460    0.2918162691242790    0.0547456883040596 Si
   0.5758618334059021    0.0379949810488927    0.7234291343649415 Si
   0.5771657404212723    0.7888766959708626    0.7197527977530601 Si
   0.2117930545609479    0.2919441712845007    0.2756766815966800 Si
   0.0809903503951783    0.0391130357911715    0.3913328918690355 Si
   0.9643660289019079    0.7906840785808452    0.9454603316034738 Si
   0.4599839589140546    0.7960059203444141    0.6133012237970826 Si
   0.1706252178196661    0.7109102405838312    0.0567107276153766 Si
   0.4587521544187033    0.7872250463545566    0.2764471843721606 Si
   0.4660304468998681    0.5434479146532027    0.9452178103915042 Si
   0.4635461558882338    0.5385805070076735    0.6091566594759651 Si
   0.4611668366218140    0.5373235075837964    0.2741692448143277 Si
   0.4556257730749923    0.2866683404047700    0.9440823512015798 Si
   0.4566888157767614    0.2873452789665639    0.6080964539925471 Si
   0.4572460454662224    0.2880524355476433    0.2757478001348065 Si
   0.4606560363929744    0.0382232966071107    0.9430589782571237 Si
   0.4555466235505012    0.0401573501589857    0.6110434615757843 Si
   0.4636314802442721    0.0421477148362110    0.2800492530238868 Si
   0.2090562322661281    0.7973576277925613    0.9468371437127240 Si
   0.2133681262648592    0.7914383690601172    0.6144406595898549 Si
   0.2071215068448246    0.7949285302135302    0.2771702805851173 Si
   0.2072622429648527    0.5393074408139763    0.9427604823358954 Si
   0.2067258417266767    0.5420441466497922    0.6124983003819181 Si
   0.2083032364194349    0.5419407555238543    0.2755392727079357 Si
   0.2156476280959360    0.2958000270433185    0.9421064150452994 Si
   0.4669879346777240    0.7942997660105607    0.9453496854218295 Si
   0.7138707443290324    0.0446054909718210    0.2788453080823219 Si
   0.7086890353239875    0.0366224813762901    0.6116564731736388 Si
   0.7078067120452736    0.0347017535884361    0.9458034757205236 Si
   0.9557153470414740    0.7849991313682109    0.6096685589688234 Si
   0.9625603212332062    0.7916548571199767    0.2735874458100696 Si
   0.9575902246843959    0.5364969796938787    0.9483315722082815 Si
   0.9583452840921327    0.5395549710291800    0.6116772490351304 Si
   0.9602960929443137    0.5396565691035543    0.2803790338882499 Si
   0.9602030468055104    0.2921602353327362    0.9433043497004311 Si
   0.9613655049095120    0.2886526135411019    0.6109157660281118 Si
   0.9554756546791187    0.2915773566158717    0.2779105897651902 Si
   0.9552715117404945    0.0348490360351578    0.9429551972774745 Si
   0.0772517488559007    0.0372885504873677    0.0559287939413101 Si
   0.9630193106164004    0.0436306376176392    0.6121593955571724 Si
   0.7107902452793582    0.7908050322703133    0.9454456107462715 Si
   0.7072108502903346    0.7893807566319833    0.6102853238579492 Si
   0.7098423111030915    0.7887233220052848    0.2799463541977082 Si
   0.7076493760637950    0.5496531406461167    0.9404374705341444 Si
   0.7061485375056658    0.5430395917424792    0.6114839175406456 Si
   0.7052767784868863    0.5383641481352323    0.2762310426375348 Si
   0.7110242432436468    0.2895033336380295    0.9462946386252833 Si
   0.7104336835572157    0.2915160665813123    0.6114603812790201 Si
   0.7108574059943071    0.2885688956612955    0.2789259942091171 Si
   0.9614343128868440    0.0420756429524947    0.2801244451083761 Si
   0.1773022460173077    0.4655839979860198    0.7216699687218561 Si
   0.8287912617618641    0.7873906389645626    0.7240020749893649 Si
   0.1707026347225477    0.4599654774732400    0.0545264227086969 Si
   0.7122319759270985    0.1687830769486005    0.8377103892097812 Si
   0.7105436772301625    0.4213549345301457    0.1667759749026406 Si
   0.7065124541667167    0.4185248986980513    0.5027974218391551 Si
   0.7119538117621057    0.4233271395378457    0.8327437829446027 Si
   0.7085571729245218    0.6720250266286429    0.1645504251598862 Si
   0.7118278469570205    0.6732850542060300    0.5017522498741218 Si
   0.7163695797536508    0.6750610726692660    0.8325054144059736 Si
   0.7102206651217358    0.9151417398764002    0.1661740491416350 Si
   0.7061144615584594    0.9168084470159176    0.4995048810012017 Si
   0.7129407044756257    0.9188424395302849    0.8319105048795914 Si
   0.9598745339794678    0.1714593278205364    0.1673134504080929 Si
   0.9587261636666063    0.1683789420159147    0.5014717735392829 Si
   0.9580458520787926    0.1694671857764711    0.8340608312876637 Si
   0.9576507187714879    0.4152606523426325    0.1656956315340318 Si
   0.9569988231067675    0.4195138525949998    0.5022892156283204 Si
   0.9579187872413195    0.4191802769484277    0.8299635842042451 Si
   0.9593770525207346    0.6719029796960793    0.1680095971878098 Si
   0.9534649602228220    0.6654506235576688    0.5011467965571557 Si
   0.9571673041804547    0.6695531400661354    0.8322572045722736 Si
   0.9618681086577801    0.9193949658171656    0.1635792565315805 Si
   0.9608084892602397    0.9175727646921805    0.5013783187680640 Si
   0.7054902280995209    0.1684890141758984    0.4996603512721678 Si
   0.7131115975822684    0.1669025694465503    0.1666173309236606 Si
   0.4563979710167129    0.9172225051420867    0.8336666694653563 Si
   0.4644656873447469    0.9221557524713566    0.5022079823285940 Si
   0.2063647411497040    0.1654867405914069    0.1660539247467225 Si
   0.2104337615166174    0.1637509191388556    0.5007253652373838 Si
   0.2061905679910533    0.1639035411930050    0.8307349527743426 Si
   0.2119187724636195    0.4218940254290763    0.1647852358001173 Si
   0.2145855332002800    0.4223820112673248    0.5040811642462780 Si
   0.2141927154979826    0.4218588455216320    0.8343420675008690 Si
   0.1689191198103835    0.4621532565760530    0.3863715421994197 Si
   0.2123487347728499    0.6725439863293525    0.5019039817354178 Si
   0.2151724986831347    0.6749673242281888    0.8326818102607837 Si
   0.2103247082242988    0.9247769688232866    0.1695016736925759 Si
   0.9619264518124131    0.9149955559811780    0.8337539823053601 Si
   0.2105118207060923    0.9201148894488911    0.5015380913091836 Si
   0.4630847354615700    0.1721207221023224    0.1693603236857720 Si
   0.4619012242968953    0.1743992287697717    0.5011585151850444 Si
   0.4507745479823017    0.1638710571168004    0.8287501073099076 Si
   0.4572973915025829    0.4185561792312031    0.1682955958635503 Si
   0.4595269973778333    0.4174878294233388    0.4978816113670748 Si
   0.4601951727919842    0.4217693036846791    0.8299208748137182 Si
   0.4598094316529277    0.6712583190472997    0.1654467228772552 Si
   0.4637400067678983    0.6713556960259288    0.4962175482591695 Si
   0.4589516278585457    0.6683214833538969    0.8323904162125121 Si
   0.4571486168853500    0.9149232615173115    0.1658641939504601 Si
   0.2092572539429984    0.9247681542453043    0.8328159454461196 Si
   0.0399274095771371    0.2064871288410585    0.2789874573089652 Si
   0.2149817307598356    0.6740321477105299    0.1659538237973446 Si
   0.0389992251030649    0.2094107116743469    0.9468506184241565 Si
   0.5424821803239308    0.4633129391279056    0.9412734605876011 Si
   0.5367832651780426    0.7084018826811823    0.2782385720619245 Si
   0.5432074751312294    0.7103784737778102    0.6094605078517685 Si
   0.5415858584445835    0.7114159330577199    0.9427125186284756 Si
   0.5411217463218060    0.9620975192945557    0.2776908808770447 Si
   0.5423009285435441    0.9539538188297046    0.6105231500741992 Si
   0.5346595639027150    0.9587055146424897    0.9464973652801423 Si
   0.7941563353226196    0.2103753236843544    0.6132250903433457 Si
   0.7913198259980435    0.2089571786978243    0.9457980777372228 Si
   0.7924859027975419    0.4580129774982391    0.2785228450394914 Si
   0.5389112694691868    0.4616754409138493    0.6107279556385260 Si
   0.7874659070256407    0.4594993837166528    0.6112413454368828 Si
   0.7895857190354666    0.7120283701059140    0.2769700813434601 Si
   0.7915027793359080    0.7038554660514821    0.6109250916804029 Si
   0.7934274051535758    0.7129760810787935    0.9437387247977266 Si
   0.7907744123809687    0.9581916701539598    0.2776134186903954 Si
   0.7881046957087942    0.9599223626687623    0.6107101728722234 Si
   0.7911825579914249    0.9552064414577597    0.9451548097350502 Si
   0.1724241616635890    0.2140476427532029    0.0563910736584794 Si
   0.1692723042125212    0.2059000564036182    0.3950062182775797 Si
   0.1709832922185210    0.2107520120987535    0.7229361824709274 Si
   0.0374838198822574    0.2129184649606063    0.6114810237476823 Si
   0.7911482908597315    0.4583630971616538    0.9460942525521707 Si
   0.5377329312840108    0.4577656079634486    0.2764161749027848 Si
   0.7907612647112824    0.2157896655876462    0.2761058180674499 Si
   0.5373510289797420    0.2092783293885641    0.6126578083665537 Si
   0.0356021786302656    0.4570610275247666    0.2757920409954399 Si
   0.0404017037853252    0.4638436422827137    0.6144580507932191 Si
   0.5365609547749840    0.2113547978990736    0.9456509621536395 Si
   0.0391711268397096    0.7117681575554878    0.2790578841054012 Si
   0.0366129940455847    0.7110073306136446    0.6134083160783250 Si
   0.0391101096315314    0.7126675877420271    0.9440200980153023 Si
   0.0427208543781008    0.9578297453879109    0.2741248049295334 Si
   0.0424759005906165    0.9607172036547077    0.6091826268197716 Si
   0.0391557023972529    0.9579341022765847    0.9434551502279371 Si
   0.2896167473790811    0.2101161191520587    0.2765076907622491 Si
   0.2907327062047814    0.2108947674694029    0.6088838400522664 Si
   0.0384302486451234    0.4608247941123629    0.9428297777144513 Si
   0.2919037626103083    0.4557397093575250    0.2783923090170932 Si
   0.2890021611369297    0.2137773141666824    0.9417259093085752 Si
   0.2928482449430924    0.9579061810113605    0.6118536307405074 Si
   0.2888105851341599    0.9545935941412903    0.2790246851560166 Si
   0.2943160799040071    0.7149019367816505    0.9455456153793315 Si
   0.8307352995658729    0.7934865975149855    0.3880557312579833 Si
   0.2950236161054064    0.7105665396330216    0.2766856850578787 Si
   0.5442994064770185    0.2065421496491047    0.2819530801306291 Si
   0.2927440046247934    0.4623983531492095    0.9458000236937053 Si
   0.2953545272507885    0.4577440657448140    0.6123293528842445 Si
   0.2947669327561172    0.7125737029827485    0.6108235642703129 Si
   0.3749062153263648    0.8762978427844513    0.2799932684142172 Ta
   0.1236903384576444    0.2483902858999096    0.8347193547019189 Ta
   0.8760635020384380    0.8761127959008386    0.2742701584430967 Ta
   0.8725388574419077    0.6237132476201013    0.9455845062313047 Ta
   0.8732752333453293    0.1249882512141425    0.9455978925438216 Ta
   0.6248254869502464    0.6220482655135865    0.2766812589746999 Ta
   0.6226459820965187    0.3734576893666043    0.2767505697997791 Ta
   0.3717760943421643    0.6223408714723681    0.2754914941586200 Ta
   0.7453776311861204    0.3738063760040173    0.3896389732586509 Ta
   0.1238666954794174    0.8757743143932529    0.6108241253260425 Ta
   0.1259091014814517    0.3734241817196327    0.9445855348884326 Ta
   0.1252405668664782    0.1244476124131240    0.2812163431813086 Ta
   0.5003119370765994    0.3720946783833339    0.3876664717468816 Ta
   0.4995318691801643    0.3770189916830013    0.0542848179776451 Ta
   0.2502728483189260    0.6242260707592461    0.0553995250196970 Ta
   0.2465244886001060    0.3721783385587838    0.3915161663650286 Ta
   0.2504624119526992    0.1217260443271977    0.3864567175686272 Ta
   0.1249742360571660    0.7523161649272694    0.5032256256271012 Ta
   0.3729337413092373    0.1224731486543717    0.2763470672965752 Ta
   0.1227289476151015    0.7460729709278994    0.8328926312246363 Ta
   0.3745350281542023    0.0009778876983512    0.8323101886298813 Ta
  -0.0039509378390096    0.1208612569844656    0.0556529755693952 Ta
   0.6267028369065417    0.2515867744245098    0.1674329950891077 Ta
   0.3723545398348277    0.2488551432769304    0.1640335093721071 Ta
   0.6232219861415759    0.0015339331024853    0.8362009539268567 Ta
   0.3772473140474955    0.7527463075123402    0.8334855372145499 Ta
   0.3749281672392071    0.2506179709071514    0.8306401914914834 Ta
   0.8777525161965686    0.0025748830044862    0.1679038494676347 Ta
   0.8776632055627758    0.5031898999502840    0.8342942196337984 Ta
   0.1242769594146861    0.6281325070881811    0.6100358334512657 Ti
   0.3776371247943060    0.0003397621607011    0.1687494613546698 Ti
   0.1258296558753584    0.3772927703613506    0.6121882664552639 Ti
   0.7502278156354855    0.8742479152141190    0.7213575660632086 Ti
   0.7492740970520310    0.6274978822939379    0.0548088357386744 Ti
   0.7484022343192388    0.1218551640202868    0.0551477530839754 Ti
   0.8754599195107932    0.2513188754732093    0.8328503387911211 Ti
   0.6226861190495322    0.5003151061343577    0.1636580047829169 Ti
   0.2491679525844303    0.8727172986378732    0.3911217605672548 Ti
   0.2527053232362300    0.1270074957406831    0.7206899322882819 Ti
  -0.0010692875698552    0.8734381154275487    0.7186447313811456 Ti
   0.0013004806436604    0.6250917226245050    0.7221763110983612 Ti
  -0.0019223342378125    0.3744653047475302    0.7207295308841456 Ti
  -0.0003090741042631    0.3770146798842912    0.3886659681381616 Ti
   0.0005763845063056    0.3759497365037794    0.0536253216558352 Ti
   0.0015081167807869    0.1249737710946668    0.3917200252509699 Ti
   0.4983740062253157    0.3740116870204103    0.7194014764831356 Ti
   0.3726308877851522    0.1215174297456626    0.9429832839964806 Ti
   0.3739149897115667   -0.0030964143600735    0.5002422520494767 Ti
   0.1220927629878707    0.7472765028857811    0.1675667521513843 Ti
   0.1242594417987749    0.2493623109265115    0.5032368896574256 Ti
   0.3788437223728463    0.3781366401520448    0.9432800186541196 Ti
   0.3778107485339393    0.7488100387010104    0.5012443441698815 Ti
   0.6244064376083301    0.1243423495654715    0.9478003019048711 Ti
   0.6221033558515962    0.3737944980015355    0.6138436064170225 Ti
   0.8749405589868923    0.3743855982671002    0.9429070321514814 Ti
   0.8736084100433226    0.3741378608130264    0.6118650761680137 Ti
   0.8775066734495138    0.1256203251991114    0.2791309809333491 Ti
   0.3785705582153195    0.4997433020583582    0.4991778601628220 Ti
   0.3733280127633496    0.1217129044950047    0.6094994334736635 W
   0.8741146290318575    0.7504599987918142    0.1657242163819886 W
   0.2502839665697958    0.3761761327257241    0.0542568531038245 W
   0.8754707864821007    0.8753318174023755    0.9423547635146365 W
   0.0002751083276765    0.8745390323531714    0.0543149152476476 W
   0.1262799216652594    0.0016036311862252    0.1648029327204005 W
  -0.0004731553343634    0.6272897522696589    0.3893150676380347 W
   0.1258002518923952   -0.0019455119572883    0.4992230384229310 W
   0.1225482681287982    0.0001055575162419    0.8305825426267163 W
   0.8746508124528369    0.7525668963594653    0.4994870638006207 W
   0.4975682168140960    0.1238531079797704    0.3918000369926509 W
   0.8760412733740662    0.3790206339760158    0.2788012040844973 W
   0.8726070003735151    0.4978025790444098    0.5021322687925377 W
   0.5000722201656844    0.6288502286096480    0.0537238050306919 W
   0.5022001701399219    0.8748596501576306    0.0557675172495967 W
   0.8731479319778003    0.1244905459055522    0.6110788571452984 W
   0.7509449104146431    0.3745196123552906    0.0570844846424111 W
   0.8752860551934951    0.2504994071328923    0.1653718775958365 W
   0.7516711833519675    0.8740679832146067    0.0567323070183434 W
   0.7507006329104722    0.8748775436233103    0.3891832039197756 W
   0.6263926638696035    0.8745600634693897    0.6113549252685948 W
   0.6264713621483301    0.6253648143703773    0.6106827472171944 W
   0.3768423537792550    0.8762490544412169    0.6109091700704773 W
   0.1239029726511299    0.8733621287566269    0.2781812638062782 W
   0.6234180865143351    0.4955992837768897    0.8303721725744757 W
   0.6242371658588812    0.2511257213242734    0.5036906316054530 W
   0.5005862922685521    0.1249346074487644    0.7219962192316310 W
   0.6258021977518121    0.7496415831492046    0.4996948181924310 W
