Ta36 Nb36 Al144 V36 Si144 Mo36
1.0
   9.6096921466610592  -16.6462825182374630    0.0014127952167864
   9.6072176260189526   16.6448538599063021    0.0015412801335975
   0.0030321729170780    0.0000866448848098   20.1340835951150687
Al Mo Nb Si Ta V
144 36 36 144 36 36
direct
   0.2770709212375731    0.9463179183233094    0.9455540450407811 Al
   0.4131625025626239    0.2038433340508261    0.0603562239505497 Al
   0.1726813032463147    0.9677836669242271    0.7261150799903719 Al
   0.1656203206233832    0.9511793534594455    0.0501909666795670 Al
   0.1585798014524678    0.7037566542386776    0.3917316871914140 Al
   0.1682967717332036    0.4602628820158375    0.3830493058565435 Al
   0.1707333181443041    0.4626045479508004    0.0526530987469403 Al
   0.4182165816713099    0.2009083648251505    0.7180107918570289 Al
   0.1762101851432439    0.2114865537198038    0.7164191660163223 Al
   0.7946876112836544    0.9555139911810994    0.6092140741370219 Al
   0.7881157310922345    0.9575290720775342    0.2773659164057146 Al
   0.7991850349940862    0.7096841794690586    0.6179719214875465 Al
   0.7907529998711724    0.2116506942286839    0.2833992067545463 Al
   0.5454686472668210    0.9654782060145449    0.9459244896481277 Al
   0.5433053713790305    0.7115239010097917    0.9430245500402534 Al
   0.1594288679723933    0.2068012454926197    0.0542399325973248 Al
   0.5440694534469808    0.7075168839449753    0.6091309838554507 Al
   0.4174990449721939    0.4566190684780733    0.3897242187439337 Al
   0.4203903961814501    0.7119392027224329    0.7249145092749477 Al
   0.9084818111401229    0.4531539306324152    0.7274239162771938 Al
   0.9218240160045899    0.4651278678130618    0.3860730465394198 Al
   0.9199822865375306    0.2091980509639749    0.0451550965458891 Al
   0.6712604955262950    0.9595267674187246    0.7270036470680982 Al
   0.6669455848713126    0.9572949440280760    0.3912414897174804 Al
   0.6692273650615808    0.9548120128520413    0.0520386317425468 Al
   0.4144810678763991    0.7092770499407018    0.3867461848760110 Al
   0.6752524193601195    0.7145923179102639    0.0584297779708982 Al
   0.6734330593047154    0.4637362925225766    0.0582521598697669 Al
   0.6707160129167710    0.2070037280607171    0.3939572736025113 Al
   0.6684517941218312    0.2161164970854321    0.0577518476310999 Al
   0.4237717995248647    0.9620934823449577    0.7152611364285284 Al
   0.4211214539512897    0.9546830370106566    0.3915741361149704 Al
   0.4169006953219199    0.9549115702546564    0.0548015713612375 Al
   0.6668685828116745    0.4585741451977883    0.3877486833973061 Al
   0.9244699298981242    0.7180354297928224    0.0570706240728969 Al
   0.5382600833288118    0.7118420177905129    0.2757543002187599 Al
   0.5425247442914936    0.4569213987244239    0.6116965635971325 Al
   0.7138037009587328    0.6729815399262794    0.8311830457195227 Al
   0.7192709211566555    0.4213054994245934    0.8310393295959585 Al
   0.7063300327126197    0.1670526209476646    0.1670687223481698 Al
   0.4628485411082520    0.9159111603685042    0.8264500241543162 Al
   0.4557737031787456    0.9166725431670384    0.1727024600516007 Al
   0.4642973733929162    0.6745021211872406    0.4954725223077564 Al
   0.7083943478538984    0.9113412450707422    0.4975524768616901 Al
   0.4601257015715416    0.4183109212984825    0.8392672189076454 Al
   0.4620239983397041    0.4239907383592555    0.1672905571046045 Al
   0.4612923892327789    0.1646753452888939    0.8324491628810639 Al
   0.2081763546760717    0.9140411463918623    0.5034846915186770 Al
   0.2032827103745245    0.6605483841672747    0.8372697885664090 Al
   0.2127445593880574    0.6717746513672795    0.4986610353139471 Al
   0.2005014570552026    0.6590759894854702    0.1722668635275338 Al
   0.4547080531938962    0.4110652595638947    0.5060387598342373 Al
   0.5444573774982896    0.4588246149856382    0.9482511812802227 Al
   0.9594523890392869    0.1664515893276562    0.1641030209963511 Al
   0.9498503712362858    0.4143133247515493    0.1665532953606998 Al
   0.5458714625585680    0.4616407240382024    0.2820493469332079 Al
   0.5469244558128779    0.2065866392281475    0.9417283905129975 Al
   0.5397446628762409    0.2163835788791752    0.2842692075490721 Al
   0.2876515225139814    0.9563725553905682    0.2764239883021579 Al
   0.2959955337982867    0.7074519123844568    0.9416489462224124 Al
   0.2969433175061315    0.7152705101672080    0.6088939021010706 Al
   0.9512161212917837    0.1654153376375242    0.8313477778198161 Al
   0.2909006697924617    0.4639252777386414    0.9433516622732504 Al
   0.0389076301825113    0.9604942961219453    0.2775657828195215 Al
   0.0375975605179429    0.4626340463845528    0.2743690580303935 Al
   0.0376601218943931    0.2051447755819211    0.9446250981910931 Al
   0.0431261398055129    0.2029093260300341    0.6071652619726869 Al
   0.9538639231750697    0.9123790456756665    0.1675691638405095 Al
   0.9547367698984116    0.4164139510597689    0.5057084796119371 Al
   0.2887209885205668    0.4631000514426467    0.2703242723119321 Al
   0.9186931866812723    0.7096718218961560    0.3817011052374268 Al
   0.9150064106243829    0.7081451610092314    0.7212016010793245 Al
   0.9217564892317025    0.9627826713947535    0.0569996011815954 Al
   0.0832964787490815    0.7941811715687682    0.7239290783746034 Al
   0.0805785175053165    0.7875433196579505    0.3906293355565361 Al
   0.0788955032000570    0.5369817377289854    0.7277055380771383 Al
   0.0731395017080214    0.2840133145088341    0.3805980680018043 Al
   0.9571510522201313    0.5387574027301628    0.6145119353100799 Al
   0.9559300210796688    0.2948464524793942    0.2759875357286893 Al
   0.3280883624755155    0.0374558082394674    0.0497575416819286 Al
   0.9564699127201954    0.0362012543465253    0.6072229827661897 Al
   0.7102050251329677    0.7995947423352755    0.9434521929980554 Al
   0.7103625796493407    0.7921984001545500    0.6074356422891907 Al
   0.7212888547088200    0.5427573966667323    0.6167632743647168 Al
   0.7162414345721030    0.2942994026548844    0.9432297472346586 Al
   0.7130304437555427    0.2884535016370942    0.6112157403908796 Al
   0.7078157651070830    0.0442816151603064    0.2837397786806826 Al
   0.9579420627946581    0.0372556830605444    0.2766116779667412 Al
   0.4606303297767311    0.5407248625840124    0.9479625523851649 Al
   0.3320031246806779    0.2901060637293199    0.0566262385737032 Al
   0.3324154446565535    0.5450011480005451    0.3826120449847001 Al
   0.8302949510915564    0.5400042196682524    0.7235311881016404 Al
   0.8329288432466145    0.5445484104379346    0.3826811849471263 Al
   0.8287352879678910    0.2940544783726421    0.0495062635817914 Al
   0.8375416343525595    0.0430578283707336    0.7220778929665492 Al
   0.8380265472848973    0.0435877739873524    0.0555439560476607 Al
   0.5866762411578894    0.7954422709326973    0.3882111780614513 Al
   0.3262745111340656    0.2828583872334034    0.3871821452800093 Al
   0.5814979080045761    0.5410733615316519    0.7270933383982591 Al
   0.5896900426694957    0.2946442952432584    0.0606688142206718 Al
   0.5820127788746648    0.0369356110833050    0.7277120758410689 Al
   0.5863881801526973    0.0401787709206260    0.3945373850815999 Al
   0.3411700572297313    0.7991148404811717    0.7219569775143331 Al
   0.3295550114957596    0.7863243233414773    0.3898053860347458 Al
   0.3294851994088202    0.5378309161189394    0.7199453544315483 Al
   0.5855836008765367    0.5452596998338234    0.0611926364013065 Al
   0.4563771707805469    0.5349652043903284    0.6174750412634863 Al
   0.4580029150006229    0.2876676579510252    0.9461863827259378 Al
   0.4547030357444687    0.2901340029005441    0.6101602523953998 Al
   0.2900103657898334    0.5752164693462219    0.1646664631002459 Al
   0.2915500874262899    0.3331437062941325    0.8265753561055817 Al
   0.2922299284888371    0.3324080207263155    0.5040741583694199 Al
   0.2869651032378385    0.0771978993286445    0.8248001880547375 Al
   0.2923304354287091    0.0740556612873960    0.4919812174602624 Al
   0.2916700663723065    0.0877300148419799    0.1658090000820015 Al
   0.2932876804363447    0.5933661907742719    0.4924388967682233 Al
   0.0389153557830137    0.8282142481553775    0.5015053828280713 Al
   0.0399137073943579    0.5857048711130368    0.4940776181722548 Al
   0.0364126307407749    0.5743672594261214    0.1693437352748030 Al
   0.0379794278591919    0.0772770434987741    0.8380517799487647 Al
   0.0415007877458432    0.0861749411125229    0.4980159976135335 Al
   0.0435692687083048    0.0873145618587598    0.1653442638709491 Al
   0.9202780177305936    0.9556214654819897    0.7255572950958666 Al
   0.0325151359003855    0.8297786374192750    0.1596113412276988 Al
   0.2917224751339512    0.5841976293618255    0.8412193445864117 Al
   0.5420885555964948    0.0836642484956466    0.8394368658276291 Al
   0.5393374504089451    0.3309837743553047    0.1791117356630365 Al
   0.4560941242754059    0.0388924673863307    0.2831282364668790 Al
   0.2128769308630964    0.7970893208568732    0.6107143810886319 Al
   0.2079060954949777    0.7869833986147363    0.2768329755561095 Al
   0.2100587647950663    0.5419013619209101    0.6098727271685307 Al
   0.2022090169263326    0.5461759389943655    0.2712189272689859 Al
   0.2117497876800592    0.2901595845044355    0.9418208957287394 Al
   0.2030615409968064    0.2829710368002127    0.2731920960612017 Al
   0.2060972075015216    0.0381966749475726    0.9358382978001282 Al
   0.7972038686267833    0.8289707754077538    0.8372746082024786 Al
   0.7990750394398322    0.8410090272659855    0.4994539169715803 Al
   0.7860437075519691    0.3350021293464651    0.1667381206886789 Al
   0.7897094598639270    0.0792901081354828    0.1688812567240749 Al
   0.5411940822029784    0.5825776943971084    0.5008415692258734 Al
   0.5460474942822486    0.3290212861488059    0.8361841871032675 Al
   0.5465061476087469    0.3320747059705571    0.5014866249162030 Al
   0.2016806360767509    0.1561437136809527    0.8315408392418214 Al
   0.2086688474361815    0.1749954740841276    0.1696741257707134 Al
   0.0016650390529668    0.1262534721969576    0.0541330941101718 Mo
   0.3760708345600708    0.6318245395433182    0.2741820730292174 Mo
   0.6225536050736087    0.7509689108105091    0.8311291773852618 Mo
   0.2386994667335713    0.1190921396243650    0.3885574833306994 Mo
   0.1229349636073633    0.1198108827640583    0.9436544048861180 Mo
   0.8804071976495891    0.8697111112671098    0.6148017338670012 Mo
   0.2435134450373778    0.3742611293489395    0.7176374186453343 Mo
   0.6317297225585974    0.6324663333901007    0.2787180835859778 Mo
   0.8666112943335683    0.8676393099528238    0.2813931579096225 Mo
   0.3791049014893880    0.5017547850973961    0.1613570209632223 Mo
   0.2453329475522144    0.8650935703979957    0.0580747344420895 Mo
   0.6282499349370250    0.2481085770620493    0.5039301281169272 Mo
   0.6174134017148349    0.2451628452872494    0.1734348447553908 Mo
   0.5016120184498923    0.1290553365982602    0.3927147183216460 Mo
   0.6307784945789471    0.0007967216755897    0.8356430973173153 Mo
   0.3856118635981254    0.7631400038327462    0.5007849561083819 Mo
   0.8739579491149907    0.3723874599634533    0.6121592845394576 Mo
   0.7510639790040280    0.6253433201855312    0.7263409524178827 Mo
   0.8658712495144064    0.1236174874330043    0.9380161335061232 Mo
   0.0038770107886465    0.8781352583033467    0.7241681047056246 Mo
   0.8713304183503068   -0.0032666177806806    0.1686275596725252 Mo
   0.3784608308543781   -0.0051366321775805    0.5027365450542338 Mo
   0.8770553737950929    0.0060931595180537    0.4940100391569399 Mo
   0.7506077260794108    0.8746189469944863    0.0586006562643608 Mo
   0.3729655867918394    0.8700400487206373    0.2794663458277109 Mo
   0.8679754402301415    0.7422834842618850    0.1687612119768452 Mo
   0.8838135518475053    0.5097512241526153    0.8395971954105622 Mo
   0.3732851089276017    0.3732055180565876    0.9465803741470820 Mo
   0.7400698320783152    0.3663405711162127    0.7220621059709690 Mo
   0.1241219314501918    0.7503737054654819    0.5039642319624613 Mo
   0.7561700373241422    0.1270636152222910    0.3953564316055497 Mo
   0.3785018367658570    0.7508132476162613    0.8337173701654920 Mo
   0.3734401934667064    0.1194004891713423    0.6063383014949699 Mo
   0.8832205176128527    0.8780424229225622    0.9466175798022759 Mo
   0.8743983850569242    0.2483114877329771    0.4988985317866919 Mo
   0.3718436781591414    0.1226329620575596    0.9421945907791563 Mo
   0.5029531458028486    0.6277175990074508    0.7283586972425182 Nb
   0.7476910313180074    0.6299516340327983    0.3894539774832508 Nb
   0.4998840789807633    0.8670227918591631    0.0566220865238911 Nb
   0.7587296451762752    0.6317237517560316    0.0553073369086311 Nb
   0.7466979353913614    0.1230990110275621    0.0511278953655104 Nb
   0.4992596494704797    0.3676640224869693    0.3885683239231663 Nb
   0.3785573038906935    0.5035860338790725    0.8321172992182676 Nb
   0.3680826308485934   -0.0082562493196919    0.8319262559199341 Nb
   0.7484196980999493    0.8688360110587473    0.7262610611886088 Nb
   0.3713999779262858    0.5010348969727599    0.5012743161663312 Nb
   0.3700916484785925    0.2405548886358339    0.4991390529497572 Nb
   0.1207144581668237    0.4950692446414140    0.4990691651771444 Nb
   0.3720374141021811    0.2464232028715435    0.8313035573191746 Nb
   0.1265450733536560    0.0005605512994592    0.1642332786242349 Nb
   0.3746696616496983    0.7487959814711884    0.1667329981076237 Nb
   0.7525074145393349    0.3745338727177511    0.3897799647478857 Nb
   0.8724710261075861    0.1296165059687173    0.6065813552497460 Nb
   0.8808087463546618    0.1286595447059629    0.2828758941980371 Nb
   0.8756120712132308    0.7484994623189318    0.4997201909813621 Nb
   0.3752953873268188    0.8727096997475804    0.9430548605013954 Nb
  -0.0014306031042983    0.3677567695849933    0.7200220330488507 Nb
   0.6202674130541340    0.1230026730431162    0.2792723271110965 Nb
   0.8709433755595057    0.2560397942997805    0.8290573140968076 Nb
   0.0058144339847236    0.6296189694006040    0.7288453565542027 Nb
  -0.0042837954470542    0.8803157685280907    0.3922057849476159 Nb
   0.1194533452686483    0.8720695777732125    0.2759255706642169 Nb
   0.2518208813547523    0.3788072962001346    0.0576054575109037 Nb
   0.2516687731473268    0.8785555419120491    0.7268114883896410 Nb
   0.6355897904148270    0.3802782436640715    0.9459902810248934 Nb
   0.6328951540778369    0.5031525234634223    0.8359840283536403 Nb
   0.2508828765452837    0.6283495767058082    0.0543300717678948 Nb
   0.6276712052559934    0.3719597700988511    0.6172667576937861 Nb
   0.6199397824666556    0.8766310166900483    0.6110666117879147 Nb
   0.6341299282996148    0.6286604317079557    0.9456722006177709 Nb
   0.1195131378116695    0.3707279997976163    0.2689558892516621 Nb
   0.1206894608336480    0.3772222943778833    0.9395186893186197 Nb
   0.5419551393264697    0.5852426455016640    0.1754065658835691 Si
   0.0366953159028336    0.3297545895936279    0.4993749092180231 Si
   0.0373018982359176    0.3279127062538869    0.8315659946831609 Si
   0.5469096467950316    0.5860094634044392    0.8387668085556335 Si
   0.5376814881054004    0.8305051591461302    0.1723659468279341 Si
   0.7956983784266876    0.8359782847664542    0.1667662005545658 Si
   0.7992076730680467    0.5907683022297754    0.8366686450227456 Si
   0.0443244057857965    0.5820245212418352    0.8400941815969079 Si
   0.7947879191201653    0.5884647077592977    0.5012178701075332 Si
   0.7943209253385681    0.5825696749946488    0.1660602233452296 Si
   0.2943931406632659    0.8344747229788757    0.5004512911143899 Si
   0.0354739526417741    0.8290297233209676    0.8323305852407137 Si
   0.5472736802782089    0.8364522092266155    0.4962830060864065 Si
   0.2908900229199824    0.3329006000844405    0.1655478679037480 Si
   0.7958831064292932    0.3420346073601380    0.8290487016499838 Si
   0.5425416290574548    0.8360236958394386    0.8305271960708618 Si
   0.7807282833115412    0.0674752071550192    0.4999035732395742 Si
   0.5392315603111530    0.0809347228998622    0.4984993487894225 Si
   0.7929226948990195    0.3285116790101767    0.4995480783318959 Si
   0.7865022600119438    0.0787557647646587    0.8298743897541030 Si
   0.5413403453744747    0.0810266527460869    0.1675992249256083 Si
   0.2927804011447650    0.8348778758087724    0.1687137403629290 Si
   0.2933966104230227    0.8270271351771236    0.8341099619605377 Si
   0.2028979788496162    0.0377666150427621    0.2803878678648962 Si
   0.2071746602638461    0.1648463021332791    0.4999820866219564 Si
   0.2060210083755650    0.2884530286353545    0.6088947818345950 Si
   0.0832199897112657    0.2921674588083227    0.0527251626791770 Si
   0.0793039078651437    0.2853496646425074    0.7157324992643589 Si
   0.0838897467464556    0.5433084680867138    0.0568247661537327 Si
   0.0836639392644106    0.5432913087232898    0.3857803948427973 Si
   0.0815132558661393    0.7945144300910701    0.0505080710980127 Si
   0.3467373424142602    0.0354941790800611    0.3886324398391222 Si
   0.3417172861445957    0.0454538094307323    0.7182080541252356 Si
   0.3366100282764302    0.2807492709612985    0.7166522732061683 Si
   0.3371031012336203    0.5443495202665742    0.0529364901970642 Si
   0.3328810772884902    0.7938338195508858    0.0574864445711114 Si
   0.5850120558551994    0.0441151640216121    0.0568389819261553 Si
   0.5906838775584987    0.2934508093277697    0.3913270427428205 Si
   0.5801260312219697    0.2820340874393697    0.7263380223981606 Si
   0.5835254846716088    0.5405855140943343    0.3894447350696124 Si
   0.5937697136400065    0.7939987363582740    0.0485254993095032 Si
   0.5827398473576586    0.7938207190658391    0.7230299411280783 Si
   0.8281596792000595    0.0382888529505509    0.3882412821272899 Si
   0.8369089377734080    0.2959657072920613    0.3904492989301898 Si
   0.8234250457128497    0.2922309471501111    0.7185362774066242 Si
   0.8371739689912752    0.5465718131953775    0.0531965423928546 Si
   0.8423122720501900    0.8015884277741621    0.0584467814859148 Si
   0.0917986562417762    0.0461300307863635    0.7233281149923628 Si
   0.0787038339327734    0.0445720927184933    0.3874810221840020 Si
   0.0802137561204413    0.0390357483812709    0.0523169310882700 Si
   0.9559080710339500    0.7919626128731926    0.9447777185536880 Si
   0.1993986281404400    0.5461294812399748    0.9423536973025741 Si
   0.2108164447103900    0.7835513146861133    0.9479113919693812 Si
   0.4615212216336373    0.0448536536432283    0.6078991299743125 Si
   0.4434596962473579    0.0393085191482276    0.9464351797845230 Si
   0.4437081950357846    0.2859310025580097    0.2807073160723943 Si
   0.4468012245346029    0.5400557937497668    0.2756768254458739 Si
   0.4610904967847460    0.7986173405043421    0.2809282596168637 Si
   0.4545393230282120    0.7924260430981538    0.6130188835029196 Si
   0.0359414023731904    0.3326686588780690    0.1576601772499621 Si
   0.7088313678212435    0.0402858569923695    0.6121333283268190 Si
   0.2122447572690949    0.0435486884959090    0.6077428863215201 Si
   0.7081193706645106    0.0379120837347150    0.9419161971638302 Si
   0.7192788181171746    0.5419695795726965    0.2806192125481050 Si
   0.7182943101566476    0.5455351067437947    0.9445837713352684 Si
   0.7049995854595402    0.7956040585266639    0.2795110694144034 Si
   0.9559015892366756    0.0436967145182088    0.9475117302239824 Si
   0.9592919964694955    0.2935084186970202    0.6047123308933373 Si
   0.9558262349161197    0.2908492078165396    0.9381189250708090 Si
   0.9506783676815396    0.5414241856632243    0.2750999885751834 Si
   0.9648685033895443    0.5483716722506174    0.9455015254447884 Si
   0.9536900253577247    0.7954746596485113    0.2754631277700333 Si
   0.9605379249789211    0.7905081768016893    0.6142292949511798 Si
   0.7073988894999854    0.2889490347500313    0.2778592540706354 Si
   0.4631202706004661    0.7933670195511131    0.9403557465163022 Si
   0.8409641016388556    0.7911027040906546    0.7282967229426842 Si
   0.2946752568348986    0.9587780612142800    0.6118823792458726 Si
   0.7975677329457592    0.4570214248863633    0.6182638143192556 Si
   0.7975874286473412    0.4683665155603383    0.9452021656156440 Si
   0.7895329354542783    0.7097508859227638    0.2771608861861635 Si
   0.0353647442778598    0.7053958575513700    0.2757647339048407 Si
   0.7995107490720818    0.7187829397912865    0.9431942274045868 Si
   0.0465143791922985    0.4681225716683903    0.9398491829854609 Si
   0.4564640733565759    0.6677452809209814    0.8383010306971371 Si
   0.0419777757904255    0.4632767133345829    0.6131230413507105 Si
   0.4581211402492207    0.6714912642430844    0.1680251146317150 Si
   0.1597748483002890    0.2033041931847179    0.3879726596857264 Si
   0.0452972696693316    0.2003673828856571    0.2727147745618176 Si
   0.9577284761086646    0.9121969980241558    0.8355424485283950 Si
   0.1664768952256136    0.4585283819316647    0.7244108670696937 Si
   0.1660957099473230    0.7072801065173698    0.0549204569925082 Si
   0.7815058388220237    0.9577248494787709    0.9505332346685268 Si
   0.2888437717101560    0.2063607246262773    0.6093442979062630 Si
   0.0404745922913209    0.7106849948301348    0.6110643726885271 Si
   0.7874953093839161    0.2073760936177705    0.9402744451860970 Si
   0.2858281746242927    0.2029493998521400    0.2773426057007899 Si
   0.2918731805521551    0.4575296989593644    0.6107631165394202 Si
   0.2857261295492449    0.7046052804567121    0.2790387017591018 Si
   0.0434037959658690    0.9601442083932622    0.9436416465969679 Si
   0.8285232195323851    0.7903026490591264    0.3895737954096903 Si
   0.5397036092743044    0.2067216704437501    0.6111482656813180 Si
   0.7943645192197826    0.4603575489945845    0.2743367359623474 Si
   0.7098141143464115    0.1634120144020291    0.5022667562614902 Si
   0.0403868082808290    0.9626508809855889    0.6158113894012235 Si
   0.0374984976255730    0.7105909621097835    0.9469414079682643 Si
   0.5407403975265033    0.9556783239773224    0.2848314906432790 Si
   0.5372333135389427    0.9576470953751779    0.6140220395983363 Si
   0.4664482071525589    0.9193078913542263    0.5006211722007959 Si
   0.7917578055882373    0.2121286039594986    0.6071822760869239 Si
   0.7013070032703796    0.1633277275743505    0.8327589686281638 Si
   0.1646181479791913    0.9566270415289996    0.3896725931988502 Si
   0.1704924534458652    0.7107650787076957    0.7261425370292548 Si
   0.4187585948333131    0.2035470475959983    0.3922544212664140 Si
   0.9105018363971382    0.9588713831536786    0.3866386788628178 Si
   0.2049941013844843    0.4197469160767146    0.1629846058885445 Si
   0.7108362723578189    0.6687809850626367    0.1692530772438872 Si
   0.7102708677840880    0.6758728275897137    0.5028090266947877 Si
   0.7116869644583870    0.9218408211040446    0.1671067988898145 Si
   0.2105301877065055    0.4200298195152521    0.4976355857561964 Si
   0.9142330695043294    0.4601953081101053    0.0585756837164340 Si
   0.7045428246566664    0.4124541693925575    0.5031029425563275 Si
   0.2113586149426268    0.4193672681888522    0.8291330064610116 Si
   0.9169142536679463    0.2051197606951950    0.7201924350824692 Si
   0.9178786278108211    0.2068819348854534    0.3929828249511968 Si
   0.7078121995429014    0.9097176152851528    0.8396143946938288 Si
   0.4613814924985290    0.1680439324526079    0.5012771224608895 Si
   0.7057890083072217    0.4096692670361263    0.1645561276821204 Si
   0.6685591041313882    0.7077226854068053    0.7224804237763343 Si
   0.9582728629030661    0.1652352764769982    0.4955695727031980 Si
   0.6662467686996526    0.4609330595639454    0.7240684540175198 Si
   0.9594249644317421    0.9225140832692516    0.5065263059022570 Si
   0.4560125077638943    0.1674681589320153    0.1710251381360251 Si
   0.4206164770153549    0.4563166024967096    0.0539401746355019 Si
   0.9588074017380552    0.6701073007899779    0.8377717123336702 Si
   0.4090817888537132    0.4472093009252735    0.7247023550537497 Si
   0.4177402741959655    0.7063239443564512    0.0553418148525969 Si
   0.6689102382319652    0.7174219511931097    0.3869397691218435 Si
   0.9616208135312222    0.6642825210816579    0.4948413757582665 Si
   0.1995684833239021    0.9168597112643302    0.8361608521439889 Si
   0.9570030857805703    0.6649316553311825    0.1671804617860941 Si
   0.2068296416157389    0.9150309360826444    0.1644587056272970 Si
   0.6598156434862256    0.2023510156259755    0.7218082145144206 Si
   0.9679030179973759    0.4245405011710451    0.8291163522957987 Si
   0.2896294576766258    0.2063948789739763    0.9422571555508998 Si
   0.2476954935481266    0.6247889804459693    0.7233414981183013 Ta
   0.5023701257148881    0.3744495390149141    0.0605321104638560 Ta
   0.6194631944209532   -0.0061218653266181    0.1676857951738206 Ta
   0.6346535259097027    0.5075785539623903    0.5004360293251494 Ta
   0.2499299556268001    0.8769503625324666    0.3911167661211424 Ta
   0.6351400215437187    0.5063401099808005    0.1731864783889667 Ta
   0.4996762036184826    0.1215814742115769    0.0587489484219367 Ta
   0.7531794095010069    0.1331685558603127    0.7203536461294313 Ta
   0.5014125543572244    0.6294840950879729    0.0629938254211042 Ta
   0.6227373719800583    0.1190474152600037    0.6094634646889198 Ta
   0.3707148698371567    0.3725014134556754    0.2754799583033583 Ta
   0.0052440940056484    0.1255694888667553    0.7222463586644362 Ta
   0.3692044867229048    0.1255884258986098    0.2831093224000624 Ta
   0.1247795288122181    0.8819908253716956    0.6136544127664748 Ta
   0.8646102306454921    0.4976149355960990    0.5017098924617212 Ta
   0.1237505850206038    0.6269072285010892    0.6149991664378451 Ta
  -0.0002652069780049    0.3807288182493833    0.0470944680084147 Ta
   0.6302378851247107    0.6252206180131463    0.6125666534309662 Ta
  -0.0017089843026257    0.3754808559631957    0.3907123925735100 Ta
   0.1237530903598443    0.3739232980133133    0.6089125043080315 Ta
   0.8851681474771924    0.3871470827603326    0.9388582615142953 Ta
   0.0009076854894001    0.6254931756817527    0.0549521140817338 Ta
   0.4995615407712347    0.3716680303235388    0.7251258559909436 Ta
   0.6270712865385665    0.7564994908787159    0.1672387612584472 Ta
   0.8740899939893325    0.2492495707030694    0.1621710428129062 Ta
   0.8681852416607994   -0.0048157975517327    0.8412156306939701 Ta
   0.5059562060757115    0.6237850694098191    0.3836738570568451 Ta
   0.1261370078387236    0.2542374334157472    0.4961336558886047 Ta
   0.1218403585150104    0.2530351533235522    0.8275705616426754 Ta
   0.3766344042660900    0.6269123733471111    0.6098307624462034 Ta
   0.2445045768207014    0.3695727793761027    0.3874602124639733 Ta
   0.1211540770135482   -0.0006575462636609    0.5007843897332626 Ta
   0.1185237863083407    0.7477458553059502    0.1621353514417088 Ta
   0.2422476583190800    0.1221871912709645    0.0515302610324029 Ta
   0.1250542968443602    0.7514052048819637    0.8403511003737562 Ta
   0.3753342774734379    0.0035733770608370    0.1664794294211802 Ta
  -0.0035674906582012    0.1228510661700028    0.3872464507129754 V
   0.6272566329435602    0.7489964371438409    0.4965431502265127 V
   0.8706811385533867    0.5047620061928509    0.1647358697719132 V
   0.2524462849908484    0.1249622548487266    0.7136029911379567 V
   0.0036222145293882    0.8792092605986875    0.0481302810486867 V
  -0.0047796241357124    0.6229647598249705    0.3823021881749530 V
   0.8812965232098635    0.7492101557435111    0.8374209575916983 V
   0.6342322744370272    0.2508029532736056    0.8310942628849792 V
   0.3811048706152120    0.8821235561333184    0.6056161636539394 V
   0.3657592305787271    0.3684848899035614    0.6172753003895758 V
   0.6330897806395087    0.1267954626462231    0.9466423011173979 V
   0.6381858736494447    0.3806269330743212    0.2794932312041602 V
   0.1119502770786519    0.8671480503611951    0.9397168306026603 V
   0.1198013832682656    0.6261509853112256    0.9493308276244732 V
   0.1140352139477295    0.6258082755288695    0.2800572952262452 V
   0.6228945559458730    0.8761243336088173    0.2745653276220744 V
   0.6214548371726956    0.8769171473687594    0.9403266247433100 V
   0.8693255605300891    0.3769082390760975    0.2791853386847294 V
   0.1303008914031650    0.1222239571849420    0.6091416599704930 V
   0.8744317779359734    0.6254687308566913    0.2713822508761758 V
   0.2412581110910970    0.6232943933532901    0.3833274966422106 V
   0.1261035007606383    0.1224226850184428    0.2814040649419781 V
   0.8789174074371613    0.6298825458987855    0.9459447603375775 V
   0.1125512026314506   -0.0124422098849978    0.8337194782609685 V
   0.7527666507309114    0.8738462458582710    0.3860225083360559 V
   0.1257751920258000    0.2606926491185194    0.1626122693386176 V
   0.1191808113533562    0.4929856360725014    0.1601428770531515 V
   0.7617398733378672    0.3897074306108745    0.0521532513941513 V
   0.1224730711879241    0.4924651606787233    0.8332686097386510 V
   0.5057154417450043    0.8739701830892836    0.7181271340861159 V
   0.5021551926725356    0.8748711605411909    0.3913121289412895 V
   0.3735745313757600    0.2520989341639058    0.1709612328559504 V
   0.5042806183165239    0.1243629008520042    0.7176533269084061 V
   0.6230821027151475   -0.0002697713466737    0.5076341962428953 V
   0.8838811341419061    0.6277308913451298    0.6056593470593620 V
   0.3817571136347271    0.6293847242935927    0.9492610655167010 V
