Ta29 Nb29 V28 Cr29 Si288 Mo29
1.0
   9.4075456575560636  -16.2958530120309462    0.0021991982985119
   9.4143772687602407   16.2997974466105369   -0.0037125595301698
  -0.0015550369465064   -0.0035099373090215   19.4035774722315040
Cr Mo Nb Si Ta V
29 29 29 288 29 28
direct
   0.6202285041451353    0.7532857096939989    0.1603770882223612 Cr
   0.1234965783193720   -0.0036935878196119    0.1676164800652986 Cr
   0.6213611173607881    0.7498967098111851    0.4991552888321852 Cr
   0.5020481733440517    0.1213792453707701    0.3813910161510951 Cr
   0.8674478309813939    0.6239976829260979    0.2758712939472194 Cr
   0.8728891633947897    0.1231138471571995    0.2764815257359020 Cr
   0.6281608947457835    0.6305439614351811    0.9445185237915175 Cr
   0.2435770772306262    0.6198545852899996    0.7179956367233226 Cr
   0.6197120132264760    0.6228714823449653    0.6127455283846612 Cr
   0.5069995520125967    0.8808138791289516    0.0509444529956832 Cr
   0.5015910497628575    0.8749654117527949    0.3894686485842490 Cr
   0.6250421431510997    0.1240140765658283    0.9403748029480106 Cr
   0.7429665910697041    0.1238092991631649    0.3918781176707961 Cr
   0.7470883163182221    0.1239499876114472    0.7205410175606051 Cr
   0.3794622474310799    0.8771764516488512    0.6139717621872769 Cr
   0.6222818077364987    0.6187929533891244    0.2860083634398759 Cr
   0.1281276702259647    0.2564158930721188    0.5012050688668308 Cr
   0.1264298828406213    0.3774598848821992    0.6095204407469895 Cr
   0.3852426664431405    0.5157101858123476    0.1705497811750484 Cr
  -0.0014518408368337    0.3720018035637216    0.7204655722698634 Cr
   0.0071828643857086    0.6220560704291994    0.3947454823437263 Cr
   0.3746751397503982    0.2496067303901944    0.8303174451397801 Cr
   0.3760112760771619    0.7451476050958616    0.5010808277138182 Cr
   0.3801559172196263   -0.0038274526459932    0.1686991708079408 Cr
   0.2512483440495415    0.1255263252008266    0.0508983758683295 Cr
   0.3708279066508905    0.7454936794255280    0.1763001756348652 Cr
   0.6226964717363149    0.4982719927569186    0.4992978133220602 Cr
   0.1272069266632267    0.5016889297517768    0.5010572277786808 Cr
   0.1285612416062290    0.5022601907986542    0.1703401572338852 Cr
   0.3761596634386359    0.1247939598359731    0.9420873851259224 Mo
   0.3796338374361278    0.6303735240688167    0.9494898211654254 Mo
   0.8733985839838171    0.5012655265577798    0.8308229022916420 Mo
   0.3812122692464823    0.7546724933822558    0.8333316339437080 Mo
   0.3758557800524376    0.8803145435439182    0.9485042549318184 Mo
   0.6224637561455634   -0.0019580204848730    0.8300816104402914 Mo
   0.3776162770422480    0.3706449916281035    0.6085240329900111 Mo
   0.3759662909183324    0.6295007462898806    0.6112463639547737 Mo
   0.1195785897563087    0.2470628457689250    0.1676150220397954 Mo
   0.6288608929163372    0.3772449950178734    0.2782170322262718 Mo
   0.1222888452748689    0.2488136956561018    0.8275986528065016 Mo
   0.6236610275532841    0.2485501201115593    0.4960522833301738 Mo
   0.8756018407933089    0.2533737539785199    0.1675919145483175 Mo
   0.3778176877768018   -0.0039046396863694    0.5022666625538315 Mo
   0.8684114934705363    0.3711262830519085    0.9447820424480127 Mo
   0.8763764854238288    0.7553546076764596    0.8361453402788599 Mo
   0.8701881781141024    0.8720425673940208    0.6093724132388286 Mo
   0.1272251966052020    0.0015100597691472    0.8353269106055917 Mo
   0.3764032192247339    0.5037807263452103    0.5005454544172903 Mo
   0.8785634365630661    0.6244950430691434    0.6105998895612428 Mo
   0.6222510756355202    0.2459057517531650    0.1638797683321309 Mo
   0.7431618680168675    0.1209196727219148    0.0562003523523239 Mo
   0.4994757465301946    0.3760906001867966    0.3885175704842924 Mo
   0.0006845204621743    0.1260653087968643    0.3932619576893588 Mo
   0.1244196669259741    0.1275040396480056    0.6099826925402830 Mo
   0.2521493552405972    0.8766622437968954    0.7293754462715731 Mo
   0.7442985824871817    0.6218589765309165    0.7222597908201731 Mo
   0.2473395679980749    0.3760947923315225    0.0558624331060383 Mo
   0.2524036249251460    0.3783924189076083    0.7197900629842870 Mo
   0.8653093369081426   -0.0027867739553318    0.4968918693486264 Nb
   0.8758900390657522    0.3742709657834509    0.2800461782615675 Nb
   0.8754358556385538    0.8747996911813924    0.2754958735332687 Nb
   0.2504067090324972    0.8791581402703840    0.0628851208812261 Nb
   0.2564316722355890    0.6303890828895636    0.0595926113412093 Nb
   0.1246203999818730    0.1268431198554364    0.9434556481905069 Nb
   0.1266868697537359    0.5002822280999972    0.8318773144554694 Nb
   0.2494139366876997    0.1233919957986186    0.3890786969054236 Nb
   0.0012163755346287    0.8792751919672026    0.7230259775705271 Nb
   0.3807462525390758    0.0038752066656279    0.8336423800145958 Nb
   0.0062079490708198    0.6292760649752460    0.7228905571012205 Nb
   0.3787298661067576    0.5037980245854535    0.8336640845854207 Nb
   0.6164694793763780   -0.0071702620441955    0.1678266311911353 Nb
   0.6195739164985362   -0.0067299845594236    0.5005637438719522 Nb
   0.6172811725936819    0.8682535515920372    0.2765539466591122 Nb
   0.2541822201805897    0.3815360281364342    0.3885731982233688 Nb
   0.8708451388259383    0.1233138691311238    0.9431719072790374 Nb
   0.3752758878305590    0.3789523589945746    0.2743285667025637 Nb
   0.1283818560709048    0.6259593998081144    0.9471550013351772 Nb
   0.7459044091402455    0.8748792646559049    0.7185856280561480 Nb
   0.3709128975189283    0.1230325395879120    0.2728732587449130 Nb
   0.7439008203830413    0.8688337470636812    0.3831892814409351 Nb
   0.7502035972162251    0.8744555786162054    0.0504877669661515 Nb
   0.3746925870327226    0.3770679624113917    0.9425142387093309 Nb
   0.8740880361107352    0.7492236065971577    0.1671636488809871 Nb
   0.7506342760763099    0.3687421455277731    0.7213041660769591 Nb
   0.3817765807441507    0.1262007183411811    0.6106909378793873 Nb
   0.7456722068247255    0.3758680094276496    0.0548440022883071 Nb
   0.8730968916868108    0.4959494133510282    0.4998192650482376 Nb
   0.5473011614152294    0.0885659326617439    0.8339965694626070 Si
   0.2958418054794029    0.5931978239989056    0.8297378243979480 Si
   0.5446901624271374    0.5890153014736104    0.1741828765221985 Si
   0.2133843070001327    0.0372730641970472    0.9477984643618292 Si
   0.5458921703911802    0.3362400294197111    0.1665577581446614 Si
   0.2904675517320784    0.5835553480180198    0.4994250224480757 Si
   0.2058550392114888    0.2904000281689911    0.2776954005183126 Si
   0.7870215714611843    0.0797110138574746    0.8267112791780975 Si
   0.2089848718765459    0.2966776743429203    0.6083348332915985 Si
   0.2078219662856799    0.2963555765300598    0.9402205157695824 Si
   0.5495429613624057    0.5918713231585911    0.8365337101400462 Si
   0.2122878776333931    0.5471182536554282    0.2809405273296096 Si
   0.2083179825519045    0.5389357063390667    0.6091927406208758 Si
   0.5303759635862983    0.8263195297828574    0.1604704588241226 Si
   0.5428276936706992    0.8347148060118967    0.8324680708963981 Si
   0.5364932746353943    0.8263493994295582    0.4994497640286614 Si
   0.2961933211945552    0.8311708499635753    0.1710290900016787 Si
   0.5430805827273980    0.5870801541231050    0.5023700609607964 Si
   0.5348701567594218    0.3270894621672916    0.8290326013926597 Si
   0.7885152325342273    0.3231074506597768    0.4996029946578331 Si
   0.5402886092164204    0.0857371591276926    0.4962315868115740 Si
   0.7977942060989114    0.0946239541486643    0.4946807317880263 Si
   0.5406060472285416    0.0826895326843151    0.1639249249299763 Si
   0.7877620029226705    0.5782911889775829    0.8333998745948424 Si
   0.7808434419214625    0.8242911791883738    0.1643876289108604 Si
   0.7838435578651500    0.8261307628196798    0.4979845976285987 Si
   0.2890072086553749    0.8241590023351313    0.8387036783453238 Si
   0.7935197801714933    0.0887949428205239    0.1695902777948284 Si
   0.7815734038058061    0.5775401070316856    0.5089396338768136 Si
   0.7875930484791535    0.8312437778000252    0.8307867685033901 Si
   0.2986606487925812    0.8275011359939696    0.5082894760480513 Si
   0.2041151135047236    0.0346771569867956    0.2750084528061969 Si
   0.5463490943849194    0.3360953458790317    0.5001061629958650 Si
   0.7875315075945281    0.5773435362730512    0.1709669032765377 Si
   0.7847613468837924    0.3190162436670140    0.8339620757455779 Si
   0.2044262163135544    0.0412276762164964    0.6122332739547734 Si
   0.7875020468188867    0.3307624137453863    0.1668179199912756 Si
   0.0421735453927846    0.8378731900998867    0.1673853096964281 Si
   0.2876205296848064    0.3235566816329268    0.8295812301015397 Si
   0.9270864672052852    0.4629660392728217    0.3901119987065141 Si
   0.9128122787828953    0.4569751872974795    0.0577370204029199 Si
   0.9114645140900326    0.2064520831108167    0.7213164124126350 Si
   0.9048699125069131    0.1999894134702803    0.3886628238928311 Si
   0.9199628744789019    0.2116338237403020    0.0553559533813760 Si
   0.6647850605944980    0.9616349610868817    0.7165050961579136 Si
   0.6669245332227030    0.9637978988275357    0.3852946710837056 Si
   0.6648621701155555    0.9577293097187527    0.0513639250519558 Si
   0.6658199885209707    0.7084134646467766    0.7174869836486598 Si
   0.9238542984153386    0.4578290934353831    0.7246942699406659 Si
   0.6586886169499027    0.7007008936272225    0.3930425626811673 Si
   0.6683005283086730    0.4548257884609059    0.7191009783534346 Si
   0.6655759945456018    0.4568788339591876    0.3934835367503973 Si
   0.6637984645033606    0.4611001780642784    0.0561508430733146 Si
   0.6617569355233562    0.2004296042170601    0.7186653515814434 Si
   0.6646536370888362    0.2034732574372585    0.3840526219295370 Si
   0.6617816917623617    0.2012075305176838    0.0497149175445009 Si
   0.4222905739998578    0.9598090952907358    0.7210482598911905 Si
   0.4233456505398247    0.9584434470806601    0.3886704582188734 Si
   0.4271134831794943    0.9638654935637916    0.0610474930432136 Si
   0.6681015609302422    0.7113408206365562    0.0544890548488991 Si
   0.2935731634222812    0.5829342047493404    0.1726263691906168 Si
   0.9284981082174271    0.7191905543459828    0.0557184264448403 Si
   0.9110431977035325    0.7053811749680818    0.7243860829532972 Si
   0.2884887976188940    0.3296049751123552    0.5002531555793873 Si
   0.2802609919131317    0.3182960330874881    0.1647545434327277 Si
   0.2897252025822885    0.0882651729315087    0.8314398364696314 Si
   0.2854511152900778    0.0755883417771090    0.5035308795461616 Si
   0.2850316678467473    0.0833730160323868    0.1586929522436326 Si
   0.0446387588706075    0.8367413426099527    0.8365746600578803 Si
   0.0425360023864446    0.8356185907813561    0.5064372976226265 Si
   0.2159671887304933    0.5439007629431438    0.9458802242699674 Si
   0.0361787387968387    0.5786601490596167    0.8369299449848171 Si
   0.9164407421482962    0.6973124603619693    0.3878281198591628 Si
   0.0454141810156077    0.5772684055229681    0.4998785137245532 Si
   0.0329773622977392    0.3249263575848493    0.8256936039168792 Si
   0.0443782286732191    0.3315775941784510    0.5034163576982119 Si
   0.0465858994809857    0.3382973850202368    0.1681206701641371 Si
   0.0372937224172124    0.0780456369320044    0.8295804118067416 Si
   0.0397713865315441    0.0751108070505651    0.5013736609294855 Si
   0.0443255083459159    0.0786077577889760    0.1650660430494877 Si
   0.9144540685237746    0.9600129364252871    0.7202805476992613 Si
   0.9213266361385113    0.9633111068502915    0.3881857244128370 Si
   0.9186807170828519    0.9551153552745661    0.0484937641158662 Si
   0.0419478944135030    0.5776143244123848    0.1747325167562644 Si
   0.2137345934023017    0.7854644114087308    0.2807503782687351 Si
   0.2922648281922818    0.9612021362775648    0.9474067684482981 Si
   0.2107399233647604    0.7960451801457038    0.9489724012618722 Si
   0.3406422782284540    0.8016543844020966    0.7222348619658039 Si
   0.3446368997326991    0.7941323090522697    0.3954936057577320 Si
   0.3525921138182510    0.8027484783100506    0.0629132509477336 Si
   0.3264134266724085    0.5433201821379535    0.7218550258168673 Si
   0.3355247114574163    0.5497967080126991    0.3887537233154637 Si
   0.3368880738477439    0.5401040853999770    0.0603626503864370 Si
   0.3377784184648524    0.2878924354517799    0.7216266856543840 Si
   0.3368823711566417    0.2946588512121088    0.3891352155463300 Si
   0.3254192627525133    0.2839140445987664    0.0505208182951034 Si
   0.3313405600391354    0.0443552209736415    0.7234320163841055 Si
   0.3453483722379707    0.0494444462233505    0.3936545622269606 Si
   0.3443786570983005    0.0502855436527645    0.0603676099679397 Si
   0.0874845017001914    0.7981650171743133    0.7230304083365955 Si
   0.0746194742959853    0.7799268177361673    0.3937515957862076 Si
   0.0815414060116210    0.7958850928049760    0.0581337055100009 Si
   0.0786450029697267    0.5330030904771200    0.7188471591045226 Si
   0.0899140373008312    0.5448549065839343    0.3909588667285311 Si
   0.5801137052943138    0.0404576322932260    0.0501699478258543 Si
   0.5826385174511337    0.0447719454467706    0.3892166880809665 Si
   0.5829132512547164    0.0438032130591707    0.7197456997683692 Si
   0.5714223581471627    0.2825226310950558    0.0550944451207343 Si
   0.8443980848326149    0.7959893413638753    0.0494585376318405 Si
   0.8274347182220704    0.5414201196326032    0.7209572228816830 Si
   0.8433410041754578    0.5444575829485916    0.3826266681392231 Si
   0.8338456279877795    0.5425196824254268    0.0616583234286825 Si
   0.8357367891171822    0.2831021691767692    0.7219092234997070 Si
   0.8316337983384229    0.2834169105192508    0.3923901841495465 Si
   0.8235435564626910    0.2833075569197123    0.0552632558631716 Si
   0.8315810951943789    0.0474622451877778    0.7185764930470673 Si
   0.0835293091838699    0.5421999176956046    0.0652339031301710 Si
   0.8226763845039012    0.0425280575374548    0.3828996454550032 Si
   0.5740424105927399    0.7914938054640777    0.7212467013386179 Si
   0.5758222557574056    0.7872708896523612    0.3925116545307035 Si
   0.5768230500941985    0.7941582651022466    0.0517684293610605 Si
   0.5772017639626694    0.5362470434563985    0.7169900544969432 Si
   0.5759473461495332    0.5380951638779466    0.3931585809682346 Si
   0.5841718969755688    0.5462511468365594    0.0539621480693422 Si
   0.5775532320637368    0.2867553801850562    0.7197155529239208 Si
   0.5772454106616018    0.2852604343550005    0.3857612847618319 Si
   0.8294428935298930    0.0468546071343098    0.0591590318069485 Si
   0.0839495435903665    0.2972936785537912    0.7148415271329047 Si
   0.0833910006559896    0.2904624297767010    0.3929140443306251 Si
   0.0753999217853453    0.2874966463686010    0.0567369278253387 Si
   0.7023831197041295    0.2835386605897830    0.9424239086251474 Si
   0.7043075235639663    0.2843530874634732    0.6088180800880914 Si
   0.7044872262057527    0.2850123696807185    0.2765969621049222 Si
   0.7013575055497137    0.0365584026294064    0.9423134612098204 Si
   0.7117004366792475    0.0467262953690470    0.6107952325836560 Si
   0.7110052797480091    0.0488473515487732    0.2789841910694644 Si
   0.4675105509807147    0.7943459994580706    0.9468220745332210 Si
   0.4569646591427240    0.7962495128277837    0.6088972979846353 Si
   0.7040300746799563    0.5405847076134678    0.2779559853046733 Si
   0.4531921861585053    0.7897488449405935    0.2805087561368276 Si
   0.4621686636067604    0.5342750603720029    0.6101070845893344 Si
   0.4633990616925146    0.5506838946481368    0.2806491300860353 Si
   0.4542918292160145    0.2887978029903976    0.9380713464692989 Si
   0.4659510796487932    0.2938958118626945    0.6097217076383216 Si
   0.4657627503122017    0.2934868271307396    0.2754285755642266 Si
   0.4690748577188583    0.0415687601083922    0.9450771451482817 Si
   0.4638172440509095    0.0384679833022200    0.6130507197165107 Si
   0.4624171219115824    0.0363628644763139    0.2749836961724650 Si
   0.4678649012414411    0.5450331840883695    0.9461489499178444 Si
   0.2165386722837123    0.7959012443883161    0.6172548252880959 Si
   0.6955159255936947    0.5364941694232437    0.6103174118761050 Si
   0.6976286065182450    0.7763618746060684    0.2693752783686648 Si
   0.0890801985786117    0.0469199448831393    0.7221682336192127 Si
   0.0804466155404669    0.0389148459689447    0.3917749969786899 Si
   0.0909894105061814    0.0417247499269217    0.0569634522914225 Si
   0.9629996264574915    0.8008419866161161    0.9449336597877834 Si
   0.9579069081229157    0.7895310359546205    0.6137040642726268 Si
   0.9582279384167156    0.7808351351350904    0.2790959822927556 Si
   0.4200814628055891    0.7161771925356017    0.7198094505737959 Si
   0.9546903137541147    0.5364428160177365    0.9451074645441330 Si
   0.7055952128694241    0.5475778591497845    0.9431202083682764 Si
   0.9607499796004698    0.5417188140634854    0.6120610581911479 Si
   0.9539487869366455    0.2940478163691731    0.9375971501681825 Si
   0.9634854389884309    0.2904635270815818    0.6138334996212651 Si
   0.9617242274878289    0.2834441361559702    0.2771326033583654 Si
   0.9548876004107273    0.0337897852986928    0.9378859885456370 Si
   0.9534099775576529    0.0372652536517350    0.6083868972232969 Si
   0.9541828814988351    0.0466971461106379    0.2805977672972218 Si
   0.7056308241911849    0.7894954303620337    0.9379577071904706 Si
   0.7027756544737559    0.7869239531846640    0.6058732066438847 Si
   0.9537708821611287    0.5485299023429062    0.2844998129408326 Si
   0.4207058759881842    0.7114125934159906    0.3915172741964181 Si
   0.8328043611899194    0.7850204708661492    0.7196563721396911 Si
   0.4154144041704870    0.4543810713694639    0.7193435200020920 Si
   0.7090503158376247    0.4140217172674335    0.8321495792674358 Si
   0.6970714123280318    0.6671600605846687    0.1740212321432187 Si
   0.6957802498504390    0.6596237325697403    0.5036159008976661 Si
   0.7080182417239094    0.6742224058026176    0.8325213991857149 Si
   0.7044090691094859    0.9137290809530886    0.1636236663377370 Si
   0.6990189119722228    0.9059020861671934    0.5005630075146962 Si
   0.7078918117186119    0.9198309705029288    0.8317278493649860 Si
   0.9538227934857081    0.1665323350387150    0.1674319586969600 Si
   0.9645125210847401    0.1755365733019160    0.5010439092923655 Si
   0.9586881920780599    0.1701056437741864    0.8329296560161887 Si
   0.9611535591512668    0.4227623620931333    0.1668267989286498 Si
   0.9659564992940453    0.4186679493705164    0.5026069672547741 Si
   0.9511240749548276    0.4021760581619946    0.8305589722666173 Si
   0.9542170101966437    0.6594406252688980    0.1740572443385174 Si
   0.9628864345603451    0.6659537760219465    0.4976208897647488 Si
   0.9534749672203970    0.6677253077616767    0.8336348224870236 Si
   0.9654851928777715    0.9226706367816259    0.1633053411313649 Si
   0.9628613927665337    0.9228498558642054    0.5024007803360571 Si
   0.9546188111263905    0.9230943672007048    0.8329353630095701 Si
   0.0314129090362541    0.2042136779533471    0.2781189744019965 Si
   0.0457447678198142    0.2147779444077459    0.6071748251211703 Si
   0.0430870480032173    0.2106025866241319    0.9434231072626658 Si
   0.0436236291373527    0.4641352953916788    0.2754796838624688 Si
   0.0467315170244725    0.4515974644250513    0.6109548708570834 Si
   0.0333739301676233    0.4602679232700638    0.9398664895263834 Si
   0.4215825373232821    0.7216032983159241    0.0631220659999352 Si
   0.0346086444656132    0.6978171428249530    0.2854866555947936 Si
   0.7115020374768760    0.4271017441645162    0.1661729124689151 Si
   0.7119847532281700    0.1704130159265967    0.4993307869238374 Si
   0.2055267504964058    0.1559746794866219    0.1628265790718176 Si
   0.2077542137690167    0.1750801339316332    0.4995062004316246 Si
   0.2118014748211743    0.1688061090428001    0.8295119305683560 Si
   0.2191374727539221    0.4307307648031771    0.1662461180165405 Si
   0.2043153810290346    0.4150848036122646    0.5037639292163061 Si
   0.2107127363215831    0.4157229639455722    0.8326254007875425 Si
   0.2108004260299524    0.6662675097784991    0.1732262964743962 Si
   0.2203449876126504    0.6681407960638961    0.5011373850934501 Si
   0.2159108533235359    0.6675610612010012    0.8303134903923817 Si
   0.2195564544281169    0.9326042993441404    0.1744256174175788 Si
   0.2123478039096812    0.9210578456669767    0.5043261611581316 Si
   0.2110818866626287    0.9230338079020284    0.8403853023321718 Si
   0.4570225574020320    0.1566911762453873    0.1620613381959032 Si
   0.4590157526090459    0.1596334499058655    0.4903428801034485 Si
   0.4611457835497935    0.1721140747588161    0.8308474540177943 Si
   0.4636666223233256    0.4313699174527100    0.1660169025934007 Si
   0.4627477684748414    0.4241653128780178    0.4991566065129943 Si
   0.4527673855496192    0.4096807750887071    0.8251417233701396 Si
   0.4586863013533531    0.6731211497341527    0.1716454672860468 Si
   0.4609249065489788    0.6697715398493844    0.5008861432662276 Si
   0.4632510859960748    0.6721647442421003    0.8351974986139987 Si
   0.4496537137997594    0.9031439526143245    0.1658648130273578 Si
   0.4531550159189540    0.9070681670004705    0.5003459697665602 Si
   0.4599624333189964    0.9175087577909852    0.8318452291874576 Si
   0.7106428039863085    0.1730246237455111    0.1684156161281998 Si
   0.7068793573332528    0.1665880137614321    0.8302291411120414 Si
   0.0416118385796943    0.7188303241322076    0.6119896330249214 Si
   0.7037244258757037    0.4175158281588583    0.5008935903888433 Si
   0.0425830861598267    0.9565177655173219    0.2745562857254259 Si
   0.7852264721211368    0.4587615383466632    0.6109508362156681 Si
   0.7882463826129652    0.4592641592143492    0.9414231190301011 Si
   0.7828962157078599    0.7043417220054963    0.2797489474088734 Si
   0.7807611678596654    0.7069452817814044    0.6105185692576457 Si
   0.7873321531603480    0.7126841811403174    0.9444906212901484 Si
   0.7884114630311669    0.9621190046770089    0.2739790716236208 Si
   0.7873259826284581    0.9564258370400833    0.9371927712660195 Si
   0.1743136194773515    0.2112014741532735    0.0571031506661225 Si
   0.1618186096432233    0.2108182773364054    0.3932197890790665 Si
   0.1777430120434375    0.2144631963867628    0.7194434031709460 Si
   0.1658598488174294    0.4608530834248076    0.0578895133137027 Si
   0.1747422683289182    0.4698009135619064    0.3961641162455573 Si
   0.1678253996477736    0.4574608154178409    0.7173796449772489 Si
   0.1755687083535451    0.7137093470380903    0.0599123079329968 Si
   0.1702705603606594    0.7039476919124296    0.3907696963963738 Si
   0.1758283999330295    0.7101571379637670    0.7250984472852876 Si
   0.1663175178020308    0.9621867956562328    0.0585930072487948 Si
   0.1723608177244184    0.9564664157767039    0.3931182822460445 Si
   0.1779380475724957    0.9654831752578840    0.7229201842174414 Si
   0.4207906026681543    0.2052067790838037    0.0532818244045821 Si
   0.4261104653583523    0.2090409711674679    0.3849580265960965 Si
   0.4186266860065669    0.2117846470312900    0.7239642211134701 Si
   0.4062666568080024    0.4558963286111193    0.0628352319177357 Si
   0.4236457595470671    0.4657704851694145    0.3889250119677115 Si
   0.0390759128153970    0.7149882302456569    0.9484719054527193 Si
   0.7932062463858041    0.4625903377148957    0.2760426035262259 Si
   0.7836675107077185    0.2047800930103786    0.9418346259013066 Si
   0.7800878685467568    0.9639448511629085    0.6088204728703187 Si
   0.7884814610850897    0.2016376394795477    0.2816302438859276 Si
   0.0480007642199022    0.9625362800904206    0.6105370023559268 Si
   0.0368790247131507    0.9539430834210465    0.9435310461323291 Si
   0.2907147754897193    0.2134463853710375    0.2782207272643657 Si
   0.2882985412700985    0.2082619222499257    0.6120767089138534 Si
   0.2925550816706293    0.2039389638067964    0.9392883042587744 Si
   0.7903220184473870    0.2015900496057169    0.6115057673583884 Si
   0.2881925101734727    0.4657533833261920    0.6096928205404516 Si
   0.2895150234251906    0.4662194490011649    0.9443610711344244 Si
   0.2917110454523595    0.7104588027426175    0.2823816063001349 Si
   0.3009986476712124    0.7154157149359403    0.6165513742429848 Si
   0.2981694516492035    0.7175817928999315    0.9448741046251954 Si
   0.3022323244749158    0.9553789237995528    0.2790679939292903 Si
   0.2921391604007939    0.9534892543653728    0.6141938768548002 Si
   0.3002052448404406    0.4695673926172350    0.2737147402983403 Si
   0.5443131288628134    0.2052253716911291    0.2777682764566561 Si
   0.8305710012436951    0.7893867215676160    0.3888924714014080 Si
   0.5406649097688326    0.9589091916735664    0.9432362768041600 Si
   0.5377385710044276    0.9588736058672638    0.6136886034932850 Si
   0.5455007967400206    0.7111600505665403    0.9409874796196070 Si
   0.5437670373763789    0.7091334451207353    0.6077857130875101 Si
   0.5436607493888462    0.7029712758314671    0.2784243669481318 Si
   0.5370281095483481    0.9587690563176549    0.2849871359944715 Si
   0.5440364564020190    0.4573423595770648    0.6074703441442508 Si
   0.5471426405290858    0.4641269868646197    0.2772148637887593 Si
   0.5434853667603285    0.2027602888742886    0.9420251049702293 Si
   0.5467207397317095    0.2067709985519532    0.6111133622079233 Si
   0.5431885302963517    0.4684198475269399    0.9447846874227724 Si
   0.1296653435794339    0.6269450188612559    0.6107362042344473 Ta
   0.7526566815870183    0.3753716073794098    0.3884252089582644 Ta
   0.1194168045927176    0.3746621040500018    0.9425672033304390 Ta
   0.1312096949481221    0.3830119697373791    0.2807556322038980 Ta
   0.1243926681109740    0.1240762884281361    0.2789837926752663 Ta
   0.7504484321439513    0.6223253106013228    0.3924227005808620 Ta
   0.7498502564745462    0.6283769793114101    0.0600952358976913 Ta
   0.4976505581894519    0.6232458658086533    0.7210370868001492 Ta
   0.0013385454724738    0.3724509017003969    0.3886104330630485 Ta
   0.4965200140988628    0.3767250650920242    0.0541476220666897 Ta
   0.2533438998905648    0.8706099294813691    0.3930078069959831 Ta
   0.0001344131524687    0.8722931804730713    0.3896484772005129 Ta
   0.0021968233148502    0.6247772973684844    0.0594133237817947 Ta
  -0.0005810990092847    0.3770613584602827    0.0539045831050487 Ta
  -0.0022972863533583    0.1263961491658150    0.7183866780804162 Ta
   0.1266506953587070    0.8696004087829439    0.2819635010147364 Ta
   0.5033237467070576    0.6292711280705552    0.0585993490354977 Ta
   0.6203466591623555    0.3721388131508742    0.9433877087222269 Ta
   0.8743020550532525    0.7464316441705789    0.5003361105671421 Ta
   0.3762408601248665    0.2441474228917723    0.4995435335099057 Ta
   0.8743516378477828   -0.0041672604225666    0.1637467910052932 Ta
   0.6207260577923113    0.4952433893320886    0.8306668376164915 Ta
   0.3765586145911237    0.2511470906354700    0.1641945512279575 Ta
   0.1232777883666549    0.7493742375801538    0.8366875427113667 Ta
   0.1311964768533204    0.7511760393995970    0.5035963266110253 Ta
   0.1224825422559262    0.7481109167424083    0.1716080751053713 Ta
   0.8724342772997974    0.6256592522866173    0.9481076791894216 Ta
  -0.0017359333051374    0.1203141353529968    0.0536709373439900 Ta
   0.8741309432922205    0.3736872046218273    0.6119847467093537 Ta
   0.1293358993485720    0.8791606668980014    0.6134393773057891 V
   0.8763800962927532    0.4994385372991803    0.1696833852520917 V
   0.8683193988032546    0.2412260698833147    0.8316686176364226 V
   0.8798581385793189    0.2522674520463936    0.5038020714632204 V
   0.8715121647101083    0.0012874857575158    0.8286321031797166 V
   0.0041855331268642    0.8793664571315599    0.0551667004421974 V
   0.6184853869612270    0.8716806040149434    0.6108698349951478 V
   0.2536224349547069    0.1275941747175678    0.7201885514031291 V
   0.2554319562360687    0.6290957059292019    0.3896653263704231 V
   0.6243248945791567    0.7530054318270868    0.8285082761315802 V
   0.5008603395555361    0.1218007543297006    0.0527118689107108 V
   0.5001933981156309    0.1241165569881621    0.7226350579973491 V
   0.1268851365032905    0.8771831805988261    0.9484319359514172 V
   0.5030306020068231    0.3752625233673571    0.7180515026824399 V
   0.4999170067560547    0.6274078699934260    0.3913603804471957 V
   0.6230321377755275    0.2484083194018736    0.8295049402541752 V
   0.5015762443658793    0.8773711230202362    0.7210803913504746 V
   0.8778610501250081    0.1275860270897302    0.6078040772246470 V
   0.6246131841571376    0.3723171080858242    0.6113758798046635 V
   0.6251790135045351    0.1222481705918131    0.6072147233696502 V
   0.6241725969015488    0.1214118223977330    0.2758261258402468 V
   0.3766573463553103    0.8723836434714841    0.2812292142328509 V
   0.1258871408035553   -0.0021919475923344    0.5000838186396488 V
   0.1265296446743328    0.6240499598071606    0.2813420608945551 V
   0.8717625128984139    0.8749883550295269    0.9397874456203980 V
   0.3775962647843432    0.6302197251640341    0.2809182805522185 V
   0.6236107128577905    0.5043265922363680    0.1660568054037520 V
   0.6252621789498763    0.8743206378677771    0.9418031126509083 V
