Na100 Ti11 Mn45 Fe11 Cu11 Ni22 O200
1.0
   7.6171534612398544  -13.1323015468984181    0.0031822451939838
   7.5863385428662165   13.1145140339208979    0.0055478712938606
   0.0126417798723015    0.0019689333330454   21.6372586195213508
Cu Fe Mn Na Ni O Ti
11 11 45 100 22 200 11
direct
   0.6044616117369510    0.8020934287880608    0.2494381408807659 Cu
   0.4013095439464866    0.5940676787419876   -0.0009177172625502 Cu
   0.3957382894531693    0.5934780739480208    0.5008292523122575 Cu
   0.1981808612910872    0.7999116024460605    0.2500408839183246 Cu
   0.1964930228472198    0.1940755073928710    0.7512042388663497 Cu
   0.2002619695991527    0.8024310240286263    0.7507134513586324 Cu
   0.2036118808635920    0.3998766005982029    0.0018878185750703 Cu
   0.4017435420507459    0.3973079371418459    0.5002309235069172 Cu
   0.6046356657133163    0.6013559867817158    0.2492747767059630 Cu
   0.6000783895930161   -0.0025335504799530    0.2493819104493874 Cu
   0.0025111381223111    0.2034603172148985    0.2503281121485920 Cu
   0.0072474934032810    0.8075031101688465    0.5000261673459856 Fe
   0.4057241034234151    0.2021505795280654    0.2520064641004749 Fe
   0.7997809081945870    0.5976823902236421    0.2518906846828311 Fe
   0.4012110047899994    0.0013114033304512    0.4991930905935467 Fe
   0.8020005889245552    0.0020935167054125    0.2503746468318596 Fe
   0.1949872341448369   -0.0017670296678634   -0.0022364473953839 Fe
   0.1966648014801686    0.1970498474840639    0.0006333877407668 Fe
   0.6018564467275976    0.2007415958017969    0.2491729476300759 Fe
   0.2015619668106950    0.4015993893916637    0.2539572710486815 Fe
   0.5988609931193400   -0.0008040851148313    0.4981410967416440 Fe
   0.2031272113532937    0.2027392066015570    0.2518009554643397 Fe
   0.1970997762395777    0.3937914820012408    0.7512044080025559 Mn
   0.0046858665773792    0.0053206034598487    0.2448579611291933 Mn
  -0.0030409124602736    0.1997830879337886    0.7518071363596663 Mn
  -0.0033595374270919    0.4007114044144112    0.2505834331774417 Mn
   0.4035934148720267    0.8012973493616609    0.7494200400063439 Mn
   0.3986834035174216    0.7998817409089236    0.2482881106733161 Mn
   0.3961908253097529    0.5899497197354887    0.7516675810175762 Mn
   0.4017430619388020    0.4019112428087850    0.2497978686396380 Mn
   0.4024911101765012    0.0012963424626961    0.7490331715312929 Mn
   0.2006136167315280    0.6001887527402057    0.2509193298198812 Mn
   0.0019223073471191    0.6061045776624598    0.7516967957454141 Mn
  -0.0000521031945745    0.8017340971140651    0.2475642798739512 Mn
  -0.0011133837607094    0.8019535412904043    0.7514931075206991 Mn
   0.3978786170044882   -0.0023082571868747    0.2514225842095671 Mn
   0.2014443691000308    0.0028910373372265    0.2505115151986673 Mn
  -0.0036521063007772    0.5971486120821874    0.2495452458242445 Mn
   0.2016122338662199    0.5997320190932953    0.7511428424310136 Mn
   0.8035510193010652    0.8040054107538466    0.5017174740397810 Mn
   0.5984049572650124    0.8000211781919654    0.7504854797800060 Mn
   0.7917902877848815    0.7963537268316424    0.0005006821633779 Mn
   0.8077074231241466    0.6063654535927576    0.5012324814997218 Mn
   0.7902889457378839    0.5939596559444855   -0.0019147437750929 Mn
   0.7986680613874859    0.3988976592956867   -0.0018669460689917 Mn
   0.8070303270502518    0.2053166095362964    0.0010814364034566 Mn
   0.5937161433820938    0.5940391691107978    0.7494076209056301 Mn
   0.7998691843435011    0.0016258002018282    0.0003089431776438 Mn
   0.5965848960334821    0.7953262882709734   -0.0015881409708816 Mn
   0.5928908854586414    0.5871018601076243   -0.0017209366356274 Mn
   0.6069564120832999    0.2013690951441982    0.4979951938568906 Mn
   0.5972833597117754    0.1944436579941327    0.0008840498182445 Mn
   0.5993703267548623   -0.0001965123373339    0.0023648411696966 Mn
   0.3985951672898757    0.3902723791079669    0.0016343439944523 Mn
   0.8008808205409207    0.0007005681205047    0.4983692230208577 Mn
   0.3967137228678189    0.1918981009605151    0.0013757553035771 Mn
   0.4035386491428364    0.2036645135124194    0.4995377636067815 Mn
   0.8003620846408173    0.1995090404921768    0.2510069521829887 Mn
   0.8040952256890944    0.8034436721087158    0.2507952684220623 Mn
   0.0041445954359916    0.2046318941825753   -0.0005798365802247 Mn
  -0.0014267048194386    0.2003882543676636    0.5023355773250896 Mn
   0.7970489266389925    0.5998167492236426    0.7493407189747838 Mn
  -0.0082461246400988    0.7976509865618600   -0.0002106603089603 Mn
   0.2032551365518369    0.2052060491018000    0.5043939534930534 Mn
   0.2002531908560995    0.4015078755905573    0.5053096310813129 Mn
   0.1990181862458751    0.8027147859818915    0.4996181563450284 Mn
   0.0028084274127145    0.4037048929543549    0.5030469871655643 Mn
   0.8642662838732185    0.1365967339034574    0.8729543960135735 Na
   0.6725367664751136    0.7355064100373747    0.3714781167852250 Na
   0.6604799971714340    0.7249233619130500    0.8728872905645461 Na
   0.6697541138917337    0.9333752934340425    0.3704619006861259 Na
   0.6677702791747323    0.9339245404314213    0.8740020178292549 Na
   0.8764664745689448    0.1393875967517492    0.3765643282160456 Na
   0.8647984850442646    0.3325256070046805    0.3783569049337571 Na
   0.8758372720602586    0.9380067165803304    0.3734965081575770 Na
   0.8701519084635834    0.5308627525187153    0.3779244319994051 Na
   0.8633875771936941    0.5342582168532630    0.8737860553976264 Na
   0.8791293868533422    0.7424355988626127    0.3769763094648901 Na
   0.8566044891317454    0.7280131419788386    0.8731762601787004 Na
   0.8609041029472281    0.9302063140873201    0.8704910025099362 Na
   0.6554845923092787    0.5238141484702069    0.8736313066612342 Na
   0.8722351777007308    0.3385698570249028    0.8697033714829192 Na
   0.6776415110972113    0.5414872118324970    0.3695985373604627 Na
   0.1314291350387936    0.0671066876003736    0.1206921082388296 Na
   0.6737491768728904    0.3351629783407284    0.3702124019722071 Na
   0.5361270465421405    0.4611343003758570    0.1291476465859680 Na
   0.5314906690949969    0.4600111254150220    0.6239650305090124 Na
   0.5325123284395203    0.6575822065697027    0.1202979728842335 Na
   0.5272655419730483    0.6619480913224217    0.6258139394415793 Na
   0.5316395739673352    0.8624366929011659    0.1261404700388150 Na
   0.5298943340325631    0.8687304657929240    0.6262732030375137 Na
   0.7328993043455019    0.0683230035868321    0.1264657384550994 Na
   0.7404949742854194    0.0759569031204391    0.6240184346689447 Na
   0.5317230928831103    0.2622593605786477    0.6256191494324401 Na
   0.7318028087162934    0.2631570378749565    0.1249213207650639 Na
   0.7290157196708777    0.4619494062713891    0.1266878307232749 Na
   0.7397835519155986    0.4742299690591351    0.6272607412230445 Na
   0.7299158847504541    0.6666702216843629    0.1265968794653074 Na
   0.7320972538411911    0.6709889876564759    0.6270002939088578 Na
   0.7288992754643094    0.8673524642759500    0.1256612824441267 Na
   0.7294919778589708    0.8683019044668518    0.6300127806472630 Na
   0.9340020776582350    0.0707374677911757    0.1251657832133339 Na
   0.9288453136824095    0.0643508662263803    0.6295681438371820 Na
   0.7373490250924670    0.2732908461387927    0.6275503495804226 Na
   0.5320573069162714    0.2638600084106333    0.1249727014742841 Na
   0.5337562952140922    0.0696139193417637    0.6238488905746287 Na
   0.5271827738234186    0.0601080656324598    0.1268573526322611 Na
   0.6708168377091024    0.3356642658644088    0.8735696436558510 Na
   0.1284533437144854    0.0656645280942936    0.6310256003429925 Na
   0.1356341662431164    0.2709520797582564    0.1260647421886763 Na
   0.1267388085463611    0.2618167798785258    0.6289959961534373 Na
   0.1352189042960724    0.4728529440482276    0.1268122780403041 Na
   0.1311515158377179    0.4673388059901197    0.6289821086600157 Na
   0.1251863640515969    0.6649453103535113    0.1244576238525558 Na
   0.1368191625438674    0.6711159429587424    0.6245994203534775 Na
   0.1374166222261902    0.8720672680512711    0.6277759053550702 Na
   0.3287445979058146    0.0605717776671233    0.1251307534061026 Na
   0.3302957206336360    0.0661898912475976    0.6260072371657096 Na
   0.3339665548497266    0.2609985698594247    0.1278294611545925 Na
   0.3307728400550052    0.2638000290416206    0.6307679646631812 Na
   0.3297052777297107    0.4630580307976580    0.1195081881880138 Na
   0.3343872328739170    0.4593174114358298    0.6248354111867811 Na
   0.3309332080084233    0.6663515514570375    0.1185648160447595 Na
   0.3339133579419554    0.6575648594147494    0.6261616781060645 Na
   0.3251335163730576    0.8603192873568228    0.1228618519980936 Na
   0.3347884413390836    0.8664951019836455    0.6273943057786618 Na
   0.9378262508616428    0.2691899244193384    0.1286840209599957 Na
   0.9362493575801345    0.2734160410129076    0.6288600871214085 Na
   0.1272546129102545    0.8655748012320944    0.1263250070739061 Na
   0.9345457964730001    0.4729067298953610    0.6265585968021111 Na
   0.0610042234894859    0.9340426893090362    0.8744011926347708 Na
   0.2749655391037337    0.1381594064461656    0.3775168402913561 Na
   0.2626599202953808    0.1247447110651903    0.8702028580193737 Na
   0.2734808837573483    0.3357803802631800    0.3789635112613379 Na
   0.2597233386239796    0.3214850055232927    0.8738665005244001 Na
   0.2729059900003842    0.5387192734826570    0.3795807462617651 Na
   0.2645215358141720    0.5262112330428090    0.8774624772915921 Na
   0.2647017835637341    0.7358680295033869    0.3719094675207266 Na
   0.2645547595782915    0.7372399544560111    0.8684566595850095 Na
   0.2663960011695420    0.9374262248689443    0.3765311732787359 Na
   0.2654637892727314    0.9311501617801615    0.8692903514096155 Na
   0.4739197312822334    0.1351428698711658    0.3760238996216601 Na
   0.4676797510237308    0.1308449895797617    0.8723867587278088 Na
   0.6694267435758882    0.1396028367790707    0.8733680967901267 Na
   0.4588211214533932    0.3213251869450705    0.8743785251484729 Na
   0.4691053224087760    0.5336963162080379    0.3743750563067786 Na
   0.4566127982790560    0.5175155713160459    0.8740549963934515 Na
   0.4719414940678980    0.7329350954848399    0.3738120360618699 Na
   0.4623803075660313    0.7261617031135122    0.8767406470538613 Na
   0.4671062680607178    0.9288001287349201    0.3725641073864772 Na
   0.4692678603386397    0.9344656283275563    0.8769139813903882 Na
   0.6682944021560139    0.1293286418683949    0.3746850059801239 Na
   0.9249073592217755    0.4622461567732734    0.1251820006241299 Na
   0.0733507660513373    0.9418486984998121    0.3738642708314830 Na
   0.0627661320944487    0.7358873945702553    0.8759914228293018 Na
   0.4785360311719684    0.3408234886109582    0.3741050755272188 Na
   0.9373624297326979    0.6740889882248158    0.6236216882965189 Na
   0.0682549064593790    0.7350377392030196    0.3753247470386484 Na
   0.0728951595201293    0.1395526328000874    0.3723013208328375 Na
   0.0614687417462321    0.1300349510833046    0.8737070844438924 Na
   0.0641553492767729    0.5410897888274524    0.8731639818560576 Na
   0.0700413888272600    0.3375084949697335    0.3751534697863162 Na
   0.0718259487254370    0.5369085738314421    0.3793361288610330 Na
   0.0705045867128933    0.3406600811518375    0.8746825790695205 Na
   0.9265058983741840    0.6647110903849383    0.1217383197962478 Na
   0.9313133777626141    0.8697697317000995    0.6292714703834015 Na
   0.9278638836243739    0.8694774739090587    0.1209994691183008 Na
   0.8014149761036752    0.0019899568905095    0.7494129899055868 Ni
  -0.0052855970634418    0.6009810270088123    0.0002971914548150 Ni
   0.4009706316220991    0.8006447006410669   -0.0016321725038866 Ni
   0.3935998327085580    0.1931251093544625    0.7494973380964836 Ni
   0.8022157189619241    0.2023438086415597    0.5005975250779173 Ni
   0.6030363775308319    0.4014332066073268    0.2495038992351265 Ni
   0.8087993176245177    0.4036380318980905    0.5007942509929331 Ni
   0.6022702166417142    0.2026418901194711    0.7509911199658718 Ni
   0.5962562473069971    0.3925352326777829   -0.0022653799192677 Ni
   0.8058303494362236    0.2097245842560037    0.7501925202670831 Ni
   0.3923986093990338    0.3905259992988699    0.7518553276039208 Ni
   0.8033953911180139    0.4024922125651595    0.7502364461872861 Ni
   0.7960048802253419    0.3969362302912751    0.2487261426546467 Ni
   0.0036809426561283    0.6026789688452766    0.5014705958612055 Ni
   0.2029330444654936    0.0050832944382569    0.5013142344929199 Ni
  -0.0070790180474688   -0.0007369804285774   -0.0013003992967010 Ni
   0.7972581904016672    0.8011506948157561    0.7498757149692435 Ni
   0.1979272268180858   -0.0014652546189471    0.7501998877229556 Ni
  -0.0015159023774851    0.4027112006669090    0.7504118532559567 Ni
   0.3988321840841552   -0.0020661870896012    0.0010276104129407 Ni
  -0.0040059144827954   -0.0017949086038306    0.7507491210106966 Ni
   0.1990679354057716    0.5990762482267750    0.5017069114655528 Ni
   0.9452240659836865    0.2738258984823647    0.4535010869005979 O
   0.5242343267192573    0.2502569258796922    0.9522826182174920 O
   0.5563422083294788    0.4832981463440602    0.4439776583782145 O
   0.9435726748167078    0.4630793751401259    0.4505035707938441 O
   0.5158806782156244    0.4458444911600723    0.9475578070776829 O
   0.5460078867583059    0.6687315238500949    0.4474348411467471 O
   0.5281020647073822    0.6478165241711653    0.9486692915040255 O
   0.5349223719194082    0.8590848737448680    0.4491168767938848 O
   0.5427522144954751    0.8744265733874520    0.9512910744076609 O
   0.7330959635199867    0.0579580098911219    0.4500394906367098 O
   0.7324681094137466    0.0696943524655201    0.9544442273177817 O
   0.7316503357922038    0.4628746058939404    0.4462863980766228 O
   0.7476116007335064    0.2703800775058784    0.9501455175897007 O
   0.7318867354924743    0.4734974308233875    0.9462350934668513 O
   0.5518882665332252    0.2766564067612713    0.4484469802934388 O
   0.7423296701766098    0.6759263508213554    0.4541066817300397 O
   0.7213715071677668    0.6499073551952792    0.9486390079281941 O
   0.9511124173442019    0.2785793527578758    0.9499626557325830 O
   0.7314334568930961    0.8645586731155080    0.4529129319123558 O
   0.7226654616362373    0.8519303601014064    0.9485406319299806 O
   0.9428993546814612    0.0647210348841258    0.4437771762678336 O
   0.9185193012113071    0.0582896633986780    0.9469189767843177 O
   0.7312337302310390    0.2635359687779555    0.4502537527223678 O
   0.5403531465716332    0.0663131387969562    0.9519037282452002 O
   0.3176146636032970    0.6678370831984347    0.9419281129077078 O
   0.3250801299705081    0.8642066919764867    0.9489765448547521 O
   0.1336033353367776    0.2669829945949889    0.9514171874230352 O
   0.1359948535251927    0.2714108543230171    0.4569412634578605 O
   0.1346107130749299    0.4611510790876286    0.4542259144861393 O
   0.1330424686202204    0.0675030578003935    0.9489263460337837 O
   0.1245801910461536    0.4811503019414724    0.9463038332458401 O
   0.1394977620470154    0.6764184213074855    0.4515367148552812 O
   0.1339411865980423    0.6735560713795790    0.9503278875174744 O
   0.9376047833972360    0.8711137606014817    0.2949834797897134 O
   0.9328158838430862    0.8586160247553403    0.8011669833856828 O
   0.1347623114310635    0.0787424749672621    0.4523101912857647 O
   0.5291695175124517    0.0550586939811292    0.4448067505748020 O
   0.9417824759009021    0.6722537145103746    0.8012950419452654 O
   0.1406315154089638    0.8682283539378106    0.9455929123546296 O
   0.3408936693434187    0.0752174955258553    0.4506920198174570 O
   0.3328547697810583    0.0704922560105984    0.9509498194817774 O
   0.3455131702738752    0.2705768450649243    0.4485585715531946 O
   0.3346157293203284    0.2617852270613182    0.9529828742438250 O
   0.3263197835046076    0.4605114777094828    0.4556609082329748 O
   0.3343731975610610    0.4552520837158271    0.9557620003269525 O
   0.3365937864538743    0.6782115066301574    0.4458605632782686 O
   0.3319257508258703    0.8624269884481425    0.4514412083905093 O
   0.9367925954117564    0.6577844753887605    0.3016411488742978 O
   0.1315294865443282    0.8735796700489220    0.4461561628559015 O
   0.9285452489217869    0.4623945136268139    0.9522528692240146 O
   0.4805072711434198    0.5305205958726577    0.5494161278386825 O
   0.9197993801060463    0.6656180328176154    0.9519123303842918 O
   0.4687404345317123    0.7286949645499258    0.0446523001108754 O
   0.4667610001249949    0.7313717088522709    0.5470772210455032 O
   0.4748805376983200    0.9344264398018859    0.0497406592772564 O
   0.4651573229518516    0.9286823344806255    0.5477367232007427 O
   0.6554849146851532    0.1259693327711908    0.0516889254639216 O
   0.6618187422621935    0.1316965403159014    0.5489893730502160 O
   0.6696083423527541    0.3265315372150963    0.0463631269914890 O
   0.6695636499564757    0.3460388887648144    0.5539168811175348 O
   0.6655087329267395    0.5315759213884372    0.0473999077348569 O
   0.6725761682287263    0.5377496037560484    0.5469289602599032 O
   0.6656789164733562    0.7388852968399464    0.0507275090761647 O
   0.6544178678024644    0.7293725537974846    0.5523239159553223 O
   0.9410455066325567    0.4831352518174490    0.8009353744559660 O
   0.6693746873854125    0.9449792857735565    0.0506221148599568 O
   0.6548679865481170    0.9203159040937980    0.5517972110174764 O
   0.8748905988713180    0.1482482967306855    0.0500637248157775 O
   0.8676792600127992    0.1288616826261468    0.5475829503560609 O
   0.8765105822301371    0.3327110661500800    0.0513913719954524 O
   0.8796888405809080    0.3398885320361522    0.5505913287793629 O
   0.8519965137664726    0.5293373374306429    0.0477964919474004 O
   0.8668207727928086    0.5416982847064296    0.5505286796154097 O
   0.8460010519152688    0.7207946926754948    0.0495593061220936 O
   0.8720246757491691    0.7503967679488583    0.5527131244389675 O
   0.4699425107269699    0.5124611814990340    0.0518911068567746 O
   0.9326085429757137    0.6724040030684830    0.4516164639257824 O
   0.4757339790305268    0.3350499112285146    0.5449792559685691 O
   0.4726434466096231    0.1386040701354088    0.5462173714310077 O
   0.9463552197517058    0.8809879036935679    0.4469986585023322 O
   0.9200756287868057    0.8552439289990668    0.9517929872876196 O
   0.0650568030863246    0.1401943003587854    0.0503729184730873 O
   0.0511819698554151    0.1271765677087823    0.5521126606114052 O
   0.0739246889336209    0.3499997560483057    0.0516805077408965 O
   0.0721271386623987    0.3446164278948766    0.5530801222006472 O
   0.0641058988961081    0.5319095606779161    0.0509146200247395 O
   0.0642113864066493    0.5273277889130478    0.5515733779432823 O
   0.0621542522409787    0.7385132034057483    0.0476967115164969 O
   0.0755460987647078    0.7450084680993467    0.5517249216040919 O
   0.0615979504779047    0.9269557556449056    0.0469818913328899 O
   0.0629895573328691    0.9413935034324680    0.5507965980661882 O
   0.2678557853862270    0.1296171034857181    0.0496542548942223 O
   0.2616949553983756    0.1407734506513396    0.5536751506603282 O
   0.2762331694371550    0.3255902422645882    0.0539352595063792 O
   0.2521554224400538    0.3284384649038310    0.5553142194375871 O
   0.2646082233744129    0.5401454992502857    0.0445364829554816 O
   0.2618001195130322    0.5227678773696433    0.5534624911125948 O
   0.2570237116143244    0.7291554790400580    0.0488529195629770 O
   0.2809672181347248    0.7337021204657691    0.5551900920075697 O
   0.2566491080219040    0.9226815824476849    0.0511885218260246 O
   0.2695803666049083    0.9315219911198414    0.5496278889630610 O
   0.4544184199007357    0.1313713030663837    0.0531648038523290 O
   0.4591155076380152    0.3206305108315363    0.0488301947560798 O
   0.9393208264399320    0.4709852422669555    0.2988131312296650 O
   0.8771789655924647    0.1426038533465614    0.7008476216628421 O
   0.9274192176546920    0.2729804374939270    0.3002778827121292 O
   0.4710590753117579    0.3336118865034504    0.6979198208331011 O
   0.4492256429331274    0.5217312503412088    0.1966522194734856 O
   0.4663891614833611    0.5339944247424313    0.7015519502799433 O
   0.4567356218791089    0.7135188429645832    0.1882462495846657 O
   0.4709811597393322    0.7415058843682073    0.6995182496034962 O
   0.4447209880150633    0.9239975456637891    0.1977610334035821 O
   0.4706593484603770    0.9443500461079141    0.6984303359687680 O
   0.6720161963448382    0.1318611960277012    0.2032318829507875 O
   0.6659640149843763    0.1316815717865174    0.6973423739383318 O
   0.4610940390109633    0.3341311674708301    0.2007916546312805 O
   0.6620297824415965    0.3260094705824368    0.1963844225770583 O
   0.6731638104581311    0.5402711284626697    0.1992034284489063 O
   0.6536476071958728    0.5345689379455472    0.6967040054260387 O
   0.6773058342107880    0.7377467233265419    0.2051351176255450 O
   0.6525595323365279    0.7241735217906473    0.7025705619793007 O
   0.6681503080548470    0.9343310926681534    0.2017939003957682 O
   0.9392335341913639    0.2664540143592891    0.8011985051966733 O
   0.8609311300466835    0.1348353448982570    0.1999346230910457 O
   0.8559866077721817    0.3201954200045042    0.1988973814679903 O
   0.8702784035997986    0.3408572193114208    0.6974773904857204 O
   0.6616987356818635    0.3409559880623494    0.6972052369212997 O
   0.8726294691648055    0.5387826969521446    0.1996544327983354 O
   0.4622884642277792    0.1246954813638196    0.7005481425279392 O
   0.2753932639122977    0.9325734445964721    0.7019096274855279 O
   0.8600647655785510    0.9407636883223948    0.0523751555504610 O
   0.0755127103346486    0.1352695567054958    0.1980805063835289 O
   0.0623278723687379    0.1379762613047046    0.7031989223402693 O
   0.0687435454063423    0.3402761170575698    0.2042078682552963 O
   0.0703418359720806    0.3314113616710098    0.7024618327249638 O
   0.0533489353845584    0.5281537488766050    0.1988282126384090 O
   0.0714350751133513    0.5482870401471358    0.7024668811615327 O
   0.0549991982495525    0.7248999605691230    0.2000671331464863 O
   0.0583281130524021    0.7324458689060865    0.7016246160298797 O
   0.4634044556167111    0.1257645195903368    0.2004692529042322 O
   0.0620273767849671    0.9413690440587005    0.1930649816648922 O
   0.2705642934379198    0.1328028926647943    0.2022847976125494 O
   0.2623488429346271    0.1278090763363605    0.6978455015352264 O
   0.2709138504773280    0.3359343987315280    0.2020694375300309 O
   0.2564313307082627    0.3286478309420885    0.7028948385724483 O
   0.2656906954197919    0.5347926020330579    0.2018580496071831 O
   0.2700075321098164    0.5192757109666344    0.7001809897685199 O
   0.2665362311525491    0.7259753955691640    0.2011468558047415 O
   0.2732840211829161    0.7263324954431329    0.7022308368657412 O
   0.2682170896101229    0.9391886923630702    0.2034338604959942 O
   0.0580419274673129    0.9201459738852996    0.7001683591074765 O
   0.8744022029204374    0.5454738719175071    0.7026116249929221 O
   0.6633290117027582    0.9448938402521794    0.6961578535768705 O
   0.8683934988694814    0.7299225877791247    0.7032152776789814 O
   0.5352163331169907    0.2634695161130718    0.3014554071867020 O
   0.5385896210274688    0.2768856469394008    0.8021052944825947 O
   0.5273557087175998    0.4685782482159913    0.2961677518706827 O
   0.8694364146651404    0.7393868514554156    0.2010528236729919 O
   0.5297517913513262    0.6636972578800082    0.2954254814326943 O
   0.5229236112378925    0.6488079176159415    0.8014308005190310 O
   0.5298244607878908    0.8628622329173037    0.2941752449304424 O
   0.5311840691127688    0.8622530962217722    0.7991225946968611 O
   0.7518119330683247    0.0780328639775169    0.3042323296919572 O
   0.5293825641250475    0.0605319000749651    0.7987900865453413 O
   0.7219881533876644    0.0634469870354400    0.8017104592527815 O
   0.7350150083034790    0.2707185233496157    0.8019328321659412 O
   0.7364759309814124    0.4697587999870942    0.3012750047336847 O
   0.7287084849072101    0.4722277543945410    0.7961166656552220 O
   0.7561004908110123    0.6839407599172475    0.3037777071170768 O
   0.7213334625917766    0.6556543377767542    0.7970841086385546 O
   0.7512580100002911    0.8708336879550277    0.3032108568367616 O
   0.7212119542122482    0.8608414541550344    0.7999220411073352 O
   0.9420466514443439    0.0681990547048452    0.2956266835209891 O
   0.9346610334639901    0.0767603944165581    0.8009121544639886 O
   0.7333780687185012    0.2577092851166314    0.3003609981707134 O
   0.5274346468534674    0.0589705266123412    0.2958308360808519 O
   0.5348166104034031    0.4677468317269537    0.7972573109831783 O
   0.3345858744117371    0.8771029634647510    0.3029499482402868 O
   0.8574598806696263    0.9260246585513611    0.1980026113925429 O
   0.8622424975655421    0.9316397490527603    0.6984302629126583 O
   0.1475219688939065    0.0723213559778464    0.3030420603808466 O
   0.1307764717116622    0.0665495896500087    0.8007364490289230 O
   0.3459508619120004    0.8712454487663147    0.7983572599046335 O
   0.1252776722153476    0.2699579644088712    0.8004235275476058 O
   0.1462343612429535    0.4783830206703532    0.3047395574209931 O
   0.1389317756025671    0.4686469345054749    0.7968675531031408 O
   0.1269497213156917    0.6599217868254044    0.2966989594997467 O
   0.1271125242854782    0.6715475031212291    0.8005715970527513 O
   0.1438871528755500    0.2731399695554465    0.3052421457809226 O
   0.1215813993364718    0.8637990671734819    0.8002353303034118 O
   0.1256876745824153    0.8710625064129875    0.2963634296293333 O
   0.3290241028424357    0.6520465392136672    0.8003994332292835 O
   0.3486582699466981    0.6731185074463272    0.2990275797243416 O
   0.3156303716239620    0.4491791568285625    0.8041463078091596 O
   0.8649296747015353    0.9355687138788209    0.5464565620082296 O
   0.3271610676951190    0.2581261378659676    0.8018628179003320 O
   0.3419053423962108    0.2760891511982963    0.3002516889041113 O
   0.3388813957731768    0.0584138086464483    0.8004422669471180 O
   0.3457298632058502    0.0688449077152938    0.3024755355593139 O
   0.3401366032482988    0.4675428915463140    0.2996713377441039 O
   0.5985706114086080    0.7988736242967869    0.5029415520251636 Ti
   0.6164041770154887    0.4001170058153260    0.4979989783290922 Ti
   0.3895318342758593    0.7897968804122527    0.5002296811172894 Ti
   0.2014468736392114    0.8062283356035583   -0.0039703914044456 Ti
   0.2068321210024794    0.6073143842742055   -0.0060678227700007 Ti
   0.0071380796848642    0.4074542221647912    0.0024146880785226 Ti
   0.0068205019444891    0.0059209536931286    0.4971014362725517 Ti
   0.5922704001315905    0.3886496364664567    0.7476977046030840 Ti
   0.6124996832089190    0.0141093492071995    0.7457439965138823 Ti
   0.4087393012438849    0.6072457823254903    0.2442239873902421 Ti
   0.5953632235741523    0.5938758365855038    0.4976174428844024 Ti
