Li100 Mg1 Zr1 Mn5 Nb1 Al2 Co10 Ni80 O200
1.0
   7.2261555112017861  -12.4932756278757253    0.0079268707794528
   7.2184842078660330   12.4888466017032886   -0.0015038731719944
   0.0093988800758076   -0.0079607983903510   20.0003880063844086
Al Co Li Mg Mn Nb Ni O Zr
2 10 100 1 5 1 80 200 1
direct
   0.0016546210315133    0.5872408484655509    0.4994430849951439 Al
   0.1877251935841545   -0.0044077233299368   -0.0044059648614942 Al
   0.7941052143460596    0.1867687322691542    0.5165721756152054 Co
   0.1994600846470820    0.5820965036594953    0.5001741317199362 Co
   0.3914517431648701    0.3983237596305577   -0.0036276402541773 Co
   0.5992520849933620    0.0090726585883919    0.2595864325504406 Co
   0.3923905295726604    0.5934532500362651   -0.0074505991196689 Co
   0.4172603808211243    0.0202916039148757    0.7555431565873697 Co
   0.1965370561400751    0.6065629140242770    0.2516968499490466 Co
   0.7976369449646783   -0.0092122339719519    0.5058644125088477 Co
   0.0107113827048633    0.0113241412209407    0.7464741027513295 Co
   0.0094101723983105    0.0053749666654867    0.2474235388240107 Co
   0.2648163909704939    0.9327507554406729    0.8755173963031431 Li
   0.4608288307289490    0.1335113713770278    0.3719398909825865 Li
   0.4615715686057138    0.1303037161971829    0.8833445957691286 Li
   0.4637534712772650    0.3331952795642215    0.3706896058613388 Li
   0.1262725615424678    0.0672723078937042    0.1141418297575452 Li
   0.4630953639578265    0.5303693807206986    0.3633989071398818 Li
   0.4690647911209482    0.5389190200980216    0.8670635658834805 Li
   0.2698309988878992    0.9250843863905838    0.3815415095356808 Li
   0.4701150640757024    0.3374013056774929    0.8720540700431058 Li
   0.2551775046593261    0.7291043291707653    0.8802905939629407 Li
   0.2615886442505149    0.1367489686980824    0.8723735420185837 Li
   0.2700394353941448    0.5426876449878522    0.8685879154707193 Li
   0.2621274144900491    0.5337286956009685    0.3700405595145382 Li
   0.2690544701681857    0.3335861639068859    0.8714775200298200 Li
   0.2689406409733736    0.3362544015036908    0.3732591658748068 Li
   0.4650146867855863    0.7234061666200418    0.3820144066439969 Li
   0.2623289841278519    0.1216570250655535    0.3743145746511680 Li
   0.0661095258546069    0.9363739591687233    0.8754201900905449 Li
   0.0641431937450682    0.9271051821287088    0.3769922644732726 Li
   0.2566838152718390    0.7241214377581972    0.3778479392513338 Li
   0.4677011188582550    0.9275797810650553    0.3836104616078668 Li
   0.6729296499049429    0.5360129608411985    0.8699240082077343 Li
   0.6624333219231561    0.1301215127181390    0.3868906915838014 Li
   0.8691994089769527    0.9383692646027740    0.8724190053047699 Li
   0.8671020044060547    0.9287096698849265    0.3793785834129175 Li
   0.8655086658093862    0.7309748005290985    0.8735955360539626 Li
   0.8614347660058759    0.7299518873361438    0.3693075983882466 Li
   0.8624511940421087    0.5247022339818908    0.8801814539945780 Li
   0.8593215900649853    0.5294333135797895    0.3754473079846407 Li
   0.8620766374239303    0.3266175610846251    0.8865103101658202 Li
   0.8702910334430706    0.3386226503613781    0.3806111659514069 Li
   0.8602044956158982    0.1378139012557548    0.8876754387072137 Li
   0.8730658777412612    0.1454994104272712    0.3872735889209217 Li
   0.6595215862741871    0.9370977812599488    0.8798650798062968 Li
   0.6614779679449738    0.9274722538558110    0.3834851468365250 Li
   0.6703019391571255    0.7408987018378029    0.8698229188647058 Li
   0.6641794101123327    0.7206305103207404    0.3709550425184679 Li
   0.0613556683651591    0.7316920477908780    0.8749497559188628 Li
   0.6697628916044074    0.5348786693633878    0.3698119714532844 Li
   0.6619476276622066    0.3343047337225806    0.8806886999565628 Li
   0.6630449691476387    0.3371657765046824    0.3776573494761568 Li
   0.6632331739306537    0.1341074067939046    0.8830930954701466 Li
   0.4608611654367810    0.9296515603690785    0.8819379130746522 Li
   0.0594657437939931    0.7337586957535994    0.3695224015482367 Li
   0.4669713933192754    0.7374400252742221    0.8716095949281534 Li
   0.0572581172106385    0.5235188145556655    0.3784628375258660 Li
   0.5274612140406331    0.6638539705981296    0.1160207143612723 Li
   0.5420746067017770    0.4639335740677111    0.6200520476688334 Li
   0.5307691117376475    0.4608743112187255    0.1247876606827122 Li
   0.5378420932539290    0.2656495936999237    0.6280118139156111 Li
   0.5384171325056128    0.2639106090709702    0.1315382188056936 Li
   0.5363129836307712    0.0709782674116563    0.6287706314754302 Li
   0.5129260376914100    0.0561206174894934    0.1249517170790406 Li
   0.3390925034404509    0.8765867557358210    0.6262908037468032 Li
   0.1370567060877960    0.4689158175996500    0.6247198216748413 Li
   0.3446847433619366    0.6731626129885337    0.6248290556608151 Li
   0.3266791962334678    0.6621681603134760    0.1227895126937879 Li
   0.5407582893602682    0.6737401439249688    0.6253232660635528 Li
   0.3412372070304585    0.4669244773798111    0.6223338126156933 Li
   0.3311294879710909    0.2572436374075651    0.6149303086243372 Li
   0.3362553570045784    0.2614449315895260    0.1259525186036868 Li
   0.3273891175710742    0.0631636583169956    0.6171675161205240 Li
   0.0570096835291682    0.5242012041172825    0.8839754544049110 Li
   0.1229905294696329    0.2627287136510251    0.1263154018298703 Li
   0.3207742228391914    0.0645121541852274    0.1169484165428035 Li
   0.1289250858218245    0.8541026076271419    0.6076811417741407 Li
   0.1239172211793115    0.8625684571052289    0.1158781937084055 Li
   0.1311235755014886    0.2621804966270193    0.6275295807631646 Li
   0.1448357724850426    0.6754442695165728    0.6263433775673812 Li
   0.1284863503616279    0.6590376268836541    0.1233820811442551 Li
   0.3325501009249899    0.4570003340915098    0.1224298798265293 Li
   0.5180318067153225    0.8636197136014855    0.1178698577618245 Li
   0.3103202033298265    0.8582688028390146    0.1170707119007398 Li
   0.7171315553020704    0.0551498224944409    0.1233396408236033 Li
   0.0771746797530399    0.3403836832245679    0.8719036959959561 Li
   0.0738428951354730    0.3316340658460939    0.3763006192474008 Li
   0.0579211668746551    0.1292666085447609    0.8854730053659507 Li
   0.0759916516989761    0.1326119311337745    0.3736890405645463 Li
   0.9406758381573520    0.8659139262295280    0.6145404052557855 Li
   0.5455710634239475    0.8772920369658777    0.6326574837184911 Li
   0.9357790823107822    0.8698617549746203    0.1152980593245541 Li
   0.9372181373873913    0.6643942346318393    0.6154570211669276 Li
   0.9259431796115805    0.6686529756118892    0.1153555298136340 Li
   0.9430878681882906    0.4792746013847392    0.6326199183567135 Li
   0.9232563058587657    0.4614736820944222    0.1275381429198527 Li
   0.9395702391638650    0.2744909027746897    0.6389031844277638 Li
   0.1209779177205483    0.4618938176953681    0.1322530520295771 Li
   0.9411332678977357    0.0637077827573042    0.6246560571500357 Li
   0.9274948060885585    0.0583977625888103    0.1171961099346207 Li
   0.7388805132060027    0.8764657716422342    0.6272846788958816 Li
   0.7442446682811703    0.0779173444384024    0.6405929829674587 Li
   0.7248579120930130    0.8535563918573994    0.1085329286068561 Li
   0.7437505883650266    0.6794538087681927    0.6184942863771743 Li
   0.7221329406172445    0.6589045783345692    0.1199312578755241 Li
   0.7401932383166968    0.4719416131966442    0.6191432033945081 Li
   0.1358811165521976    0.0649792054805148    0.6164974119251662 Li
   0.7316844765645688    0.2588096911271323    0.1367379642613076 Li
   0.7420809606365186    0.2701328430924895    0.6363960509103981 Li
   0.7335155021001415    0.4677862981307255    0.1251502754388571 Li
   0.9235565848458397    0.2596764417072057    0.1303167001541928 Li
   0.5980592022846432    0.3995239875701248    0.2491838384733430 Mg
   0.4092129545089405    0.6131265046426178    0.7458282151821244 Mn
   0.3872818109598801   -0.0068574697202572    0.0009008577403912 Mn
   0.2067547797293412    0.4117191035824793    0.7477769434120631 Mn
   0.7996494302443434    0.4039256832110764    0.2575856739013425 Mn
   0.8101970054776408    0.8097697164446968    0.7428697184472013 Mn
   0.8118378574244056    0.0147697143146776    0.2569478948810742 Nb
   0.1905985967350603    0.3954763891022513   -0.0015956897777282 Ni
   0.1906491286250865    0.5907613518609358    0.0000254329897947 Ni
   0.1867561851243373    0.7900138460520859   -0.0024898372105370 Ni
   0.2005508583770142    0.1925341296654418    0.4942045476579708 Ni
   0.2005168246048968    0.7851747695002457    0.4977199074867686 Ni
   0.1907908638956518    0.1977551527710397   -0.0021407835703209 Ni
   0.3985927680919938   -0.0131297745916367    0.5032680365429958 Ni
   0.3907475191297108    0.1985774636622663   -0.0007830754604144 Ni
   0.0016222761394146    0.7894122679533997    0.4916496866905676 Ni
  -0.0092527962071556    0.7953347934157706   -0.0073864012284790 Ni
   0.4009562910231064    0.1907443385266498    0.4973464985041107 Ni
   0.2005801012713910    0.3883765274323981    0.4983946831048327 Ni
   0.1999517598314631   -0.0096008818043283    0.4941418617823535 Ni
   0.7990364448963799    0.3887917889894216    0.5080035647321720 Ni
   0.4016289324022474    0.5861042257527235    0.4972094858424305 Ni
  -0.0099688536090953    0.5914405973393779    0.0011470863684721 Ni
   0.7918932160622579    0.7965733646598481   -0.0098041897873798 Ni
   0.8036296454385885    0.5917404476114393    0.4954090195291430 Ni
   0.7930219631363404    0.5959291247117808   -0.0084569824004188 Ni
   0.7884653343740001    0.3942795975466772    0.0070412326901007 Ni
   0.7870865439653181    0.1950222178150371    0.0121325644198871 Ni
   0.7880782684956688   -0.0040751757157036    0.0036539244304291 Ni
   0.6002629097832523    0.7879191382575991    0.4991633986138609 Ni
   0.5898338545688464    0.7950402784690193   -0.0047581924441853 Ni
   0.6046740054005972    0.5928515213076155    0.4945885572922005 Ni
   0.5927137564228009    0.5968564487312142   -0.0093244270075992 Ni
   0.6006995302518434    0.3918324143513615    0.5004487979977437 Ni
   0.5911043161564721    0.3983808700428181   -0.0013235557686473 Ni
   0.5972076834796879    0.1895646306531517    0.5090787267212457 Ni
   0.5891153993765621    0.1965719874836932    0.0064218890091200 Ni
   0.5960089171850046   -0.0142240876447635    0.5092307822494430 Ni
   0.5886278808905299   -0.0053470681887597    0.0058078855583966 Ni
   0.3986152545236925    0.7838759915872171    0.5028373446799597 Ni
   0.3885318175940168    0.7911047049078858   -0.0007476840636257 Ni
   0.4034363871315263    0.3921035795379219    0.4948534668256127 Ni
  -0.0030590349553076    0.3857280421140087    0.5076153425456279 Ni
   0.8032384486809527    0.7935799325935444    0.4937276464102232 Ni
  -0.0018570526448248    0.1911806607336326    0.5071141414004225 Ni
   0.4133527433426035    0.2143272729525705    0.7500064125556670 Ni
   0.4015937050333341    0.1987269297253832    0.2459710516810826 Ni
   0.3986819327991921    0.0041017488347274    0.2506217886953638 Ni
   0.2141230535888715    0.8211976941277220    0.7472017523709240 Ni
   0.1974978936410699    0.8046370607847733    0.2465596964375012 Ni
   0.2074372978829857    0.6183269589904876    0.7490291813625610 Ni
   0.2008014560605558    0.4049588056578203    0.2499721382417234 Ni
   0.2096506321180645    0.2110945065780410    0.7464387584838874 Ni
   0.2142419973556589    0.0159093417779066    0.7445645019190054 Ni
   0.2026778820528680    0.0012966255452281    0.2431006143979376 Ni
   0.0129946372053365    0.8162814486394169    0.7405649324593928 Ni
   0.0013219714925062    0.8049371198995133    0.2423606001783081 Ni
   0.0129126686282956    0.6203363547669035    0.7479841441485160 Ni
  -0.0014493060768885    0.6059689227869026    0.2498798200631414 Ni
   0.0079517574427030    0.4148908801379058    0.7563617930240832 Ni
   0.0020097998061224    0.4059929312729293    0.2571091732752562 Ni
   0.0060003625794335    0.2093580133488624    0.7566605557216930 Ni
   0.0116686268322612    0.2128729468033212    0.2566168113253824 Ni
  -0.0118138738425936    0.3920688293693320    0.0086071828519168 Ni
   0.3985180943212356    0.3977852483425822    0.2447734838974301 Ni
   0.4100298527178143    0.4090476046389695    0.7457973378039333 Ni
   0.2051602513413835    0.2028901819722308    0.2457417203816997 Ni
   0.3937607712177177    0.8053913979853929    0.2508695866202554 Ni
  -0.0109446422398462    0.1967716866041025    0.0050119350670174 Ni
   0.3908886540903598    0.5961107062891645    0.2460148797545909 Ni
   0.0006738682595401   -0.0065751795927546    0.4967465123009802 Ni
  -0.0097098515591174   -0.0038091722285331   -0.0032394806726865 Ni
   0.8060405678327291    0.7998381282448010    0.2413831535747615 Ni
   0.8124955221886023    0.6128231548244504    0.7428893047645181 Ni
   0.7987613413688206    0.6022459002988213    0.2445099618070844 Ni
   0.8097794292534300    0.2125323394774034    0.7631237343654457 Ni
   0.8073366603223702    0.2127903259783790    0.2649445949766007 Ni
   0.8074423010350446    0.0094443851502518    0.7553923714106094 Ni
   0.8131890883686893    0.4150997153760602    0.7558921448727507 Ni
   0.6089230837769798    0.6072528462616841    0.7435645628202141 Ni
   0.5964248946866612    0.5935042856886158    0.2426583041898160 Ni
   0.6131420951495292    0.4109539699545007    0.7494888385691491 Ni
   0.6145036913581013    0.2151045058413165    0.7590342425097817 Ni
   0.6012064770266985    0.2024983287740282    0.2589364661786564 Ni
   0.6097529343085900    0.8118885337232371    0.7492812063749416 Ni
   0.6121512249984313    0.0125418024441851    0.7584710964900198 Ni
   0.4097271136529866    0.8156836462325415    0.7512084092387310 Ni
   0.5175277378903819    0.6514465703570858    0.9395231429419950 O
   0.7307287504352092    0.2627307574209974    0.9568705181814182 O
   0.7342828096122276    0.2447878692484640    0.4602828305135752 O
   0.7284019300490607    0.0763163261970096    0.9538896604191557 O
   0.5355195684226673    0.8503399447459582    0.4466225770435326 O
   0.5265592394566373    0.8600430070254851    0.9450065188331107 O
   0.7265816131125106    0.4513974475185905    0.4480895435527533 O
   0.5437758253021721    0.6662387031039501    0.4416854567281008 O
   0.7311811141417313    0.0584740212827641    0.4617680486809561 O
   0.7292059209853996    0.4659611185983817    0.9413095230222385 O
   0.9399265136535455    0.4535019209755971    0.4518671541414454 O
   0.7218965299125658    0.6626920477277820    0.9310038293046451 O
   0.7428610580380954    0.8780437649200299    0.4461522872447647 O
   0.7159151526456395    0.8645025403242053    0.9417886866419884 O
   0.9230595580385547    0.0660164699695081    0.4526769629636770 O
   0.9270755217466620    0.0744618074808980    0.9461169090191359 O
   0.9232660440440777    0.2516492928099882    0.4627949563040804 O
   0.9155878930948453    0.2593099490286991    0.9600795357528211 O
   0.9249296250558016    0.4517992707289376    0.9517046090804103 O
   0.5220957893823691    0.4605498321948364    0.9446670023690042 O
   0.9427181926339018    0.6467559401208216    0.4398583821398380 O
   0.7351769642389444    0.6581241525073339    0.4343471683048975 O
   0.5339788101261607    0.4506620166640967    0.4448625175487991 O
   0.1397594639812466    0.4562778382701463    0.4474660181100611 O
   0.5406328387539043    0.2636418295304662    0.4480391169902654 O
   0.1320351053915673    0.0625846184470034    0.9390835894676641 O
   0.1343985160684262    0.2653319385252519    0.4434832519384507 O
   0.1258582661036418    0.2704029696704195    0.9443278865373830 O
   0.9212137583874226    0.6549584620218070    0.9365764736671399 O
   0.1267059882350600    0.4608524004110640    0.9481854043896919 O
   0.1348543175072681    0.6439754469166290    0.4477485696894208 O
   0.1281620109208200    0.6519256459266010    0.9427252760640090 O
   0.1335898617406857    0.8561189279805573    0.4373416696164126 O
   0.1216424046296210    0.8654029697026988    0.9413442073635020 O
   0.3343334655155648    0.0568662768943126    0.4405561878680449 O
   0.3207504891799326    0.0542570960951002    0.9444755161728353 O
   0.3421684200417235    0.2703704227238001    0.4389188914982676 O
   0.3310317643192419    0.2766771077740783    0.9436186691999144 O
   0.3478253362439218    0.4605076886460348    0.4414429330349515 O
   0.3351406891405712    0.4659337954951109    0.9412865766856745 O
   0.3294515614961731    0.6428239183414957    0.4463199474141523 O
   0.3301064461469190    0.6532229839430294    0.9406366336243197 O
   0.3271472223853651    0.8487404107427328    0.4441498867194760 O
   0.3256160366166054    0.8650206024266280    0.9441314781833352 O
   0.5363315860716449    0.0493841951498420    0.4535282852682258 O
   0.5161850062834973    0.0571331782168239    0.9481190495534713 O
   0.5281372412685597    0.2691354972087209    0.9449748012701799 O
   0.9311170068782892    0.8585851402430096    0.4336538802221326 O
   0.2647970700393443    0.9153057278683061    0.5555540414916512 O
   0.0555301505889027    0.1363255801414770    0.0575294813909312 O
   0.4606854640021406    0.7054943368793035    0.5543077164127450 O
   0.4454258121829003    0.9276712921925560    0.0609064580921568 O
   0.4692015467877219    0.9189612699492167    0.5628419508489584 O
   0.6618480760027803    0.1329255401171083    0.0649535502748759 O
   0.6700421182765357    0.1256180572467464    0.5692354583949125 O
   0.6511479941631635    0.3400177692229338    0.0593530957833492 O
   0.6590723694004328    0.3327317453442993    0.5610909130751712 O
   0.6586564641313650    0.5373312160778899    0.0445662443898604 O
   0.6636221076388790    0.5212560101647354    0.5509836183480515 O
   0.6511128789377806    0.7234872955236242    0.0438837438140911 O
   0.6668738393763092    0.7253669560066441    0.5499132604403404 O
   0.6500569651101361    0.9207184386029185    0.0628248260971031 O
   0.6632902847128043    0.9146549001954407    0.5545666613933719 O
   0.8480855566464049    0.1287729543478968    0.0635841063603278 O
   0.8508718261613476    0.1116591397335063    0.5638680842828957 O
   0.8488068424742301    0.3179250715780488    0.0671570651770425 O
   0.8576941320498509    0.3087710574804132    0.5683074234434708 O
   0.8534344890100020    0.5242088526075623    0.0568803463494931 O
   0.8797685078732315    0.5304655063301189    0.5571598669852378 O
   0.8590409130877580    0.7239334415259441    0.0432491788335785 O
   0.8707526931767738    0.7252636122992165    0.5480701789392747 O
   0.4583809281278249    0.7158437599294281    0.0465526869104163 O
   0.4612731728867773    0.5168297514192335    0.5480665959636475 O
   0.4508237499827730    0.5273352657831529    0.0461367980121930 O
   0.4677469746917516    0.3332363347358837    0.5505957515691895 O
   0.0666867900413322    0.1312669390893904    0.5572206392672154 O
   0.0512770731458570    0.3246430582273799    0.0592817874262720 O
   0.0602232091078263    0.3186276715974731    0.5595635738841954 O
   0.0532336017628265    0.5178522337727737    0.0611538270098896 O
   0.0685037123346017    0.5197262975215300    0.5528050324735765 O
   0.0513533143978631    0.7293155776570528    0.0519027596436965 O
   0.0715941087438139    0.7165255739403227    0.5500204649230378 O
   0.0646808959366233    0.9326425607009147    0.0515450489052056 O
   0.0682642474709090    0.9232002072525226    0.5501810266796697 O
   0.2514772602630453    0.1225202558345014    0.0511136282555753 O
   0.9260208859893426    0.8602806609665522    0.9349053797627448 O
   0.2658899208834015    0.1260936309359464    0.5510603848090270 O
   0.2767053952041882    0.3310733987060871    0.5473570126044605 O
   0.2644443851818972    0.5292734463641683    0.0474677418071060 O
   0.2571969236563225    0.5127051433035067    0.5524880894519407 O
   0.2520519117581731    0.7148198904197506    0.0566079153706264 O
   0.2593213109446055    0.7014191508117336    0.5542106144775387 O
   0.2549098837571864    0.9329916510443020    0.0506313351197952 O
   0.1331974480279220    0.0644976554918059    0.4352243844022849 O
   0.4488674135473894    0.1204062228482834    0.0571139695899098 O
   0.4652209326276204    0.1246970534910904    0.5623230018185162 O
   0.4504435961679228    0.3427050355802968    0.0531811606199526 O
   0.2635050074874803    0.3410333559565749    0.0492071956241451 O
   0.9467993407555949    0.8770727844269525    0.7935200357311953 O
   0.5342972723585205    0.6714779498908823    0.8014282829403074 O
   0.9522425958984337    0.6909623033260013    0.7954496127787349 O
   0.4590625207460653    0.5228410092507955    0.1876787393347251 O
   0.4708409055191643    0.5473802653076388    0.6892529174438372 O
   0.4600804406186498    0.7377136084814457    0.1845167241159361 O
   0.4700826852072286    0.7388329187214516    0.6913053293956861 O
   0.4793794117998249    0.9514424451194434    0.2039482574797487 O
   0.4857827649964860    0.9619614807868158    0.7039284794660852 O
   0.6648101644060066    0.1355380828797369    0.2116919421027299 O
   0.6804431276480246    0.1512784948954000    0.7107120694769418 O
   0.6713848845018128    0.3261524536028385    0.2019570522418047 O
   0.6787633206846193    0.3394866073086661    0.7037656190601035 O
   0.6715647612431382    0.5334778766263119    0.1864374147658789 O
   0.6746365308000614    0.5303595242287590    0.6909247385087337 O
   0.6662109642292513    0.7389043944934114    0.1815670697846721 O
   0.6836825615440389    0.7489296879072515    0.6891807635417699 O
   0.6705891110429253    0.9535436494234921    0.2028359235948554 O
   0.6748283912165030    0.9465160290433916    0.6937982857874847 O
   0.8705591840289488    0.1413675769426677    0.2010744829036291 O
   0.8694959779529040    0.1524837869364220    0.7041750103162727 O
   0.8678713708320962    0.3431172973604759    0.2035331329692873 O
   0.8775848360021611    0.3532335763466459    0.7041599159105872 O
   0.8583837123362582    0.5282574734516231    0.1972224238338223 O
   0.4867745837284010    0.3417604237603640    0.6947127399373461 O
   0.8811184040503014    0.5525519029698004    0.6947742805141945 O
   0.4658406423545656    0.3203875334500121    0.1896898248675237 O
   0.4649151183755619    0.1321610419673196    0.1981165719316398 O
   0.8558153569006598    0.9245364184120469    0.0552005775479359 O
   0.0745955783624715    0.1334509326879403    0.1969988767353206 O
   0.0668450432502676    0.1341945695029215    0.6953316218420195 O
   0.0755586922372610    0.3408334864098509    0.1970886054570752 O
   0.0773844712800090    0.3513073358338071    0.6975989961776679 O
   0.0756540162037873    0.5454876267120673    0.1985165952062789 O
   0.0718961264568378    0.5538178783464920    0.6945489096976420 O
   0.0709139887715699    0.7448584776486787    0.1934338351257363 O
   0.0772862243514213    0.7573220951257529    0.6872015533658739 O
   0.0613164055372852    0.9359117415864348    0.1913625526291009 O
   0.0698188741939580    0.9468035007937240    0.6900979939077838 O
   0.2809568134367545    0.1370386760470703    0.1898941564250481 O
   0.2772883895833442    0.1393632083298465    0.6890760082334172 O
   0.2712855348142543    0.3308517722524414    0.1913312874367111 O
   0.2663979143391647    0.3461490386601107    0.6901941605013809 O
   0.2523055345838189    0.5345017843204662    0.1959025297319453 O
   0.2758808546865767    0.5438965037150995    0.6936770013530160 O
   0.2542880110851319    0.7340128008762777    0.1969446693917952 O
   0.2751346670986377    0.7578823678264465    0.6927366010105384 O
   0.2613330524454450    0.9224925772551710    0.1887102262945930 O
   0.2922907342343645    0.9570313730075122    0.6984018095866894 O
   0.4899719075254335    0.1493516853329082    0.7045799017895772 O
   0.9491287727281227    0.8768901648476992    0.2948517099448683 O
   0.8822387462077188    0.7432670220407491    0.1845330316975899 O
   0.8783040962935406    0.9511614255702879    0.1960128457949148 O
   0.5501964875442606    0.4728023909174887    0.8024645697900078 O
   0.5279442994080954    0.6660336973909974    0.3073336257214490 O
   0.5346721937599438    0.8781789068524730    0.3093238978050575 O
   0.5443873283612858    0.8825575432164995    0.8079439718664069 O
   0.7352712587978497    0.0652480768180051    0.3195332234847552 O
   0.7336784431287604    0.0677675100210283    0.8166158359084977 O
   0.7385865238119402    0.2826451147684654    0.3185215225584199 O
   0.7376981341149712    0.2729479478710143    0.8148811057865932 O
   0.7332838726378841    0.4682486816864669    0.3080321768616277 O
   0.7422656818242893    0.4770473689890288    0.8024071225195996 O
   0.7344359649167570    0.6642165352712757    0.2969684513225694 O
   0.7532996173282941    0.6804576080013033    0.7949000798938587 O
   0.7376719114061626    0.8688983610332017    0.3058781152228423 O
   0.7489769800134191    0.8663134500242917    0.8047397744359961 O
   0.9426762598069395    0.0632132248694821    0.3113389020346968 O
   0.9520152880987504    0.0653095513301810    0.8068412512629811 O
   0.9412457444674673    0.2726394593744957    0.3217646939468782 O
   0.9354431739528934    0.2737763507924756    0.8177958796333854 O
   0.9272142985305861    0.4738248975657693    0.3117157235689043 O
   0.9418627555646639    0.4847547679311426    0.8107426430443505 O
   0.9329165965248435    0.6832935575707443    0.2974681512668034 O
   0.5201819518148657    0.4602169042878144    0.3027575177986244 O
   0.8715262127862671    0.7479612293200140    0.6841791983069143 O
   0.5554556141905985    0.2874818266378198    0.8052774084923152 O
   0.5417279524128700    0.0903175384367936    0.8111714261546292 O
   0.8799725302894835    0.9452507099740785    0.6953651676845217 O
   0.1350565013259776    0.0730062374304573    0.2984094128708843 O
   0.1392133852691078    0.0692290660079951    0.7969556971011300 O
   0.1470222468089601    0.2809388680990129    0.3071068759348051 O
   0.1492688308605587    0.2891807165472902    0.8045743671332404 O
   0.1369383575963223    0.4875429749101193    0.3083646472564165 O
   0.1424826875112332    0.4760344187643124    0.8056412971002380 O
   0.1406541638031259    0.6822726138365021    0.3028674045198496 O
   0.1449310311431154    0.6961756974944058    0.8022991676397637 O
   0.1267135262229338    0.8616703585266523    0.2962849952931986 O
   0.5234956607819385    0.2591502690021177    0.3052364133324263 O
   0.1542550541004655    0.8901251640822855    0.7977628776038634 O
   0.3548064288465618    0.0867990471722759    0.8034732701142249 O
   0.3357717007109016    0.2633253940029937    0.2954855863332065 O
   0.3438640143949734    0.2731856660464844    0.8043109133453560 O
   0.3246647241281149    0.4650361720717566    0.3033827659759865 O
   0.3394881030762769    0.4824645089102770    0.7999007452316507 O
   0.3200065446334954    0.6674607458430064    0.3042108578632416 O
   0.3448201460881170    0.6759742081609639    0.8030725636941886 O
   0.3215359424259570    0.8749303667117405    0.3014653101752764 O
   0.3531676436003822    0.8988537714977612    0.8067081275942362 O
   0.5409260273095595    0.0751152611605577    0.3137877438311136 O
   0.3379358928546268    0.0745832890058308    0.3008761523566208 O
   0.8619900819247160    0.9294967842360194    0.5557662330890740 O
   0.5920700539428169    0.7948884215272557    0.2456379184106172 Zr
