Ba61 Na3 Mg3 Zr3 Ta3 Ti61 Al4 Zn3 Sn3 Bi16 O240
1.0
  16.2188933409061598    0.0004142302146068   -0.0048099177636943
   0.0004162577537484   16.2610607812950114   -0.0044780576083924
  -0.0060219932088882   -0.0056023651864009   20.3633387709168687
Al Ba Bi Mg Na O Sn Ta Ti Zn Zr
4 61 16 3 3 240 3 3 61 3 3
direct
   0.6227265918800023    0.6228921074630072    0.5057610179532949 Al
   0.3755675054175421    0.3725889975054912    0.1041109966908232 Al
   0.1236027972820205    0.8712512442270957    0.0998334610853265 Al
   0.1223047034126407    0.3787474154063367    0.5013640422870935 Al
   0.0047977246601823   -0.0034047371731138    0.0015582513231848 Ba
   0.4936837537542194    0.4980529877330461    0.1996618909673006 Ba
   0.4991731592279006    0.5010940211418591    0.0020918674183231 Ba
   0.4995644087272836    0.2519649157364282    0.8014291547477120 Ba
   0.4993900109975158    0.2513726235687289    0.6027413980817190 Ba
   0.4973441559848056    0.2546519416471377    0.4014502442010918 Ba
   0.4988019971417544    0.2523871184162713    0.2010801525317980 Ba
   0.5000687243979114    0.0016079897346821    0.8014558093229613 Ba
   0.4973508165739761    0.7522533645929640    0.0017765864050185 Ba
   0.5019395578112630   -0.0005320297512655    0.4012825594154881 Ba
   0.4979732047788142    0.0024542317463420    0.2011723432788708 Ba
   0.4950231502589158   -0.0013570789164263    0.0022477489759228 Ba
   0.2520109160039791    0.7476135590345838    0.8032480576031242 Ba
   0.4972567999111694    0.2482938014883888    0.0026737298923034 Ba
   0.4986647987971499    0.7504031196630904    0.2018858586725178 Ba
   0.4982587433275733    0.7408265290233105    0.6000647488522439 Ba
   0.2513179420410186    0.7479803118632434    0.6010027079556329 Ba
   0.7537952737938806    0.0039389590558859   -0.0004727880858259 Ba
   0.7495911132466131    0.0019081442019033    0.4007533697653479 Ba
   0.7451448702306686   -0.0012760187293849    0.6009337591858458 Ba
   0.7509685330379345    0.0034081326256464    0.8023256668995888 Ba
   0.7512998412310801    0.2509880782580523    0.0045732901750021 Ba
   0.7509378001850574    0.2525149849884888    0.2017294698483567 Ba
   0.7474533411359402    0.2515765214427665    0.4016063680495245 Ba
   0.7551052493439229    0.5040423936149059    0.7980466138762117 Ba
   0.7498515314370706    0.7536210227892965   -0.0038986969446451 Ba
   0.7520759607660992    0.7466727481782088    0.4014125949095036 Ba
   0.7524229192945403    0.7435274649866288    0.6002227637174764 Ba
   0.7553660657792353    0.7418743503717902    0.8003173547561373 Ba
   0.4991480677316762    0.7483394695393858    0.3993939007959126 Ba
   0.2515454134030520    0.7514658592676959    0.4015341832322329 Ba
   0.7526331084215743    0.0012518464107715    0.2034405184116660 Ba
   0.0004048441597345    0.2509260059084082    0.0029446732209792 Ba
   0.0027992889209628    0.5036103765265745    0.0027628368249609 Ba
  -0.0002222317344169    0.5074606618416937    0.1990941375484546 Ba
   0.0008701196878450    0.5011213733174694    0.4015433425875417 Ba
  -0.0017694400308757    0.5033180312340909    0.6028505803930418 Ba
  -0.0036483482341372    0.5056315555719648    0.8014637089809322 Ba
   0.0004482542660383    0.7468466339906747    0.0000522988967238 Ba
  -0.0009074591489879    0.7492994526100901    0.2018962537376913 Ba
   0.0035067384208521    0.2504163144938498    0.8022238486153079 Ba
  -0.0000871065916974    0.7489864589500661    0.4020056822913889 Ba
   0.0014800994695577    0.7462016339552707    0.6041380362272734 Ba
   0.0015881464044607    0.2491075631597637    0.6004237372548127 Ba
   0.0003664221776702    0.2492360468585391    0.4011058015605651 Ba
   0.2528618621474205    0.0019612115398634    0.2030476610115965 Ba
   0.2530467297726315    0.7470315171966948    0.0031010648375234 Ba
   0.2523714271974297   -0.0014305593807162    0.6001545502283873 Ba
   0.0024114050828692    0.0010882805508726    0.2034004796595718 Ba
   0.2518488056194445    0.5007949085810728    0.6024930854544730 Ba
   0.2524101331306595    0.4986332681840394    0.4014400292499304 Ba
   0.2495048488072693    0.5011675276719103    0.2023682713992682 Ba
  -0.0012067034013454    0.0026583203360381    0.4025266640244063 Ba
   0.2509151819897315    0.2510060420529592    0.8025749809347855 Ba
   0.2534035585189220    0.0011521322523477    0.4030144594268379 Ba
   0.0029040110291164    0.0008460443039014    0.6014619948730241 Ba
   0.0039397449355326   -0.0012073545504581    0.8020126474380376 Ba
   0.2538327003032650    0.2541413395452491    0.2012623054444158 Ba
   0.2512674716721935    0.2504237946131385    0.0027940368152415 Ba
   0.2511206315243464   -0.0013395326000327    0.8032062987989597 Ba
   0.2509095250570225    0.2494730882716657    0.6041572379228602 Ba
   0.7398690453989593    0.5084576018267819    0.4303919364721890 Bi
   0.7517535825872926    0.7227659230287589    0.2221940592590868 Bi
  -0.0016330901068078    0.2905115417749687    0.1922296224890947 Bi
   0.7157608752754280    0.4911554526048031    0.1951781568367270 Bi
   0.7467250081846142    0.5388653774266821   -0.0122862979748007 Bi
   0.2397956448812597    0.7831369498925376    0.2113368490969832 Bi
   0.7455497056498008    0.2524407082299697    0.6341344321727560 Bi
   0.5059992930340761   -0.0390652257391898    0.5885967271736725 Bi
   0.7736707181401711    0.2446607861537621    0.8228115823417194 Bi
   0.2476265281159380    0.5023299071660361    0.8336067782073914 Bi
   0.4937774874957758    0.4996699878895016    0.6297069278308783 Bi
   0.4996402529865850    0.5014383898250271    0.4296560942776091 Bi
   0.4921406304062941    0.7720883623769089    0.8250043252044243 Bi
   0.2525578304365134    0.4912825765362323    0.0319113758349560 Bi
   0.2619338611108117   -0.0260204211861384    0.0249088633807016 Bi
   0.2428081980828417    0.2513188227463873    0.4318545559891976 Bi
   0.8784933873022518    0.6271937106133566    0.8983187117083086 Mg
   0.3758390207518362    0.8668858634837971    0.1046414904905356 Mg
   0.1262715516802638    0.3744775077683641    0.0980367441595936 Mg
   0.4818510582249452    0.5047541077536213    0.8062415546683647 Na
  -0.0114316235693911    0.7228021558597881    0.8032549861778933 Na
   0.7575926484888400    0.5057818631667802    0.6161201124815968 Na
   0.6227909275352995    0.6186763144086850    0.7975489433392466 O
   0.6258017128279793    0.8745245363463505    0.2039423274486589 O
   0.6237080475234322    0.8704505984732630    0.3999292111011019 O
   0.6259482170837093    0.8742582120406709   -0.0038656566029660 O
   0.6212404257206282    0.6260599137402735    0.5976247982009243 O
   0.6285728252376287    0.6191354654308139    0.0044911842484204 O
   0.6454053617702949    0.6207612717815404    0.1959899745799100 O
   0.6192518111283928    0.8772462780732396    0.5963650045489914 O
   0.6216781412004858    0.3821104461491802    0.7962680826986891 O
   0.6248857474769935    0.3749109403727358    0.5966144648692027 O
   0.6251562049938590    0.3844027957217444    0.3928829820807528 O
   0.6310755685396775    0.3780610962799401    0.1954136022971167 O
   0.6265581629394134    0.3742549085198855    0.0026589604225305 O
   0.6252638778051068    0.6174020634956184    0.3960071883733093 O
   0.6161066136490442    0.8718345685560407    0.7971463185046216 O
   0.8821364208741960    0.3698852491093226    0.1967994410115669 O
   0.8731905510554610    0.1198337222728278    0.1979541061138290 O
   0.6230961720561318    0.1262615726376192    0.7952578828195516 O
   0.8728475039953635    0.8773413022946759    0.5946214820676202 O
   0.8736708041458715    0.8715015649538005    0.3961783069540935 O
   0.8769177922789692    0.8728127075283085    0.1967615349573784 O
   0.8760277888917904    0.8768104426326360   -0.0008793175660287 O
   0.8737734454557270    0.6203147416567570    0.8014311662355276 O
   0.8734723447333433    0.6210185473641090    0.5933559546537061 O
   0.8736329017573184    0.6244413323669091    0.3942141975548830 O
   0.8641602927726170    0.6303487076303818    0.1939336771213410 O
   0.8695981003040898    0.6180902283391720    0.0014529271133579 O
   0.8724757569161971    0.3659292650516484    0.7964804142393022 O
   0.8712131261157374    0.3721636437211983    0.6022862066489801 O
   0.8751275815294506    0.3735369950668667    0.3929591727587532 O
   0.8764110619933599    0.3709777503715834   -0.0000071518310928 O
   0.8700837166672998    0.1346900607546660    0.7959131460975489 O
   0.8735363548465364    0.1233985892225978    0.5945628293947920 O
   0.8729281784556637    0.1225576272641612    0.3954591021627835 O
   0.8754188263812083    0.1256184984492904   -0.0029629130112880 O
   0.6265551316867380    0.1346188960931229    0.5962603251872173 O
   0.1162490236055576    0.3692566096657868    0.1990241799579836 O
   0.6229265678880921    0.1251501317167800    0.1955901916610122 O
   0.3748957879118760    0.1290715100166331   -0.0052404394784601 O
   0.1248402888715365    0.8770032938740647    0.7969754401200739 O
   0.1235113701113014    0.8745494488137369    0.5959080344796590 O
   0.1216702735104945    0.8738168715357651    0.3963418047142718 O
   0.1315130123006184    0.8685802855420086    0.1959111611536418 O
   0.1283982801075278    0.8753271232006815   -0.0006780634862970 O
   0.1323183542193792    0.6239503832181602    0.7973396036223728 O
   0.3741929007669364    0.1253825746329031    0.1951131588237951 O
   0.1280746038303558    0.6261493739680054    0.5934673497275628 O
   0.1275710078347916    0.6247537950830663    0.1959251760693793 O
   0.1274488811844526    0.6281209166126918   -0.0042436842265281 O
   0.1258399942131398    0.3795707272999162    0.7957961828055276 O
   0.1270407140557417    0.3772180984838898    0.5978129893930182 O
   0.1257403633760377    0.3743996791717892    0.4059605438995841 O
   0.8742327094931955    0.8803769588865232    0.8038425901223453 O
   0.1275943372037179    0.3786379871897642   -0.0057356435886957 O
   0.1241019105065691    0.6276183929055299    0.3950450676574292 O
   0.6229557589109124    0.1273954929238844    0.3960188281438736 O
   0.3765205310481763    0.1262948476543399    0.3964167561814201 O
   0.3746203413649225    0.1317637187443921    0.7941737681841967 O
   0.6250932404322460    0.1259519593276321   -0.0060814948378999 O
   0.3888263945822644    0.8670040943231854    0.7990376285267528 O
   0.3849104779197147    0.8815992522288250    0.5982984057856634 O
   0.3730415603584631    0.8715313703349521    0.3937775955714640 O
   0.3602388715490565    0.8644048073153104    0.2045977684306219 O
   0.3611128743734632    0.8824424652375565    0.0023338100987564 O
   0.3738704032151969    0.6180034119740015    0.7964240248511337 O
   0.3732186957685461    0.1315984232362576    0.5969638904935277 O
   0.3780877896439875    0.6166331466523995    0.5922849718111237 O
   0.3755804851984364    0.6197066667324316    0.1965786669609074 O
   0.3797918051059430    0.6231127339051195   -0.0049624512516929 O
   0.3756407802565421    0.3779158145863035    0.7962696480769008 O
   0.3776547081617061    0.3786953855437430    0.5926125874786808 O
   0.3812902514500777    0.3790019163392949    0.3931930738068607 O
   0.3776955869529096    0.3733661697429027    0.1966119969570117 O
   0.3739080608545212    0.3757866185835425   -0.0017730042347663 O
   0.3803128709153918    0.6184656457573716    0.3936050022000038 O
  -0.0008855501129010    0.1196220450201603    0.0985392970521956 O
   0.4999920235738790    0.1349229876376126    0.4987056608412440 O
   0.0038976246196827    0.1271739035464414    0.4980134745571154 O
   0.5059519444183771    0.8782956208792969    0.5020290187960759 O
   0.4987382858304916    0.8699804903739702    0.2981167851997177 O
   0.5010880326677268    0.8754362318251514    0.1013962275048985 O
   0.5003621373140450    0.6130905731794032    0.8976442136208275 O
   0.4969588515190455    0.6113396886540143    0.6926251123442514 O
   0.5040668398604974    0.6159447121805316    0.4930129340145415 O
   0.5056317575404774    0.6241830295456917    0.2940137487691086 O
   0.5050830255498525    0.6212170076416818    0.1019245235857617 O
   0.4965557381840616    0.3793716015114995    0.9008101400600388 O
   0.4997630966539514    0.3831204011912435    0.6951365917717203 O
   0.5014446160523575    0.3846758025615531    0.4941298005465799 O
   0.5047096632633635    0.3748108121995452    0.2953619637717391 O
   0.5007981955759040    0.3748409472743133    0.0981177144602644 O
   0.5007051957956368    0.1278186159267393    0.8971786500503887 O
   0.4988020013110480    0.1308272386228592    0.6990625446578541 O
   0.5050307629883638    0.8866732847539092    0.6894099643849910 O
   0.5031916395665484    0.8703270856345754    0.8981583967456381 O
   0.7487831525234244    0.1255018302870733    0.0990810639238334 O
   0.7424860845907801    0.1229187120087139    0.2977918086486935 O
   0.7455044190860421    0.8732742732882957    0.4983357143266915 O
   0.7481142797926327    0.8728274262591388    0.2995652743468692 O
   0.7538245949038103    0.8766536396905378    0.0975733767983048 O
   0.7432817877288341    0.6262077928345418    0.9056714600914770 O
   0.7389990447629355    0.6221020566329790    0.6970136725971700 O
   0.7415728601842859    0.6183770751242699    0.4951705046003992 O
   0.7524384375550249    0.6249783885026488    0.2958386844686838 O
   0.1255161908997121    0.1271228878008129    0.7972990480968060 O
   0.7521331818117902    0.6190337244934404    0.0900584589504413 O
   0.7465036327213943    0.3702622984402862    0.6976627502037177 O
   0.7431929063863183    0.3884316727282208    0.4917096515888174 O
   0.7523588007634610    0.3757803675065338    0.2930231051703736 O
   0.7543455271300868    0.3748425649197760    0.1028180093364361 O
   0.7484564759095050    0.1355718323823505    0.8934042596267848 O
   0.7446454761099037    0.1363067842513504    0.6944030973006777 O
   0.7491350180441625    0.1244108193594652    0.4969593736975774 O
   0.7531718248354571    0.3582350378908638    0.8934206374416520 O
   0.4976868859634334    0.1232453060117478    0.2974717115165842 O
   0.4973113500803375    0.1243040131990066    0.0975257081326839 O
   0.2424447184730671    0.8743052465590188    0.8951128619296278 O
   0.0060680533058152    0.8795478973865926    0.6967887033522303 O
  -0.0049224208508767    0.8749916737110438    0.4979784963049702 O
  -0.0016451880094481    0.8700368395095596    0.2985078382287352 O
   0.0032404272338778    0.8722161102511756    0.0987647099460947 O
   0.0079725105199704    0.6229129039002210    0.9001345506270575 O
   0.0125077374723809    0.6246940133323968    0.6981554791193941 O
  -0.0016115210736563    0.6228100426455397    0.4981015204530482 O
   0.0002933473247614    0.8787145314785706    0.9010894256887406 O
  -0.0036230079091672    0.6269840101820378    0.2967400536651660 O
  -0.0014305236133876    0.3786805409497377    0.8997057404542375 O
   0.0000251816448540    0.3745137637466993    0.6989000260113164 O
   0.0041276183460526    0.3773085717646655    0.5011571260621902 O
  -0.0049247614238336    0.3679986981263812    0.2930893228798311 O
  -0.0045648994529966    0.3708428797843559    0.1027350361703575 O
  -0.0000415654556496    0.1269772793246022    0.8987542242061964 O
  -0.0048792211306886    0.1287610335294271    0.6992788132807989 O
   0.0045950951494710    0.6246661232116634    0.0989165486638143 O
  -0.0026768772631988    0.1208949297884406    0.3008870609143828 O
   0.2472878463195862    0.1257900989804714    0.0974907854614898 O
   0.2523557797121327    0.1356479377421929    0.4943168832755155 O
   0.2480649156585868    0.8763808128489574    0.6991705518289568 O
   0.2429962602144729    0.8756329774301508    0.4986248213142477 O
   0.2444684582024503    0.8674685974644513    0.2972044687268569 O
   0.2417051794623038    0.8770243763514631    0.0984603630547334 O
   0.2551659914082725    0.6219287635086240    0.8947075113010650 O
   0.2550847912666019    0.6251138844264610    0.6952216902877214 O
   0.2507788961662208    0.6224283091912414    0.4962163596158811 O
   0.2491308472030492    0.1210795104915283    0.2974975391610288 O
   0.2507577554867644    0.6221882498916405    0.3005012303767365 O
   0.2490597315984488    0.3822477588538069    0.8938379261065940 O
   0.2511755720730768    0.3758188632383812    0.6977218373462469 O
   0.2506999923873205    0.3723470539672591    0.4958642419751755 O
   0.2555855538165172    0.3753001402732716    0.2973022562783483 O
   0.2569591556050367    0.3795485167618711    0.0957049896646180 O
   0.2485427168892849    0.1299855894254141    0.8974384123468808 O
   0.2483645967154249    0.1282247916218808    0.6986812306669474 O
   0.2547615041385110    0.6160136002510488    0.0926047102028968 O
   0.1256508964331715    0.1268646197948802    0.5966521132839242 O
   0.3869159140945762    0.7404105095598400    0.8943337735360679 O
   0.1264584332086075    0.1198858832076291    0.1982938260170959 O
   0.3754788990974823   -0.0060609830867593    0.2980613058299814 O
   0.3786021682016627    0.0097162432081681    0.5004743469547424 O
   0.3730295956575912    0.0068427574524931    0.7016417058540905 O
   0.3755387015062242    0.0108438646866670    0.8951421138009846 O
   0.3745197729983330    0.2514936780633368    0.0978973190140042 O
   0.3775927984801637    0.2464180722547934    0.2974548717004827 O
   0.3693307821013370    0.2567587783410391    0.4930524809709494 O
   0.3765103405772540    0.2569673617496505    0.6976182364683470 O
   0.3732673045784223    0.2568122964223907    0.8979711566743923 O
   0.3715913951091005    0.4953990996734787    0.0942890846182657 O
   0.3754387536518247    0.4974768743167439    0.2947077495189169 O
   0.3790803846681041    0.4983425394608406    0.4903908187850198 O
   0.3795684710574033    0.4976951258367395    0.6923340458507488 O
   0.3673345431193357    0.4985315583236614    0.8946401540596666 O
   0.3765260121574865    0.7398662193647829    0.0979090368570761 O
   0.3738765536340908    0.7414614545394597    0.2983347580130773 O
   0.3775157297646125    0.7395579054926976    0.4974365567010405 O
   0.3640413157768218    0.0068221473826462    0.0951571401014049 O
   0.3783546630385412    0.7437632912211085    0.6967068689098709 O
   0.1267695473311506    0.7514026936865249    0.8995672362279502 O
   0.1236693738564417    0.7512756421811032    0.4981425576330286 O
   0.1263897927068859   -0.0026081870404524    0.0975724976669684 O
   0.1237558706150685   -0.0050618256583542    0.2998364697749685 O
   0.1257296689410533    0.0050201851013439    0.4986098471418172 O
   0.1296055777380180    0.1272999840640157    0.3972657632122181 O
   0.1245151610261287    0.0050461735767819    0.8984074493593873 O
   0.1217162989147163    0.2438543744561989    0.0990370385774029 O
   0.1258340855949985    0.2429812389746232    0.2989774045922130 O
   0.1328227362651845    0.2548331226721778    0.4969302028089653 O
   0.1249293136256090    0.2538538653141845    0.6985985589679233 O
   0.1250966375923548    0.2568163174881316    0.8991938815394287 O
   0.1352509298199749    0.5049129779809166    0.0936201073729866 O
   0.1236215166030926    0.5044339398349262    0.2987294373039502 O
   0.1263587185181011    0.5008895419520064    0.4988168611872208 O
   0.1260854801178455    0.5006804721632826    0.6967276106225877 O
   0.1324699092969154    0.5036386177557967    0.8948050180738415 O
   0.1286121354845209    0.7495307607400491    0.0983761841642071 O
   0.1297432176494355    0.7467625647536795    0.2936912654539446 O
   0.1298390882443966    0.7511898514411482    0.6994083319990106 O
   0.7418590802544397    0.8752466294672708    0.6999882306601285 O
   0.1259810668435033    0.0067986493156029    0.6992578585425322 O
   0.6235332244801932   -0.0054268420344724    0.3003948767924084 O
   0.8737358749622577    0.0067091793212746    0.8985943713107860 O
   0.8780950015465824    0.2433744969491828    0.1019771693690929 O
   0.8727814320347627    0.2446467398075255    0.2980989620215513 O
   0.8737305216351517    0.2450908070914720    0.4953980725563075 O
   0.8659478682641726    0.2480943357167163    0.6920655829071105 O
   0.8738284658946822    0.2483331529779881    0.8961788604804188 O
   0.8773375816737552    0.4995519640073120    0.1003776061105361 O
   0.8783202943575661    0.4995457017454374    0.2961212835952510 O
   0.8700942861088249    0.0084906853990451    0.6994449696960350 O
   0.8663183468112632    0.5047866199973341    0.4903434320737096 O
   0.8657835524275634    0.4914352477754724    0.9033206848527489 O
   0.8759840901664291    0.7486745792112216    0.0949327401175623 O
   0.8641358935542449    0.7465094971327085    0.2933377198650314 O
   0.8720723281434388    0.7465945601197913    0.4983741108663971 O
   0.8736098727410861    0.7506799889271356    0.6967095383615509 O
   0.8773462083290522    0.7569082721583301    0.9008333315093355 O
   0.1234229700092253    0.1256701437962528   -0.0027190811578635 O
   0.6265566718895091    0.0048195005007103    0.0981329716432853 O
   0.8733399802927173    0.4905272019661605    0.6993898580899779 O
   0.8728997643599775   -0.0022959727532991    0.4967016356017017 O
   0.7437014157893040    0.8737350240080188    0.8967982727749062 O
   0.8771812427314154   -0.0031661853578144    0.0989208997067731 O
   0.8731868477035196   -0.0082252223641816    0.2983938112841016 O
   0.6263851293145229    0.0074696898184791    0.6983230036720337 O
   0.6250768850721532   -0.0003074401564064    0.8978384243126836 O
   0.6245252249713614    0.2508197341283324    0.0985338955186601 O
   0.6247492990724893    0.2509643079898546    0.2990900406284884 O
   0.6237641320101213    0.2583550648407683    0.4955128131477922 O
   0.6251106552910026    0.2580986465398019    0.6952115148809933 O
   0.6218597505181263    0.2491036124458392    0.8969506403220401 O
   0.6304955634725408    0.4975700577859254    0.1068962019573054 O
   0.6226860105751222    0.5044102182721923    0.4916667281615603 O
   0.6212867418018637    0.4984547546532300    0.6906943325600066 O
   0.6377336093559801    0.5026811518428044    0.9054821615887479 O
   0.6269030149039702    0.7449423413354588    0.0998293871478170 O
   0.6342281943085430    0.7415852978512104    0.2950269869460747 O
   0.6237747287623470    0.7448498695191017    0.4983398649921933 O
   0.6199266934597871    0.7499035863892265    0.6983853562493374 O
   0.6128316157339530    0.7434624478733584    0.8944251892526544 O
   0.6315538924788416    0.4990664781097994    0.2860409462526561 O
   0.6196698287030232    0.0089039472473888    0.5023198942545555 O
   0.6261788882077344    0.8744831199867744    0.1019283413567129 Sn
   0.3765138327749163    0.8740785813656173    0.6991823391564893 Sn
   0.6253571804035898    0.3777988534466555    0.8999297311328287 Sn
   0.8776778646671699    0.8751932180757075    0.1008800191049192 Ta
   0.1258318204483530    0.1237187918288465    0.1036443230042146 Ta
   0.1263853345312492    0.3775726007505128    0.6993372222315127 Ta
   0.3810639769160962    0.1217964880906951    0.5062216110085577 Ti
   0.3804449302343686    0.1238244300299981    0.7034830608190952 Ti
   0.3724982451569384    0.1227365247377591    0.9048928932583936 Ti
   0.3761997702959451    0.3829340410520381    0.3010410356830340 Ti
   0.3734059298270315    0.3765234622825200    0.5033574523649611 Ti
   0.3726861969108006    0.3744054515186707    0.7084359882315689 Ti
   0.3772477669367811    0.3730807876329931    0.9075701153801167 Ti
   0.3724320081184053    0.6275943890044412    0.1067076492078351 Ti
   0.3719150660236820    0.6274037176405983    0.3030265905513915 Ti
   0.3736153452679120    0.6257850227654854    0.5031278479824285 Ti
   0.3713601062405273    0.6237800344637852    0.7085593740851268 Ti
   0.3767528996935617    0.6207939790303663    0.9054370601730302 Ti
   0.3784805293911794    0.1341941512165246    0.3063513913852726 Ti
   0.3783221590577170    0.1301205650690685    0.1045103449773389 Ti
   0.8858331042308133    0.8681061795096334    0.8984061223478047 Ti
   0.1245698642056745    0.8669906681158683    0.7076995062151300 Ti
   0.1285723499807729    0.8677722949484897    0.5054085296936298 Ti
   0.1198676340101458    0.8802037125904594    0.3062643046558572 Ti
   0.1205630321279312    0.6271565670321543    0.9057766838889579 Ti
   0.1250655264246172    0.6246273933931241    0.7077140579607591 Ti
   0.1277547212586256    0.6181846734595622    0.5038871422324861 Ti
   0.1298329461122767    0.6282806188454132    0.3036782952068461 Ti
   0.1233066649626284    0.6312021974159454    0.1051549470483137 Ti
   0.1246191470732326    0.3716449032993649    0.9048424538940882 Ti
   0.1313274407237534    0.1175572742947960    0.9048993767500588 Ti
   0.1325049560424734    0.1212380663639483    0.7048162505750272 Ti
   0.1198192919302051    0.1203569715671793    0.5044591377186037 Ti
   0.1333148998347267    0.1295480161082694    0.3053051875221051 Ti
   0.3812187064619476    0.8796671336656594    0.3015857416264509 Ti
   0.1297904354708740    0.8683549821321721    0.9053356310195033 Ti
   0.8828803390396111    0.1323329171871881    0.3031058405017915 Ti
   0.6288634254849578    0.1234678106205127    0.1056231995275693 Ti
   0.8787671406227339    0.6275086407433552    0.5053127566038215 Ti
   0.8770542567287595    0.6199196592378432    0.3047452867194319 Ti
   0.8669029252219773    0.6271195510582396    0.0991391993467008 Ti
   0.8776734339900701    0.3804232407858015    0.9071842294433548 Ti
   0.8758134076596358    0.3792411014880138    0.7026004431948980 Ti
   0.8668306593459965    0.3836234590655792    0.3016789046742006 Ti
   0.8682143411413219    0.3868212446022717    0.0997510351878056 Ti
   0.8837674267912753    0.1203051328254202    0.9067703438364438 Ti
   0.8800311102013958    0.1256479368471643    0.7027499024779973 Ti
   0.8650317563875075    0.1267729868183382    0.5044121625664215 Ti
   0.8745027346770298    0.8777291777805916    0.3037367634167076 Ti
   0.8785779724398080    0.1299576070632373    0.1079155014426405 Ti
   0.6299305526092062    0.8830629483120713    0.9021379005774314 Ti
   0.6248508826870293    0.8635742816468646    0.7042962262829902 Ti
   0.6303396145562208    0.8792530745704421    0.2979267949044755 Ti
   0.6301241571460924    0.8607414182807498    0.4954354724008990 Ti
   0.6177752355236189    0.3704888415728374    0.0970133619641176 Ti
   0.6157972657217977    0.6244886561747154    0.8863639406011469 Ti
   0.6277850848540065    0.6193382666328214    0.6921119342403200 Ti
   0.6197530775846474    0.6201041885757224    0.3057173365556489 Ti
   0.6214994759401151    0.6279227375019500    0.0985998831677759 Ti
   0.6249304954169339    0.3777503086405701    0.7057932375407716 Ti
   0.6250929846822232    0.3713791882247038    0.5086692167214136 Ti
   0.6198800168435494    0.3776686036792590    0.3041738066542993 Ti
   0.8794057582497591    0.8786232637979590    0.5019554389522207 Ti
   0.6274235381188824    0.1315508381416202    0.3055380256460485 Ti
   0.6216436271847066    0.1238319272807428    0.5073169106009641 Ti
   0.6207404653843933    0.1309288060359515    0.9034876734442034 Ti
   0.6218462590210709    0.1195872483814891    0.7046379469172868 Ti
   0.3723464265525807    0.8709230162524445    0.4950983701844546 Zn
   0.3684522257186262    0.8835377039728138    0.9040901050985166 Zn
   0.8773329595634566    0.6252093247193068    0.7046379256201342 Zn
   0.8750475659652828    0.3745115801024036    0.5033793892849443 Zr
   0.8768843264491046    0.8726560021709283    0.7021437359253060 Zr
   0.1268728645925739    0.3747967187213147    0.3038256384189981 Zr
