Li100 Mn25 Al25 Co25 Ni25 O200
1.0
   7.2266331227712373  -12.4803208035341449   -0.0073294410479938
   7.2358636961096847   12.4856485395713719   -0.0001259271660409
  -0.0109659349486661    0.0060284803859333   19.7808586398439310
Al Co Li Mn Ni O
25 25 100 25 25 200
direct
   0.4169414087634546    0.8045529146486936    0.2511040531510715 Al
   0.6130393551109418    0.8016327991494793    0.2516954010987991 Al
   0.8011242984262467    0.0061573629873780    0.7526886508623747 Al
   0.7994419215707596    0.4038222562863571    0.7494817824242602 Al
   0.8006143200695057    0.6026840294056046    0.7461017163346276 Al
   0.6126410225169396    0.0034217807368410    0.2512945208209238 Al
   0.4082343867338480    0.6056122049100474    0.7491309062292034 Al
  -0.0013795601981905    0.3961963549974905    0.5029239542891940 Al
  -0.0059920528307708    0.5905052129400632    0.5008877085442740 Al
  -0.0219936403826820    0.7945049177926260   -0.0008882281326138 Al
   0.4173548926095331    0.2049586407266141    0.2482427338573531 Al
   0.1966908608782548   -0.0064911682489368    0.4975470795781586 Al
   0.6059129560512121    0.6063917093386019    0.7446563233248708 Al
   0.1954627070538735    0.3969490676419110    0.5005115972457147 Al
   0.6139427610690471    0.6062328922346338    0.2479373498072841 Al
   0.3785953034186886    0.1967165036048015   -0.0025051827011680 Al
   0.7992551130866145    0.5949553568486182    0.4981726769108002 Al
   0.3948158154674758    0.5928346722153324    0.4991486627648701 Al
   0.2207531078629218    0.8052794968710075    0.2516618543148655 Al
   0.2185989764818216    0.6044865432903611    0.2528639323407605 Al
   0.7983886818436901    0.3926019463160009    0.5012703523324362 Al
   0.2151171186428583    0.4084558841807321    0.2528069017974812 Al
   0.7972631189916947    0.1952859622986865    0.5024164533578237 Al
   0.3953219717763258   -0.0065957762614274    0.5002857109798933 Al
   0.7756620986058234    0.1958179914386502    0.0035951773015138 Al
   0.6047617878770920    0.2051076703945226    0.7490137793194307 Co
   0.6054921398863953    0.0078677989979351    0.7502193738681161 Co
   0.0158804983565770    0.2057286208046205    0.2523845453416498 Co
   0.4049143069750361    0.4030090137982253    0.7472298443367853 Co
   0.4063100202934963    0.2033369095693152    0.7489209938678294 Co
   0.2077545327386317    0.4075578721086238    0.7507258322876137 Co
   0.2077039586295474    0.8054549024498050    0.7498310229843912 Co
   0.0033281397430893    0.0055542508895454    0.7489519223203626 Co
   0.4083469853203873    0.0059819749089717    0.7494627993589851 Co
   0.7948256031110932    0.7883060736222105    0.4990573518189335 Co
   0.8171470599414203    0.6063981669741925    0.2484428091399471 Co
   0.8142030716258208    0.2066221023071796    0.2534697619092664 Co
   0.7764842691822879   -0.0027117845976711    0.0018924746646360 Co
   0.5734195323032514    0.7953397788849450   -0.0004307681051949 Co
   0.5786879579771208    0.3963871648057750   -0.0036786246641960 Co
   0.5771656152698165    0.1941919353829861   -0.0025180520822268 Co
   0.5814322820803274   -0.0026833260359374    0.0008145085912090 Co
   0.3760316921117395    0.5935902677143587   -0.0001138139032775 Co
   0.5977424020641788    0.5925283205474885    0.4969151127919864 Co
  -0.0066685205127821    0.7910498447109223    0.5001023218254202 Co
  -0.0239260310581364    0.5888722428982618    0.0017410772310029 Co
  -0.0052406906502020    0.1945297340941417    0.5037776921802989 Co
  -0.0092531938588378   -0.0102147547020015    0.4983490896167687 Co
   0.1762150839130609    0.3950360791987894    0.0023650937411484 Co
   0.8043554508975599    0.8076202587886824    0.7474887006314107 Co
   0.6681646803479190    0.5332523235742656    0.8620630436205767 Li
   0.6831021105176067    0.5370966700718933    0.3681120305381016 Li
   0.6590399910666087    0.3253957715098980    0.8720358846101138 Li
   0.6747751779333558    0.3297307370781284    0.3743243090432167 Li
   0.6797851475359056    0.1380809724614158    0.3741376983310908 Li
   0.4652348379170154    0.9347860320030554    0.8744927531716695 Li
   0.4833811619465722    0.9371005083192236    0.3684469518285957 Li
   0.4745726837209829    0.7373589939053787    0.8696809632499078 Li
   0.6758720752940470    0.7268773547683133    0.3750619042905746 Li
   0.6556617798891392    0.1261952153591734    0.8773532412351558 Li
   0.6699535843562926    0.7392692956729526    0.8616252689247841 Li
   0.8530953598899774    0.5294453206174774    0.8797793097372035 Li
   0.6640229681756583    0.9385048306269764    0.8733062812217186 Li
   0.8790944269997795    0.1379900028751015    0.3749493619902693 Li
   0.8554474539249159    0.1344043110048806    0.8759093080730158 Li
   0.8709380139944582    0.3320513932694540    0.3805696723837052 Li
   0.8485501171429642    0.3295670518073476    0.8831467999984230 Li
   0.8844913473800423    0.5342984212729948    0.3735607377709170 Li
   0.8784768443945786    0.7349930522375538    0.3697092451176539 Li
   0.8568369621867754    0.7347212459612860    0.8705008109171677 Li
   0.8768908622383141    0.9281069804365603    0.3716601639109464 Li
   0.8580785650503348    0.9408181741528185    0.8739385185249290 Li
   0.4719219731772707    0.7281732736848476    0.3713696183198694 Li
   0.6744798222198334    0.9313042510249189    0.3744827940120878 Li
   0.4735033627397516    0.5409685610017511    0.8668526429050161 Li
   0.1420083935126683    0.0711487258667189    0.1309035719335080 Li
   0.4689133515648225    0.3372827191049085    0.8683467704467583 Li
   0.5399686152575275    0.2640389365154257    0.6287700930490568 Li
   0.5333853435288187    0.4677122897004200    0.1273040782234197 Li
   0.5367372766222412    0.4688047739293750    0.6257934276528658 Li
   0.5393879394953951    0.6725956298016492    0.1318921177248623 Li
   0.5417069141299689    0.6725059407550419    0.6260276935312055 Li
   0.5315637132036426    0.8648947139723339    0.1252659550191756 Li
   0.5390506401999902    0.8708840823515738    0.6280267198902286 Li
   0.7234452485505412    0.0585737948790222    0.1256026851940965 Li
   0.5346932798803354    0.2592197052227377    0.1259143896356236 Li
   0.7367194889027359    0.0736236805706685    0.6296164291018111 Li
   0.7384109076772672    0.2680022240287941    0.6296798928647098 Li
   0.7202127769163307    0.4622623607341324    0.1199455880262397 Li
   0.7290998981306046    0.4636625577514533    0.6231023679036151 Li
   0.7429421929026901    0.6721560043357900    0.1311228608390669 Li
   0.7311068893914268    0.6682085742766112    0.6234771344593167 Li
   0.7356924909337327    0.8628768677429995    0.1326136646424859 Li
   0.7418716476284887    0.8718191972266505    0.6319823534155316 Li
   0.9281771004560433    0.0671222909266490    0.1292961350857806 Li
   0.7366297244340132    0.2610476836611309    0.1341439834617750 Li
   0.9298167162201363    0.0703345403034251    0.6310396635870341 Li
   0.5363097571830405    0.0674204851247383    0.6214327165229044 Li
   0.3329139028658551    0.8624508027037401    0.6223712014096870 Li
   0.4770130451609531    0.5376531687442359    0.3643274323995404 Li
   0.1312909928141842    0.0621956440900483    0.6200040638198533 Li
   0.1353076022597827    0.2741345207636247    0.1312405087117904 Li
   0.1339172573917360    0.2686036556908297    0.6274700234538954 Li
   0.1330889412636842    0.4681085557729844    0.1335220012096930 Li
   0.1427030019027938    0.4704892215420558    0.6213270319412870 Li
   0.1382019905938899    0.6624523280950880    0.1321820836153497 Li
   0.1380972292435478    0.8593197420128110    0.1313595890403241 Li
   0.5372565047475222    0.0633807349639929    0.1289604709555054 Li
   0.1321562309763164    0.8631021964233807    0.6202330758489486 Li
   0.3412306324372594    0.0698426850003350    0.6243152095966806 Li
   0.3408455912776103    0.2726397274744060    0.1310669123289161 Li
   0.3353884615433944    0.2675381583369157    0.6295303165691429 Li
   0.3364418525652757    0.4698692770810385    0.1309519584571934 Li
   0.3401738044996183    0.4758338807340716    0.6311173497416368 Li
   0.3444802346420469    0.6663762531372077    0.1354466164763646 Li
   0.3385206290477257    0.6635551127570588    0.6263480988431173 Li
   0.3499372354857443    0.8695724046090010    0.1328201166380608 Li
   0.3443076539167139    0.0674378949971860    0.1277467940932180 Li
   0.9272402195889026    0.2647608757745998    0.1285994007171401 Li
   0.1298720929776034    0.6575687426768974    0.6192388937232919 Li
   0.9291834816660274    0.8571497255194228    0.6168451674227440 Li
   0.9450447027665950    0.8701732240610923    0.1361391896770995 Li
   0.2795518268530838    0.3399142699181464    0.3719861863298639 Li
   0.2873522396407245    0.7379562581825388    0.3753465754579149 Li
   0.0712323179789459    0.1342730395594286    0.3783962494015972 Li
   0.0637390093804697    0.1447110156860194    0.8737609320098066 Li
   0.0755728005781899    0.3415163146459181    0.3749451426486640 Li
   0.0702296306789297    0.3410695953668735    0.8734991498521634 Li
   0.0843978071290230    0.5318488768323578    0.3757663411930406 Li
   0.0497757812473046    0.5201261442626667    0.8791183151761738 Li
   0.0725468301290193    0.7301532434307941    0.3785037662274081 Li
   0.0586084992589336    0.7277932171722139    0.8747147323220120 Li
   0.0771866634499229    0.9281395464662877    0.3700249869239451 Li
   0.2707851577633641    0.5378468282461114    0.8728762179252397 Li
   0.2836774360664237    0.5402441523049838    0.3709346174692895 Li
   0.0668183922772983    0.9404453848896468    0.8700951680440612 Li
   0.2816561462728689    0.1320402149087014    0.3735541522276074 Li
   0.2707456915855980    0.1447443297204450    0.8694111580332813 Li
   0.2575585494789156    0.7296872347801077    0.8796396647741229 Li
   0.2861355490479023    0.9349961891906944    0.3718296377419569 Li
   0.2768512719259304    0.3432588563618695    0.8665905946660223 Li
   0.4694976145308584    0.1383394671299212    0.8708354706436510 Li
   0.9259248522768082    0.4544450176842444    0.1274095357308015 Li
   0.2665913427206585    0.9390685222977474    0.8757846716936770 Li
   0.9254506631929956    0.6585631648431127    0.6208933733928996 Li
   0.4809483476733693    0.3355649416143646    0.3690546265948326 Li
   0.9299999997554541    0.4627836569380124    0.6239599379798245 Li
   0.9334196050644984    0.2676846295259190    0.6247533209027923 Li
   0.4812168398257307    0.1267351899385967    0.3704603205478270 Li
   0.9349791092571313    0.6614375849052508    0.1265127792865360 Li
   0.1974898459830907    0.1934787887402489    0.4989318099881285 Mn
   0.7762342773833011    0.7982042861605259   -0.0012658919620387 Mn
   0.1790758751679188    0.5939916742360004    0.0029463536345954 Mn
   0.0199112060491900    0.6066436089481286    0.2534750645635481 Mn
   0.6002567388315555    0.3950084661233896    0.4973701435367985 Mn
   0.5967427673833652   -0.0062453933037368    0.5002271904462857 Mn
   0.3754339371828840    0.3952705701228090   -0.0010922042218247 Mn
   0.3981208215186406    0.3956218056371410    0.4983223469523235 Mn
   0.1787720145577830    0.7956549764472277   -0.0000842307383035 Mn
   0.1937354876970644    0.7921007009782177    0.5003820154984163 Mn
   0.4065746800523384    0.8064616959631548    0.7506324933535827 Mn
   0.8138726959486334    0.0040893111807153    0.2512793965801994 Mn
   0.0029089199539753    0.4049103154176640    0.7515686669344955 Mn
   0.0054493322548914    0.6052240605210084    0.7492541672572679 Mn
   0.0025607723517060    0.2046610289371753    0.7525906149623197 Mn
   0.5965869887282145    0.7897696644524010    0.4992150671307495 Mn
   0.0054503236696664    0.8047801447701156    0.7483569691669388 Mn
   0.1802834068306410   -0.0019953582311206   -0.0011011369259200 Mn
  -0.0228056493305973   -0.0039062731955657    0.0004025814854952 Mn
   0.6139995503217087    0.4040626475492475    0.2472876074209530 Mn
   0.2171526473502405    0.0034078983653641    0.2487599113372804 Mn
   0.7785748918276758    0.5980665412276129   -0.0025374438855619 Mn
   0.2092136053638466    0.0055961829672573    0.7486010403507447 Mn
   0.2148556389487130    0.2064664304224143    0.2506972153567475 Mn
  -0.0239903189184906    0.1971604909883426    0.0024492788684211 Mn
   0.5755921974311796    0.5972733076769947   -0.0025295171697593 Ni
   0.7800566254314528    0.3968557002407295   -0.0004209507314165 Ni
   0.7984251022862346   -0.0079193880133758    0.5009511545863983 Ni
   0.4192778040058796    0.0064045338873135    0.2499995942097550 Ni
   0.5954385456236988    0.1929766561691651    0.5005920430607063 Ni
   0.3828844062716575    0.7977194513646458    0.0009301108686047 Ni
   0.2072345883824982    0.6049644919023602    0.7516813527733527 Ni
   0.3949781108577654    0.7905535071898888    0.5004271230829684 Ni
   0.4155588021015006    0.6037058472568835    0.2496480552526237 Ni
   0.2059541541758526    0.2053749382498496    0.7491194542655947 Ni
   0.6156437004120483    0.2029167655494220    0.2490293346086150 Ni
   0.6029399073753556    0.4019157401390719    0.7462730195874192 Ni
   0.6083776394845621    0.8083538404060929    0.7483760740595825 Ni
   0.7984033301745741    0.2047261496591571    0.7532175327245669 Ni
   0.8164138011901256    0.4046896349158499    0.2507936679911242 Ni
   0.0152727559495854    0.8045008996601144    0.2508209437480319 Ni
   0.8174111346324219    0.8046210933958580    0.2502488575185250 Ni
   0.3997594264198080    0.1922896315218660    0.4988201771292602 Ni
   0.3839958182637517   -0.0038488724685891   -0.0010734661784402 Ni
   0.0138290414618627    0.4032276245514539    0.2541079333584610 Ni
   0.1978747905679569    0.5944717929202064    0.4996322564438914 Ni
   0.4147320309992321    0.4070759836802114    0.2493474540044463 Ni
  -0.0244774580141391    0.3957556204578183    0.0032959294387940 Ni
   0.0133219583414236    0.0026726526080795    0.2506386076391950 Ni
   0.1780284593214193    0.1984013478635578    0.0006800991640126 Ni
   0.4996505567388362    0.6593450907303792    0.9430806789592556 O
   0.7163431423078495    0.4760336671920280    0.9398801558938057 O
   0.7265905314258080    0.0653718410627789    0.4474849047584447 O
   0.7153967591951423    0.0636764014939162    0.9503604596815625 O
   0.7390530979374547    0.2656255300514899    0.4493066605050839 O
   0.5394798496939585    0.8629254179359912    0.4455122429682918 O
   0.7107768067253869    0.2530408847341040    0.9447591693692977 O
   0.7322504622905487    0.4611365426863409    0.4471513489311486 O
   0.5222204166979798    0.8671763221455479    0.9447695732709255 O
   0.9034214156155075    0.2503700141435824    0.9489043234422850 O
   0.7195734386603734    0.6732830248809457    0.9424597835847504 O
   0.7239438972499962    0.8489030030413585    0.4453196158074282 O
   0.7191563973347869    0.8679053748197715    0.9462295267055614 O
   0.9366303156829988    0.0587984359400694    0.4432207595327435 O
   0.9108844802140836    0.0622488973248038    0.9488758608567335 O
   0.9278797058526452    0.2616672525298345    0.4521282483472654 O
   0.5287737534249048    0.6574900535609610    0.4466086352284595 O
   0.9291256370361576    0.4597092281749728    0.4510061883713034 O
   0.9134536255087533    0.4622492534760076    0.9390296825595824 O
   0.9278164637655988    0.6565910304721465    0.4490568706699862 O
   0.7303096018277789    0.6554231696957731    0.4460507122871046 O
   0.5020639901240833    0.4553389742501042    0.9427250780761928 O
   0.3053138126876760    0.4584041990045009    0.9483316767204634 O
   0.5025066905811651    0.2569313129915144    0.9408861594045091 O
   0.9099347636240172    0.6720342082013318    0.9435927266939389 O
   0.1036477316304869    0.0543371873617829    0.9455698964032681 O
   0.1363949840718336    0.2650409207717159    0.4481796797942768 O
   0.1018237582806663    0.2640274894396751    0.9482933782786005 O
   0.1231077553188640    0.4502758113927598    0.4484506671095099 O
   0.1164919099545655    0.4653361348737003    0.9500122586695817 O
   0.1221342297655838    0.6627321774771182    0.4476709608698011 O
   0.1205812868338725    0.6658951417092198    0.9463587668823381 O
   0.1262136907926797    0.8599362613428438    0.4482767145214409 O
   0.1088157258664463    0.8615724722688575    0.9461336495834464 O
   0.5288347930492840    0.4590851545131092    0.4446778016603685 O
   0.3247423906532864    0.0494709303525636    0.4460003035567957 O
   0.3280666079092168    0.2649664923694283    0.4448205004373544 O
   0.3135020276495266    0.2641262624702429    0.9452088711860022 O
   0.3296224826822536    0.4593312252536506    0.4483881580992687 O
   0.3368596286490556    0.6552985476347163    0.4431161911764427 O
   0.3048103081490589    0.6529882761015219    0.9473341223753668 O
   0.3218793344605068    0.8600854440809376    0.4480610537926314 O
   0.3013956492546608    0.8571823970256465    0.9426193843299244 O
   0.5222799832795531    0.0481715871625874    0.4468262589047790 O
   0.5183722051498573    0.0583641457414702    0.9409562529152822 O
   0.5374488920466916    0.2707281250059704    0.4416077796736730 O
   0.3027444397425219    0.0653562510207061    0.9433938546208226 O
   0.9234618226485273    0.8496842778145425    0.4476579332563988 O
   0.6612112498627637    0.7219838835604026    0.5498527710893248 O
   0.0359805595249378    0.1226175418191288    0.0548539741116550 O
   0.4678333054088737    0.7183090077529989    0.5540846812195209 O
   0.4569088336267465    0.9340753958908687    0.0575601196039695 O
   0.4657905748943070    0.9318173272527340    0.5547204181678681 O
   0.6486621762059263    0.1274947238352251    0.0544162995820132 O
   0.6674950708044928    0.1211857283341668    0.5553517623975809 O
   0.6375598229622783    0.3343140906486541    0.0508344076572709 O
   0.6680323686542688    0.3381560005840986    0.5533082658915902 O
   0.6526046248087142    0.5353415062681307    0.0521072470954307 O
   0.6656509802709079    0.5285936960096247    0.5490129252212395 O
   0.6532689367079888    0.7403390540639510    0.0534820045533681 O
   0.6497207246455665    0.9355405305253983    0.0550107505410546 O
   0.6538938050217064    0.9184339648577564    0.5540739360381106 O
   0.8447600191138972    0.1282350464651676    0.0555848281797007 O
   0.8641477849141647    0.1337288182057801    0.5581007757976687 O
   0.8392293737160409    0.3191616726012377    0.0581615341105003 O
   0.8616906652070687    0.3275134719473600    0.5555335556267516 O
   0.8405149596620651    0.5390446683065265    0.0561135371729694 O
   0.8615707873872395    0.5277235340174411    0.5526147159063550 O
   0.8463517837510089    0.7342434084612293    0.0492794326895890 O
   0.8600272412846203    0.7213334643934625    0.5522330022960725 O
   0.1383721398981296    0.0649802929930632    0.4443461116527966 O
   0.4441910059983872    0.7188677148604071    0.0568825237489702 O
   0.4645284984413073    0.5253274667569905    0.5491967703011235 O
   0.4370472397790338    0.5234163407223409    0.0520387315797210 O
   0.4701219794949225    0.3372043197804998    0.5515151868297190 O
   0.0708372653886200    0.1335034432380729    0.5549159726320746 O
   0.0468569900461657    0.3206043178104416    0.0581997219678595 O
   0.0705097407180400    0.3369233958581191    0.5566734802142105 O
   0.0562533576450878    0.5335900796849493    0.0614470812590208 O
   0.0547427037677327    0.5245141698398953    0.5556117560004513 O
   0.0479113823080654    0.7416681922505857    0.0533405392132634 O
   0.0600106824779590    0.7248075897231443    0.5535981788158981 O
   0.0420593278974753    0.9288754680840490    0.0504207312308214 O
   0.0657529556211730    0.9263173145343773    0.5508815310108178 O
   0.2474819487288113    0.1227705598794830    0.0525802927236826 O
   0.9124415925284680    0.8659353001339631    0.9473382938511119 O
   0.2541852615628853    0.1211051799775571    0.5522685673235723 O
   0.2666540044874746    0.3267106808385916    0.5507253750767387 O
   0.2440960486086036    0.5288076111280332    0.0536347914221611 O
   0.2705641646928235    0.5227178920325956    0.5537636227021124 O
   0.2383153588744702    0.7289107561702345    0.0546423826407546 O
   0.2563645102428773    0.7309104907997790    0.5578539269136354 O
   0.2384515401361927    0.9271853868942185    0.0515554446474419 O
   0.2593180127340356    0.9251257771797223    0.5526917683402466 O
   0.4461390162910682    0.1391283364284654    0.0504008652377741 O
   0.4575667548242793    0.1161524642723254    0.5567018872435333 O
   0.4349155516283901    0.3259113261451536    0.0514142710369823 O
   0.2483323222549583    0.3374659523209303    0.0550710520795859 O
   0.9444401626739882    0.8635081750767980    0.8061521503712985 O
   0.6688873278793057    0.7322811503727910    0.6894195613361728 O
   0.9395257348863161    0.6725201931924685    0.8002012283189553 O
   0.4891465147875420    0.5429644565961759    0.1922465516456479 O
   0.4765665461759844    0.5470130536912718    0.6927335217514113 O
   0.4863042538908772    0.7459537202882771    0.1967269498644491 O
   0.4644717852910087    0.7389970197737461    0.6951993032565562 O
   0.4863269027991883    0.9337264051305575    0.1971410446217513 O
   0.4718616662292550    0.9379006284068325    0.6977243034669254 O
   0.6792026683528051    0.1268775209969131    0.1950957146184266 O
   0.6617794527401015    0.1346645337990389    0.6951684334504011 O
   0.6775920451854687    0.3426822608816938    0.1913219933947136 O
   0.6784732974846915    0.3357170112021198    0.6927680341718717 O
   0.6740123993320958    0.5342201510396232    0.1934696968486526 O
   0.6774182889226174    0.5462681154054871    0.6905594318069187 O
   0.6739665975935061    0.7351257200520938    0.1960935923970736 O
   0.6822750274254290    0.9369940745283736    0.1989104385223540 O
   0.6764008464407378    0.9495988398159194    0.6961999143331166 O
   0.8841470465187015    0.1379650015883751    0.1995753287744979 O
   0.8722898669373047    0.1373275720834668    0.7001194476164601 O
   0.8791531780264558    0.3326685471657738    0.1936334005578041 O
   0.8733452651107814    0.3474239587450256    0.6975555101306345 O
   0.8933597051016675    0.5471399659366617    0.1971863394225518 O
   0.8725239405523685    0.5401019696124099    0.6964879957079012 O
   0.4654829864611039    0.3261739892485648    0.6903071788476512 O
   0.8805850891315361    0.7343471206337664    0.1884419387716887 O
   0.4807629516186622    0.3327145577365458    0.1933324026113245 O
   0.4736270186503882    0.1392011781422148    0.1920616951661260 O
   0.8454578459494531    0.9294626919476147    0.0522815772696327 O
   0.0872161918146587    0.1461823479031779    0.1963298080798549 O
   0.0655095700392783    0.1456461087415992    0.6941775454175387 O
   0.0866957100563540    0.3365790301717185    0.2008626372859183 O
   0.0601214380351865    0.3350612485930758    0.6973636546031682 O
   0.0901954335218937    0.5473958550560521    0.2007824994836591 O
   0.0641722697135746    0.5353878063164025    0.6963495077370467 O
   0.0918011848351999    0.7370055913562736    0.1989444870592403 O
   0.0741422283827887    0.7367538704957493    0.6966552638776415 O
   0.0923210222339670    0.9432272579497250    0.1915891637557584 O
   0.0788292761592509    0.9327797660588849    0.6935042342872452 O
   0.2814516391469826    0.1398472744608892    0.1957304206193329 O
   0.2746527719753375    0.1290775639609978    0.6936270514202210 O
   0.2738916581505599    0.3346686615003701    0.1965016900873996 O
   0.2793727872825769    0.3417156847057544    0.6906178830262772 O
   0.2715573271422035    0.5326632165983179    0.1958478177743545 O
   0.2823697255895782    0.5445171857924025    0.6947350173322389 O
   0.2859560648530732    0.7398734503831853    0.1983335613591513 O
   0.2763349534087788    0.7465377244435422    0.6974506663927416 O
   0.2754089476318329    0.9324887686253263    0.1945544446370055 O
   0.2748320295102352    0.9374978777200035    0.6968938802331974 O
   0.4722189323678329    0.1358194780347096    0.6983045178994701 O
   0.8809347134718074    0.7353495829959018    0.6932533812650962 O
   0.8764969651023039    0.9433099983188071    0.1918839647558972 O
   0.8651083137335355    0.9460499852759553    0.6956243191318082 O
   0.5583034008193440    0.6749846953527506    0.3051758183382031 O
   0.5394648320093512    0.6676304655989036    0.8007042316421914 O
   0.5483329401824090    0.8686874950626187    0.3029733080704557 O
   0.5332703395794344    0.8773663584098720    0.8046519918345159 O
   0.7447375242858293    0.0639065910319146    0.3047610954598043 O
   0.7313828611082674    0.0656214944086505    0.8070766444095583 O
   0.7540470947906389    0.2671755508889183    0.3091866249327618 O
   0.7357245911554028    0.2818088324715648    0.8050201873225626 O
   0.7391813070967853    0.4666086016683468    0.3041985260622846 O
   0.7483484832162310    0.4796385552014044    0.8004912808043413 O
   0.7446393003868548    0.6624675139657737    0.3023142639273591 O
   0.7356447237239347    0.6637960803865437    0.7998032800627218 O
   0.7452710072748953    0.8761236524753195    0.3046951092746358 O
   0.7432159721305125    0.8826556215097022    0.8080083551773226 O
   0.9438475307731478    0.0739379915571147    0.3047464592307228 O
   0.9324185637018002    0.0796340901379092    0.8087910358092966 O
   0.9507343401859274    0.2638127438592991    0.3094697695807962 O
   0.9433985858103765    0.2787337149889995    0.8072338885944755 O
   0.9566007738608017    0.4821583113815801    0.3100250274024855 O
   0.9381133558796392    0.4748858273356040    0.8011266128110375 O
   0.9536450426515440    0.6676347976823737    0.3090350833627352 O
   0.5391340516005818    0.4771106586098828    0.7998116060462769 O
   0.5547998467216773    0.4760019378292374    0.3028308995933826 O
   0.5347268917521228    0.2632897254757921    0.8024052234506601 O
   0.5434893416909459    0.2753040831595383    0.3017252533264225 O
   0.1576580375157956    0.0744132521876075    0.3029370707567675 O
   0.1450125008072538    0.0649131963745318    0.8053221679401642 O
   0.1502615144467957    0.2696319808197608    0.3044419189831328 O
   0.1304607491370917    0.2674826505415384    0.8081196651831742 O
   0.1582699741632510    0.4773644497136174    0.3073219628484433 O
   0.1267638737915756    0.4702556341985854    0.8093328011178429 O
   0.1539860876088193    0.6750859413012382    0.3046162914761386 O
   0.1323887748025923    0.6764699678044686    0.8043866710813355 O
   0.1624412713932616    0.8797316449313720    0.3045813476580598 O
   0.1404976840661090    0.8715342551712706    0.8017676624816700 O
   0.9496474700078609    0.8707880157505410    0.3112386582473707 O
   0.3486985218116394    0.0771521253765034    0.3023315616928464 O
   0.3458610003378018    0.2638809548814743    0.3027503314515759 O
   0.3458941548384410    0.2700989238530353    0.8048513781860683 O
   0.3394936515911249    0.4654353043683467    0.3070910806315149 O
   0.3454073214992739    0.4823088792749580    0.8072583110117894 O
   0.3468521454205168    0.6754522894841389    0.3035331360490819 O
   0.3503132986653420    0.6792278639316518    0.8056204030642267 O
   0.3476652335243903    0.8649475090806187    0.3048301730674201 O
   0.3393425307300899    0.8728127952858701    0.8025138383287993 O
   0.5549765975494230    0.0667060539199243    0.3084409720409968 O
   0.5381629156948760    0.0734975919762507    0.8010503702581164 O
   0.3386775970129975    0.0688055541065629    0.8018988366361590 O
   0.8585136224501618    0.9138770987492902    0.5562075980631137 O
