K80 Mg16 Zn16 Co16 Cu16 Ni16 F240
1.0
  16.2661653100025028   -0.0002141726859068   -0.0001782712923914
  -0.0002141388924283   16.2644518079819917   -0.0001007178708010
  -0.0002228399783213   -0.0001258958602715   20.3276846412280037
Co Cu F K Mg Ni Zn
16 16 240 80 16 16 16
direct
   0.3765036812366969    0.6245108473181048    0.5005748782071149 Co
   0.8734458456938075    0.6239474575880616    0.5005114454438049 Co
   0.8764242753118613    0.3764910962496045    0.9009822841650169 Co
   0.8763899793578876    0.1258391988550261    0.1006316569562150 Co
   0.6249067077044413    0.8754182476916892    0.1015744323745679 Co
   0.1241673827836261    0.3749074494037336    0.0997050388662422 Co
   0.8752940879100742    0.8744911165755808    0.0994717692612672 Co
   0.6245112916035936    0.3753893021445836    0.7000745979615295 Co
   0.1245802080085718    0.6252122518974267    0.9011517338845217 Co
   0.6247144426032938    0.1249452353245864    0.7005734313770904 Co
   0.1256967485624292    0.3739537778043123    0.7005428022093725 Co
   0.3735844234187165    0.1255756048489973    0.1010338196459026 Co
   0.3732744795661356    0.6243460883129286    0.0993901895567075 Co
   0.3737373528618534    0.8738381656872977    0.9002206361323265 Co
   0.3752867520930819    0.3749038768491822    0.6983161381974909 Co
   0.3751323417689179    0.1253446728733174    0.6991850816144943 Co
   0.6251845689662467    0.1252775819347663    0.1003549224010175 Cu
   0.8750167910918174    0.1239159411751357    0.6991743829413000 Cu
   0.8734924938924739    0.1253873492665689    0.4998842321159138 Cu
   0.8748494618744704    0.1264053348049942    0.3002763928353779 Cu
   0.3740819249027759    0.8750307791393792    0.1008308580513898 Cu
   0.6248830623302805    0.8747606011955255    0.6988156833197756 Cu
   0.3758486785537312    0.8749513841954144    0.6992008689124536 Cu
   0.6250559750591669    0.1246308108739615    0.4997459077247148 Cu
   0.1252035799534885    0.1258288856309053    0.2993335418082506 Cu
   0.1252789732671179    0.3739611982262931    0.3002238260619088 Cu
   0.1249915813379712    0.3749031286382683    0.4993772365157693 Cu
   0.3764279682999184    0.1251096540986175    0.4994239596545971 Cu
   0.6250592112326787    0.3747355404825606    0.4991106136624899 Cu
   0.6250311740080911    0.8751292341715865    0.4997702627970068 Cu
   0.3763078764879317    0.6252202596790909    0.3002971791327454 Cu
   0.8742377101119564    0.8756597136055007    0.5011204595948572 Cu
   0.1249757314560567    0.3750703542841460    0.8012587977485768 F
   0.6242132017725629    0.6255598647494049   -0.0012367787630091 F
   0.8718902988586656    0.4979718228752548    0.4990317977038684 F
   0.8748324177531775    0.5014975164180266    0.7012864346277995 F
   0.8754641879251226    0.5025795703128647    0.8997970635807951 F
   0.8762089739386373    0.7483938783677619    0.0985631727215176 F
   0.6246079825239126    0.3757362136873668    0.7996544024148089 F
   0.6243407342921405    0.3744653318120416    0.6009124062638526 F
   0.8726615575982880    0.4984575555224932    0.2998551411232065 F
   0.6252805541699230    0.3744312099402282    0.3981124385140128 F
   0.6248330692911465    0.3760767728402063    0.1989128519947620 F
   0.6254689127749329    0.3740265157604143    0.0022331009300263 F
   0.8747698737141475    0.7489608428152047    0.5017109169860047 F
   0.6241787860803479    0.1239352289568139    0.8007642191061179 F
   0.8730642621829808    0.7495408009698472    0.6999355967685505 F
   0.8754111378479630    0.7486231320934906    0.9009180071638159 F
   0.6245475573653790    0.1261107874416792    0.6015654454940088 F
   0.8753936215921659    0.7501958994955321    0.2990507699326435 F
   0.8753597852172202    0.4996890007708341    0.0996609143092937 F
   0.6238984903138945    0.6256126524811133    0.2019510878199048 F
   0.6250407698671430    0.6256404169740236    0.4006736099036177 F
   0.6255171675676875    0.7475588271393803    0.6991602667662796 F
   0.6243208380474622    0.8757265824839278    0.3983049523302399 F
   0.6249195236701784    0.7491760680347339    0.8995338156481684 F
   0.8764498105696920    0.0000146358880745    0.0996297631373684 F
   0.6240629036596436    0.8749298399771763    0.2015013126232389 F
   0.6254207505332263    0.8747128503131680    0.0014251661410194 F
   0.8750514669120052    0.0009645478254621    0.2991600575210465 F
   0.8741763955592978    0.0010261931426861    0.5002239347352627 F
   0.8756504059111363   -0.0015094899183013    0.7006835878901057 F
   0.8756882915366702   -0.0020517826181000    0.8999773687650482 F
   0.8752679897144037    0.2520883493034272    0.0997366388348138 F
   0.8730628348892175    0.2507078400776763    0.2995099267597462 F
   0.6255118115119696    0.6245906238646135    0.7984172782653407 F
   0.8727685962801498    0.2521371140300525    0.5003719107760941 F
   0.8737308143480870    0.2503571086304878    0.6995276846007332 F
   0.6244295584732187    0.6244168125947137    0.5999669414747679 F
   0.8744466049909756    0.2507697102599674    0.9009654712122184 F
   0.1259343045175199    0.1256242694491754    0.0022430251510718 F
   0.1255331555407899    0.3754588373385933    0.6003363713627393 F
   0.1241520934570852    0.1250716188111440    0.1984748956457897 F
   0.1264011287991983    0.1264520243915620    0.6010499865111703 F
   0.3740937240409622    0.3770866229935046    0.0019776000776626 F
   0.3761844387154145    0.1265348246744839    0.7985131494039233 F
   0.3754092980990916    0.1248336529997032    0.6006841777962248 F
   0.3763711924465864    0.1244168495215067    0.3987386735268844 F
   0.3750459368507297    0.1265738621091625    0.2005577029859332 F
   0.3740630399269760    0.1239373995082567    0.0010962757442009 F
   0.1243329206003200    0.8747688672817039    0.8024800297291192 F
   0.3773527535498815    0.3734339188332030    0.2011297858901312 F
   0.1264729334978255    0.8756421824386409    0.6003550536972976 F
   0.1258541414581406    0.8757926166249662    0.1989434601733037 F
   0.1255669331382971    0.8745268252785960   -0.0002574078374405 F
   0.1258770378994695    0.6240938639134206    0.8010018404234196 F
   0.1247636795153151    0.6223672953367735    0.6001153922310523 F
   0.1262913437472945    0.6242262088813785    0.3994629713075155 F
   0.1249736538512826    0.6242395874212596    0.1975788787563518 F
   0.1250806933683571    0.6253073574950456    0.0017281625718985 F
   0.1243388714513177    0.8747060491062989    0.3984004141490083 F
   0.3787124601985977    0.3747108670576996    0.3995697021664376 F
   0.3769859749224503    0.3760449023366269    0.5981372300922643 F
   0.3740175072752985    0.3744649904669720    0.7987389943058572 F
   0.6247215436822139    0.1239852109040125    0.3988427840767936 F
   0.6245627584857090    0.1238864856565155    0.1997324046313702 F
   0.6255975320302061    0.1260160547457349   -0.0011202744333669 F
   0.3760509745349392    0.8731972879366556    0.8004439580886589 F
   0.3741957376765642    0.8753877776062245    0.5986978635509963 F
   0.1241527705308014    0.1255991054364392    0.7992673296698840 F
   0.3763128695933242    0.8753650860475497    0.3995927562331047 F
   0.3746695929097715    0.8740979242005176    0.2012528062295266 F
   0.1252720911074115    0.3749583937817348   -0.0012070716153313 F
   0.3740617436380940    0.8756750183390760   -0.0000712882071026 F
   0.3752803422261620    0.6259016217314971    0.7996586385818908 F
   0.1237226546470074    0.3746240264307418    0.2000874732733406 F
   0.3770104866952674    0.6233994979700197    0.6009331339629256 F
   0.1254663352796576    0.3738678291627919    0.3995488234091503 F
   0.3753629069894277    0.6251892580042548    0.4007243552676835 F
   0.3754964704628637    0.6258139467409658    0.1991314341603651 F
   0.3746105764969105    0.6233371970512673   -0.0009540792994268 F
   0.1259187533936643    0.1270372703392521    0.3990371899599641 F
   0.3748506798687976    0.7488227675469906    0.9009341423267853 F
   0.8740549093270407    0.1246505017273823    0.0009920334777115 F
   0.6239863503903318    0.8751600991309898    0.7997363651470789 F
   0.5015714556687353    0.6264352930219222    0.3010925326376745 F
   0.4984545649611528    0.6246469034505827    0.0988145645831170 F
   0.4993902947833375    0.3758829611551063    0.9003530708178110 F
   0.4998569009435670    0.3736322664500129    0.7003576636990793 F
   0.4997394128327096    0.3751991686081708    0.4998848747631355 F
   0.5000831516700952    0.3744349093096779    0.2992668361947876 F
   0.5016974424856528    0.3747676308196148    0.1000034183792038 F
   0.5022460674108404    0.1249814117534935    0.9003041602598535 F
   0.5000729984235511    0.1270050147970810    0.7001499000572002 F
   0.5002487456942958    0.1241611313853271    0.5000650668775449 F
   0.5003957270308290    0.1236028803975252    0.2992167916081726 F
   0.4981919845941915    0.1252511298269983    0.0997989334485873 F
   0.2483597875390464    0.8737901412575199    0.9002901651085299 F
   0.2512082954866725    0.8761590268333155    0.7011304553964590 F
   0.2516325026254518    0.8743993798309564    0.4983443290518316 F
   0.2505257956920826    0.8756540511950714    0.3000030010487849 F
   0.2485591741697448    0.8747292413417335    0.0998457377902386 F
   0.2509319792534750    0.6245607647196035    0.9000783759314437 F
   0.2522405455778332    0.6230343127199923    0.7003852905160554 F
   0.2517762672014434    0.6234284429827569    0.5011651143750304 F
   0.2514885721243074    0.6242686037656073    0.2989277407159563 F
   0.5020043005376835    0.6260014980505419    0.5004991018970648 F
   0.5017283062750254    0.6251579992191705    0.7007574559119580 F
   0.4998604656716970    0.6248996332917897    0.8986319849930521 F
   0.4998707725562189    0.8756925472609611    0.1003126574092028 F
   0.7502301920879767    0.8752982857004163    0.5001789429773544 F
   0.7471841543721752    0.8751657682452214    0.2990156374017987 F
   0.7502793722280998    0.8752873114081713    0.1000888689424831 F
   0.7511510570386554    0.6254090585577208    0.9001272209539506 F
   0.7483061289357060    0.6239689352125132    0.7002393140809274 F
   0.7476008284789577    0.6253317416959803    0.5011036662732238 F
   0.7469685984841833    0.6256989636992163    0.2996605270757858 F
   0.7522718177878084    0.6252556081243460    0.0988174498319884 F
   0.7509971369343116    0.3762374323849681    0.9001356496626535 F
   0.7488689435720244    0.3763522171468038    0.7005974604661687 F
   0.2479014750941850    0.6248316648937221    0.0991493687400587 F
   0.7501384856662210    0.3747751573955037    0.5000331025082440 F
   0.7499939073172163    0.3751566139799238    0.1003454560216238 F
   0.7474785334764125    0.1238990362922959    0.8994542087418473 F
   0.7485921257416113    0.1236347853543904    0.7006853422108560 F
   0.7490549018147010    0.1248280351919935    0.5002526395457281 F
   0.7476148565574556    0.1244886816010611    0.2991483256887573 F
   0.7517936843323643    0.1243725576303647    0.1006205546041604 F
   0.4987724264010825    0.8739499071608641    0.9013395658177256 F
   0.4994881983186279    0.8743755923130586    0.6987070509293625 F
   0.4984468810020563    0.8747418582483191    0.5002976638492248 F
   0.5007892485933190    0.8759398287497026    0.2994271586629380 F
   0.7481341662847424    0.3747631619308425    0.2984675278527433 F
   0.6253400297869356    0.8753896186170911    0.5996680174353793 F
   0.2475217414614188    0.3766562671286338    0.9002934636678629 F
   0.2556692235335485    0.3754512049137416    0.4991220672754325 F
   0.0019031455621210    0.1254313601715978    0.0995435802385623 F
   0.8755179840407200    0.8731399836108981    0.8005821811073729 F
   0.8740244617876030    0.8758390798611045    0.6014279877286032 F
   0.8749572749521186    0.8752012953852251    0.4002772839338098 F
   0.8751700184565522    0.8749213145651689    0.1986796908967340 F
   0.8751992216905079    0.8749372983459837   -0.0002751177126478 F
   0.8737447705072434    0.6263406254546687    0.8015931593622410 F
   0.8742268421272237    0.6234977988856013    0.6011225129091918 F
   0.8736636297518303    0.6253374351222387    0.4005008098869779 F
   0.8751912564731374    0.6246472866499247    0.1974176235195587 F
   0.8754069208083859    0.6243096914519224   -0.0004734871531327 F
   0.8767713649203057    0.3753236660034991    0.8005215181276784 F
   0.8735714094082208    0.3767142008619740    0.5978133501563387 F
   0.8711819532797083    0.3741160525492710    0.4002522038569480 F
   0.8743212716837002    0.3748323960416018    0.1989981445218574 F
   0.8751976769896710    0.3758009020176521    0.0018380990678843 F
   0.8753605171271853    0.1249335534975008    0.7997492854074116 F
   0.8737739069058600    0.1244281938709352    0.6003379817893064 F
   0.8738816348947664    0.1256525938120818    0.3996089327718543 F
   0.8762899768444262    0.1257484034637432    0.1994656040179741 F
   0.6251146492108904    0.7484134501545703    0.5004605457124645 F
   0.0004065554141710    0.1263590210465977    0.3002038736414685 F
  -0.0000510475692028    0.1266069217431812    0.5004152411076900 F
   0.0012942399761894    0.1260488379978305    0.6987375949898990 F
  -0.0005338025734001    0.1253521857056192    0.9008921435745748 F
   0.2557811836022105    0.3730575205748862    0.3002661648166729 F
   0.2506571903968284    0.3746256050292096    0.1017526845650671 F
   0.2507216146354938    0.1243375595536101    0.8990729497161694 F
   0.2507003827733456    0.1249861148595040    0.7005882162496816 F
   0.2506790692813665    0.1271818456361663    0.4997898110857976 F
   0.2519898653217867    0.1267836326435830    0.2992073851012589 F
   0.2480143092332096    0.1255405915852363    0.1011659650233736 F
   0.0012963053536893    0.8736879540029732    0.9010791757964223 F
  -0.0014983524787503    0.8738757822676756    0.7002726154085714 F
  -0.0006672945755952    0.8756396662057476    0.5009507126639949 F
   0.2507401839230556    0.3750576434965563    0.6988634267299501 F
   0.0012974614967517    0.8759143663506888    0.2984832924435882 F
  -0.0019668412820656    0.6253503853426562    0.8999727751941808 F
  -0.0017412063575334    0.6253676753815977    0.7014755784202500 F
  -0.0012927073387473    0.6224655002644669    0.5001961698629637 F
  -0.0002696200978502    0.6233271672150650    0.2998308780573568 F
   0.0003021502429352    0.6246339334585068    0.0988971170712400 F
   0.0020680591514102    0.3756414140624549    0.9008529708303309 F
   0.0007846346913524    0.3745109174652338    0.6988508425029998 F
  -0.0052737307646121    0.3756767152006479    0.4985992173673653 F
  -0.0042615391231940    0.3744263525681591    0.3010539906827932 F
  -0.0020632506229583    0.3750595104333889    0.1002944788314096 F
   0.0006918635942554    0.8752785273576216    0.0991860240890207 F
   0.6240536842817064    0.7507229393082701    0.3005330846693184 F
   0.7514398201983623    0.8738710039588975    0.9002412430760414 F
   0.6251903496953647    0.5011093947050852    0.9002833293157267 F
   0.3752419009584629   -0.0012492666073939    0.8989222730625531 F
   0.3764996130184013    0.0014843722566768    0.7003484279437803 F
   0.3750226960758719   -0.0008252987064213    0.4998670877792621 F
   0.3746953671250361    0.0006864545038805    0.2991998207238755 F
   0.3733969564978767    0.0009601214809071    0.1016815981446828 F
   0.1252999724890475    0.7515168448640418    0.9011419174639096 F
   0.1263197547859573    0.7495518177810341    0.7005760807879282 F
   0.1246439398205134    0.7493328013482743    0.5002427325382971 F
   0.1253993418154745    0.7511055123294251    0.2983389210796419 F
   0.1246556342971561    0.7491584812196775    0.1001952741811489 F
   0.1242607655287215    0.4986368852067901    0.9007348963814109 F
   0.1251150457305767    0.4985192461271776    0.7011987368830092 F
   0.1261479169171602    0.4978210989793231    0.2996785372012431 F
   0.1251766405273788    0.5012805657530106    0.0993326836991475 F
   0.1253015221342356    0.2523132286285427    0.9001384755133165 F
   0.1264297155381232    0.2496248509871144    0.7005593262960337 F
   0.1249949008288748    0.2529953386836508    0.5005321496266842 F
   0.1250386818941432    0.2517477938523088    0.2993176580563586 F
   0.1249608873708510    0.2485840869231727    0.1001612947972440 F
   0.1248316325747419   -0.0025487829225438    0.9011430739486873 F
   0.1243453908414086    0.0017247545569763    0.7011897293887208 F
   0.1260853780682742    0.0007082288111104    0.4995171883078288 F
   0.1262746416110686   -0.0007028761670480    0.2993333833480711 F
   0.1250561251566605    0.0009596950044159    0.0994735291726325 F
   0.6246036387297051    0.7506445924111430    0.1002964333164839 F
   0.3747971493289277    0.2509474406233158    0.0995115484897110 F
   0.3782672467107629    0.2506367298516292    0.3004926881204118 F
   0.1255571825159973    0.4969580507281005    0.4990417143171900 F
   0.3742481547116980    0.2498517382875973    0.6986391051951739 F
   0.6237036095549493    0.5017806915680293    0.6995660435714659 F
   0.3777212167127893    0.2520223564957466    0.4998807234812360 F
   0.6247033961527870    0.5024746777485888    0.5000546135600122 F
   0.6240654823665800    0.5019088657857673    0.3003287265643890 F
   0.6250928536462494    0.4979565145345650    0.0996735920711025 F
   0.6254859399346349    0.2478332462831620    0.8991914088417700 F
   0.6254090002023216    0.2498352467291316    0.7014318722994393 F
   0.6247456028102467    0.2499554579485308    0.4998655407438755 F
   0.6255079408743855    0.2518181806622923    0.1011180073739252 F
   0.6248451787897306    0.0016514067184640    0.9008122117410908 F
   0.6233041722810350    0.0005701674919202    0.6997182153566629 F
   0.6246794764359898   -0.0004331754844976    0.5004531380036170 F
   0.6244246707312056   -0.0015505375770377    0.2991176489641443 F
   0.6241487647710674    0.2492240779694231    0.2985513552465378 F
   0.6249464877610414   -0.0000809065123808    0.0996258522485194 F
   0.3744761634697822    0.2503971440492107    0.9010428697788234 F
   0.3746910791420086    0.4989854827513936    0.1013723309048287 F
   0.3771871351268952    0.4973648644028465    0.2995332934332626 F
   0.3778913443470405    0.4984963194718989    0.4994141776624780 F
   0.3748519041309892    0.5017369018162543    0.8986222630290578 F
   0.3772413052915245    0.4999137425448323    0.7005180718546496 F
   0.3749461366736460    0.7517225372185339    0.3004772835033835 F
   0.3752096409905839    0.7500900656279431    0.5005739880006501 F
   0.3753899322974312    0.7477911462643138    0.6991699592009818 F
   0.7512824178478230    0.8757227123101512    0.7005221281348707 F
   0.3742232091658863    0.7490212469428859    0.0990949346963824 F
   0.4989894481464822    0.0004235235226624    0.1995246563014283 K
   0.5000153399750000   -0.0027788841776771    0.7987825588569690 K
   0.5004584014103726   -0.0009214482861225    0.5986455730826863 K
   0.5005484885303763    0.0006582725454908    0.4016930670844762 K
   0.4996467527600944   -0.0002649060123206    0.0018331032948935 K
   0.2516744311037321    0.7501526217368724    0.2009380440736625 K
   0.2504806483324989    0.7510017621621917    0.6006170813814791 K
   0.2505081131188812    0.7491737078926396    0.3992950837252935 K
   0.2504977724533299    0.5007193286694198    0.7997894929735067 K
   0.2511279125430104    0.7506994521769856    0.0009792663122538 K
   0.5007809029349977    0.2497190410194412    0.0013141121118205 K
   0.2507897118679367    0.7505896005317640    0.7983070815329140 K
   0.5016417910758826    0.2484243017964811    0.1998238447451911 K
   0.5004856371278840    0.7515986459894664    0.7982909319823399 K
   0.5013182749030388    0.2490983801793113    0.5974409773764456 K
   0.4996142384188818    0.2511850271008630    0.8008704598156990 K
   0.5005625223254555    0.5001981843593188    0.0000494534890987 K
   0.4995813382776040    0.5017711863633459    0.2011457910662247 K
   0.5008248915422959    0.5001199564760422    0.3992941684933569 K
   0.5015843557164816    0.4993689147055558    0.5989284706525132 K
   0.5002332083612034    0.4998314373408891    0.8005501399315513 K
   0.4997311177854978    0.7502185640526609    0.0008938296650548 K
   0.4978794274604011    0.7497174042699334    0.2003233077689160 K
   0.4996723151032392    0.7510528058312058    0.4003449551072210 K
   0.5005995582527134    0.7526753555569420    0.6002244630377177 K
   0.7491783336174966    0.0005500492485130    0.0009085082134755 K
   0.7504421813432548    0.0018286769492926    0.2010184029696422 K
   0.2494873463790432    0.4990517987426431    0.5984050231769694 K
   0.5021736502914633    0.2482468002093285    0.4011628724508862 K
   0.2500398677385603    0.4985517066474066    0.3985302127155955 K
  -0.0001869634852263    0.2495708918964519   -0.0001641333280985 K
   0.2504616993213898    0.4998453106101707    0.0004346722939078 K
   0.0003032457103939    0.0013484533352421    0.2022206415077738 K
  -0.0011453945912782    0.0016413399001394    0.4000700288280818 K
  -0.0015960378309368    0.0005521037274685    0.5989344577806107 K
  -0.0008310751078786    0.0010846478197957    0.7992187989024068 K
   0.7504564913486986    0.0007829328583359    0.4012037078751756 K
   0.0002307806698977    0.2500471781536172    0.2028558803011140 K
  -0.0000643427284609    0.2497687975948463    0.3997148899897364 K
  -0.0016407492489974    0.2496969273798843    0.5984238742446304 K
  -0.0016537885854176    0.2482598839780518    0.7990335845647957 K
  -0.0003151660679172    0.5001379607913850    0.0004401289464987 K
   0.0002093414816088    0.4987791743432017    0.2021968746013525 K
   0.0007435862828461    0.4980761450504485    0.3992172146860116 K
   0.0003221378613753    0.4987683354614452    0.5986006612691535 K
  -0.0005425189243427    0.5008558191842655    0.7993040221113743 K
  -0.0002289949767921    0.7502525445678332    0.0004284349843321 K
  -0.0002987309297713    0.7499920380492816    0.2011525628892602 K
  -0.0009431281449712    0.7508284874229116    0.4003998188553663 K
  -0.0001411787953599    0.7509867642011169    0.5990973280010011 K
   0.0003232808830890    0.7500162102258969    0.7989914289652214 K
   0.2506460732386801   -0.0006318906170215    0.0008377665977860 K
   0.2498833138812041    0.0000825553434149    0.2011795993586709 K
   0.2498422681194667    0.0022863951252910    0.3998309340594671 K
   0.2509712763580377   -0.0004477890603343    0.5991408634990691 K
   0.2501700124972032   -0.0007840146446073    0.7990655327516558 K
   0.2502835931266532    0.2501264247927724    0.0001530205752869 K
   0.2486491409372839    0.2507753506398434    0.2021787182587111 K
   0.2495935072513549    0.2502672428574462    0.3998812448258721 K
   0.2504495033412623    0.2502826882993497    0.5971144415376430 K
   0.2499842735631482    0.2492999205234525    0.8004815703544237 K
   0.2504337960687061    0.4988641635261874    0.2025493356128815 K
   0.7500599975220099   -0.0000963186800611    0.5989412966470363 K
  -0.0000652418178855    0.0000702786250893   -0.0004042375259646 K
   0.7489540663894066    0.2492790425270646    0.0010741766176322 K
   0.7485610166596438    0.7516420145114562    0.7990041975908703 K
   0.7506744238447060    0.7524360880808157    0.4013407079896859 K
   0.7503685454039462    0.7492493571982654    0.2006227629368119 K
   0.7489703435547709    0.7495614770312129    0.0001798343821141 K
   0.7499429192733621    0.5000686342357779    0.8000216427289606 K
   0.7488088050076851    0.4991203433246040    0.5990537629142230 K
   0.7495209338087653    0.7527010380995097    0.5993974661428115 K
   0.7492924501156902    0.5007745109480319    0.2007802339311640 K
   0.7480165088419644    0.4990531747481859    0.3998349616423094 K
   0.7492964521634666    0.2479087312113982    0.2008056000335443 K
   0.7486654417361550    0.2478288899956452    0.4002546023764966 K
   0.7504769159745042   -0.0012046659927822    0.7986695421183428 K
   0.7520404381609815    0.2495442724556409    0.7992747146054769 K
   0.7487195152142608    0.5005974646580140    0.0000984307432391 K
   0.7500617514993346    0.2484214390229533    0.5987353055975175 K
   0.3769384604880499    0.3752703704258784    0.4982728840365397 Mg
   0.8743993403026719    0.6257921387608264    0.9005814531898415 Mg
   0.8763051799768089    0.6237222596628635    0.0987343341497916 Mg
   0.8736603176665186    0.3762645869308180    0.1007365407931726 Mg
   0.6240691774700968    0.8745212663169720    0.3000417468173142 Mg
   0.6251312476264151    0.6247373716692176    0.6989846174218070 Mg
   0.6249583109191315    0.6255448802342943    0.5001254752546961 Mg
   0.6246347259066082    0.6264442914280017    0.3014879432629193 Mg
   0.6258968603614147    0.3750537565558953    0.1009210759673177 Mg
   0.6249022720820248    0.1246691720695699    0.8997901275305094 Mg
   0.8732049176893796    0.3751024666185553    0.4987263753659407 Mg
   0.3776939884008262    0.3737191388888340    0.3006838547286044 Mg
   0.1246380780954844    0.3753723513962483    0.8999786158376802 Mg
   0.1237255321238898    0.6252615267255829    0.0999006864145804 Mg
   0.1245504325369730    0.8745504872062765    0.9008749136646630 Mg
   0.1249529258533864    0.1247733361664197    0.1003352095157083 Mg
   0.3758686056413459    0.1254469092814983    0.3001144353776892 Ni
   0.6253437098426752    0.6252909242044199    0.8987362123430289 Ni
   0.8735102209393462    0.6257609379813096    0.7009225488960990 Ni
   0.6245518945734211    0.3749835582349200    0.2991489319987863 Ni
   0.1251296690306564    0.1257641714882970    0.6999550615803958 Ni
   0.6243153963617725    0.1239884879140548    0.2996237293014655 Ni
   0.1251395243472537    0.8750720833935219    0.0999563746909719 Ni
   0.3753528872926185    0.8758650617062932    0.3003443454511708 Ni
   0.3757183674532166    0.6254862329183029    0.8994745814249966 Ni
   0.3766755734727442    0.6245611713830891    0.7002177914574486 Ni
   0.1259309285060647    0.8759395654329090    0.2990654729044464 Ni
   0.8744695738903616    0.8746173141969708    0.7002661941556013 Ni
   0.3760692090156326    0.3749653158875738    0.1016894404533917 Ni
   0.8761239310588946    0.8733507028049151    0.8999087834936595 Ni
   0.3752885272185418    0.8750780418486720    0.4994820769939539 Ni
   0.8728717552439236    0.3741542546688321    0.2998425334534371 Ni
   0.8742226285968234    0.8755896349827966    0.2997839230925416 Zn
   0.8731336119637614    0.6240337267004162    0.2991699587484373 Zn
   0.1250278557655096    0.1258251568547784    0.5001084416601338 Zn
   0.8748589687653778    0.3760537977703651    0.6989043954644801 Zn
   0.1252060621123932    0.6253791417175911    0.2986185015376753 Zn
   0.8732929738738264    0.1241414230233558    0.9003436360200713 Zn
   0.6252804031291568    0.8754550830114121    0.9007092207167668 Zn
   0.1251335305761911    0.6241599706848358    0.4996504972766806 Zn
   0.6255020445640502    0.6242138158848423    0.1005243738576258 Zn
   0.6254017072707583    0.3744121895567424    0.9010259198781538 Zn
   0.1251074913966620    0.6241420496395613    0.7003207507188597 Zn
   0.3733935317027754    0.3760922586357857    0.9005787379655771 Zn
   0.1243531324926276    0.8759110966492119    0.7011448005888572 Zn
   0.3766720745230309    0.1243390990093164    0.8999568278568263 Zn
   0.1250999268774937    0.1247828431972396    0.9007355592172567 Zn
   0.1257790993868892    0.8750817925607856    0.4991543421645990 Zn
