Hf36 Ta36 Ti36 Nb36 Si288
1.0
   9.6769426589356744  -16.7611565824209912    0.0001991082509614
   9.6734866734058098   16.7591612602836904   -0.0012863535210857
  -0.0011174602238424   -0.0008813372074876   19.9131983047444727
Hf Nb Si Ta Ti
36 36 288 36 36
direct
   0.6220641391950258    0.2507027551149476    0.8327617633108634 Hf
   0.1191128813783396    0.7520603423541031    0.4990447690152496 Hf
   0.2489076043317033    0.8766940108331907    0.3889543213709024 Hf
   0.4952993026462126    0.1212060941881154    0.0527712680585767 Hf
   0.6279985969073915    0.3768358271467928    0.2762639154745888 Hf
   0.1214892648424440    0.2486530983415507    0.5003383167197462 Hf
   0.1267066345040424    0.2494577937913641    0.1686741644969905 Hf
   0.6304087883233921    0.6337007985611873    0.2783583413602772 Hf
   0.6204950869603389    0.8734164534271949    0.6109619743711691 Hf
   0.8804878549341130    0.8776389782329713    0.9439331202131513 Hf
   0.6235054970608654    0.6231100611984974    0.6131327632283146 Hf
   0.8806778872162000    0.8807070260225881    0.2783484831424873 Hf
   0.8791099659641145    0.6254879743285202    0.6105222523282484 Hf
   0.4993987129184284    0.8737488460092354    0.7243061969887515 Hf
   0.6214364732590447    0.6202678141771563    0.9447441524922013 Hf
   0.8739080889189594    0.3759119270525685    0.9444364496721314 Hf
   0.7486088284180453    0.1285273144599018    0.7245399552359238 Hf
   0.5029623782877415    0.6311087709026513    0.3898522887315294 Hf
   0.2498068370920792    0.6218690688308814    0.3899581351834132 Hf
   0.1280717092508692    0.1274117416338904    0.6121681388653099 Hf
   0.3722906676409934    0.2471227249429767    0.4992455914718977 Hf
   0.0007832872854510    0.1237818244071470    0.7247522985799881 Hf
   0.3758006837390468    0.6235137650622318    0.2760228109247500 Hf
   0.1234810069643759    0.6193550518862825    0.2769390266990085 Hf
   0.8738349727981715    0.2511189609467972    0.5001607869441458 Hf
   0.8774582342455214    0.2491714241558337    0.1679659219097534 Hf
   0.1224473669365275    0.3698567334648770    0.9416339707855523 Hf
  -0.0002450749609709    0.6176707225472662    0.7253723182211381 Hf
   0.2535842531077225    0.6306720463516476    0.0540188969895873 Hf
   0.7499000055999177    0.3771086620222910    0.3900560930224756 Hf
   0.6207661847637247    0.2486005258169852    0.1646025329294746 Hf
   0.6239955475118294   -0.0009086797181271    0.8355805073195678 Hf
   0.6226573769317826   -0.0052160692126142    0.4959173281874331 Hf
   0.2496968607557222    0.3740590062974543    0.0551667031690297 Hf
   0.6177019844199545    0.1222508679044305    0.2771384520361374 Hf
   0.6229685278362614    0.2525962214150917    0.5015379865724241 Hf
   0.6272102380142542    0.3780056867893508    0.6128092135730736 Nb
   0.3730045590232926    0.8722694328329444    0.6145699412247227 Nb
   0.6239051233372004    0.1230768852840310    0.6091428501874053 Nb
   0.3792350723166290    0.3765114542989026    0.2783408759126860 Nb
   0.3758088057902664    0.6265574233979444    0.9428753539370679 Nb
   0.1236213777012171    0.0022516006387942    0.4989337037669442 Nb
   0.8739807620430540    0.1214373549738705    0.9460519414758193 Nb
   0.8759680404836416    0.7520819336933303    0.8360956699272417 Nb
   0.8733061751301352    0.4994785480178822    0.8355572507149260 Nb
   0.8764732498197276    0.2514452713896317    0.8342871115686069 Nb
   0.6271677101695745    0.7498563808723263    0.8371478031712780 Nb
   0.6262044433548003    0.5020170298941118    0.1689050399493046 Nb
   0.3744622607908283    0.7510620770404532    0.8325933121260002 Nb
   0.6250608654364194    0.8767877474295951    0.9487551422521022 Nb
   0.3744196205169567    0.7488301807059785    0.5009688147298337 Nb
   0.1255587833001001    0.5009701324016161    0.5014919464009177 Nb
   0.1255935303449172    0.5022646048057320    0.1638611998046954 Nb
   0.1269018437302210    0.2469948177677061    0.8338227049822191 Nb
   0.3708989422158251    0.1226553908144928    0.6132271329294913 Nb
   0.8761579229206458    0.8777747795238008    0.6102656127722643 Nb
   0.8794820281930749    0.6290012548483520    0.2754963832496387 Nb
   0.3743753256096692    0.0007157312733967    0.1666736822728925 Nb
   0.1237140217676614    0.8726594405550658    0.9458560848391910 Nb
   0.0011446097721062    0.1215197214984006    0.0566693785159371 Nb
   0.5003894185493825    0.3764114077977991    0.3899360403273909 Nb
   0.7462652324164337    0.8704227488956279    0.7200327021869989 Nb
   0.5014560463192217    0.3765174595302055    0.0524327044346179 Nb
   0.4974938544866987    0.1242276524587580    0.7223695892459556 Nb
   0.4968003429633664    0.1248594130149411    0.3909038673375019 Nb
   0.2494063590190028    0.8747988529960532    0.7262759101530812 Nb
   0.0011891858744749    0.8737636974007631    0.7225643995711839 Nb
   0.0007472717531652    0.1251301105488645    0.3877167030053504 Nb
   0.2492458903512428    0.8732335658924757    0.0544670884933376 Nb
  -0.0032784511661058    0.3744487412170918    0.3890597777338398 Nb
   0.1256297327661926    0.8766912380779368    0.6122773297272495 Nb
   0.2493423073362456    0.3746129920534564    0.3901555545548600 Nb
   0.5371013075208366    0.0717424147682205    0.1619441488128132 Si
   0.2874990998604910    0.8283516155763299    0.1672561745883790 Si
   0.2900324433558504    0.5775437284264403    0.8336868365716217 Si
   0.5367492001194447    0.0808824475909008    0.5012232026329795 Si
   0.2931257985499197    0.8355813922282939    0.8358066597756985 Si
   0.2861001802419233    0.8291889907387819    0.5064841537892745 Si
   0.3350278500031794    0.0475611756555488    0.3926749565660568 Si
   0.2875489065186012    0.5733731675348629    0.1640581465204378 Si
   0.5377552954916250    0.0806752382803677    0.8338242049382825 Si
   0.2925591829793172    0.3327231883071590    0.8326170313507524 Si
   0.2922549993861996    0.3364004486992497    0.5020841886136721 Si
   0.2955013333764197    0.3355206750868803    0.1697140357031608 Si
   0.2906679421103559    0.0781930998162746    0.8330035045453693 Si
   0.2901685825872904    0.0789826076238421    0.4980458111245707 Si
   0.2905083197254012    0.5760418558284962    0.5041716688959903 Si
   0.5361268373655493    0.3375779812835346    0.1671078793383751 Si
   0.5367093143792065    0.3350547289008262    0.8354440987766932 Si
   0.2890223520829112    0.0832365884946109    0.1633004084823302 Si
   0.2095951184161101    0.0393403860051374    0.9459032417682417 Si
   0.2085519135569646    0.0402331716921177    0.6104788825475996 Si
   0.2009813207659795    0.0366059289927626    0.2803794668946288 Si
   0.7984567514166501    0.8337014481096411    0.8253067856035756 Si
   0.7915768283797529    0.8308334417423745    0.4998355106573418 Si
   0.7918965780798141    0.8296313035547741    0.1648543654035625 Si
   0.7894779910624774    0.5885557474169648    0.8372627873130239 Si
   0.7907318434346108    0.5801949644456256    0.4968507676085573 Si
   0.7898338848211155    0.5822423719733797    0.1663493232241884 Si
   0.7892217859893300    0.3302140035785051    0.8302832659714363 Si
   0.7931747488061996    0.3378110359245666    0.5049211437453953 Si
   0.7925930549175559    0.3395749604881784    0.1657155603024310 Si
   0.7932652934533454    0.0801764102899672    0.8354799407431792 Si
   0.7904895036014457    0.0795436271174746    0.5004636068948503 Si
   0.7906851061974941    0.0753331827498226    0.1653666258398587 Si
   0.5381094623695333    0.8286002117341659    0.8402709265425446 Si
   0.5385788143360913    0.8232457051593250    0.4927252152932237 Si
   0.5419859893980163    0.8311819603115483    0.1646630939293139 Si
   0.5396579166693443    0.5753260220015313    0.8297332343797951 Si
   0.5349452988031693    0.5733200411785531    0.5009801305059104 Si
   0.5411749156797951    0.5830698708915565    0.1667122304620301 Si
   0.5393510465649196    0.3387762486473241    0.5036407479436963 Si
   0.0398747864744875    0.8299928731111501    0.8346706614900349 Si
   0.0433193311597575    0.5844248004334447    0.4992725915827352 Si
   0.0414844305218986    0.8275284048616873    0.1645981392323617 Si
   0.6703615404198023    0.7067453169606941    0.7278274098161870 Si
   0.6732853922361172    0.7127290566337766    0.3959882930837296 Si
   0.6692005141561210    0.7145536471018380    0.0537360321076382 Si
   0.6720069495604676    0.4638393896424639    0.7234334989481800 Si
   0.6659984603040162    0.4630846838298048    0.3895102771380632 Si
   0.6634383687851727    0.4526434906371397    0.0556072102897989 Si
   0.6631719048345021    0.2131058055015111    0.7159601702603261 Si
   0.6721028051442499    0.2078238051639829    0.3911174199978988 Si
   0.6742314178696046    0.2118938248968391    0.0541011216728628 Si
   0.6742152164226196    0.9596330082753651    0.0595413090105275 Si
   0.4164350338472120    0.9604695303225184    0.7239059332037304 Si
   0.4151758213415824    0.9523086034861408    0.0587013191359248 Si
   0.4149106532806246    0.7015806050916048    0.7248069204253683 Si
   0.4198941983104552    0.7153843595321094    0.3872539595627140 Si
   0.4231209086063928    0.7132560269372937    0.0540066194070861 Si
   0.4249338418613966    0.4595677102739040    0.7220735095096547 Si
   0.4148856248115442    0.4630353906067628    0.3887004719131822 Si
   0.4217055841599329    0.4608292270884730    0.0526543539335905 Si
   0.4131936309474152    0.2118985857416418    0.7213285755878711 Si
   0.4178721825975980    0.2132148550571401    0.3819575096459027 Si
   0.4152428442301062    0.9520536863066253    0.3907261327042225 Si
   0.0340575660352986    0.8343179518989801    0.5038852899152324 Si
   0.6757001104477803    0.9665831187682907    0.3805562520368352 Si
   0.9216123254649498    0.2089271427700082    0.0540302465728962 Si
   0.0393536611582811    0.5740692123495311    0.8393465145136123 Si
   0.2132731844102907    0.2863939671939109    0.2821632316336147 Si
   0.0425648138586250    0.5841620916217249    0.1610499806191338 Si
   0.0412820963954142    0.3262462115861180    0.8258102693681204 Si
   0.0422996221306442    0.3378176930342692    0.5009821561321580 Si
   0.0481698635276586    0.3399203815055937    0.1659358512127642 Si
   0.0425375442650433    0.0799236620932563    0.8382822962914255 Si
   0.0343099095108308    0.0776579593865500    0.5006281389245377 Si
   0.0374433869750940    0.0720872501687341    0.1666768694052952 Si
   0.6768996283102133    0.9603561959257596    0.7247648316908242 Si
   0.9096706076589013    0.9550091715573382    0.7227836999018328 Si
   0.9175518033464952    0.9558909498233530    0.0599952085417408 Si
   0.9139580611045280    0.7012632479485795    0.7295536876929800 Si
   0.9191475754810886    0.7155323133042891    0.3848092549908807 Si
   0.9170566511486639    0.7089365354582209    0.0553562684864111 Si
   0.9123082886339502    0.4502393759117604    0.7263374013022146 Si
   0.9199627735560316    0.4622274423296336    0.3843769346004353 Si
   0.9257314698620499    0.4673681011407148    0.0548120739937965 Si
   0.9193207620650853    0.2111429726303550    0.7227739880270957 Si
   0.9131428298743848    0.2014017768975719    0.3877939450233209 Si
   0.9280936545383413    0.9627527575719027    0.3948686336755036 Si
   0.2144825274720596    0.2953413596133721    0.6107902744812806 Si
   0.2042739283459178    0.7897212319330676    0.6163916665847636 Si
   0.2072690193791362    0.5324615745915525    0.2770077441813193 Si
   0.0800669054388424    0.0345268740084962    0.7240351532972575 Si
   0.5877245225251095    0.2955515119864526    0.0492436395706799 Si
   0.0802399838223659    0.0352023481024445    0.3843015388950943 Si
   0.0827822637410161    0.0380247171955727    0.0554180351564885 Si
   0.5718743498062251    0.2859162291927006    0.3876552739652871 Si
   0.5783356364631042    0.2923281558697312    0.7207383741115058 Si
   0.5825096965437889    0.5438269548475575    0.0616541451001949 Si
   0.9597404319407840    0.7869373656374815    0.9467658312812401 Si
   0.0736004955669886    0.2863905007622965    0.0574048190315489 Si
   0.5864839394841966    0.5408536457510563    0.3895725274985212 Si
   0.5774254002511415    0.7912426613721294    0.0563477300216366 Si
   0.9581938925375171    0.7939952845055717    0.6097367608004663 Si
   0.5930994399530168    0.8045945077661395    0.3911183327603246 Si
   0.9643251668917598    0.7974556072430599    0.2752614898562715 Si
   0.9602543931736767    0.5480760929747357    0.9455229179293272 Si
   0.9648036898894915    0.5391240735105810    0.6061537016762443 Si
   0.9562750952469572    0.5364112845871819    0.2762844537400251 Si
   0.5780302529253870    0.7863653829065983    0.7269043449816488 Si
   0.5791674452951980    0.5344873217838161    0.7239165188599050 Si
   0.5754734575772220    0.0405911347555452    0.7226332039583019 Si
   0.5670552441879040    0.0327497320557044    0.3875884547173342 Si
   0.0828165839213309    0.2960274893842311    0.3879856861692705 Si
   0.3306299202165467    0.0396731807090475    0.7242089375516543 Si
   0.3253778104243717    0.0386329506051321    0.0553850852703897 Si
   0.3288120105220952    0.2854149030851187    0.0520447661343688 Si
   0.0819571768510506    0.7931967096211024    0.7268591453027043 Si
   0.0728170102092189    0.7872533299417218    0.3822586589503262 Si
   0.3254957692181354    0.2870943857240256    0.3847607783980412 Si
   0.0806998357759825    0.7888676705101551    0.0563181876794759 Si
   0.3321375800078599    0.2939400974138214    0.7253806852607435 Si
   0.0860776737280944    0.5365106953526145    0.7171570185618251 Si
   0.3355145833519237    0.5416882513997148    0.0536526383308058 Si
   0.0733510121337748    0.5354059502689442    0.3926961707821846 Si
   0.3348191977609858    0.5370047292958242    0.3916532218861756 Si
   0.3354007548308903    0.5415591863976835    0.7216645495471460 Si
   0.0757944986037030    0.5389423048876554    0.0546680804516332 Si
   0.3386158687568885    0.8000030318282861    0.0587306224053978 Si
   0.0904440886522001    0.2957033065151322    0.7213007108531818 Si
   0.3398400740410147    0.7931412880050651    0.3856183402254117 Si
   0.3250984703512587    0.7852091929475991    0.7218550104064057 Si
   0.5860140997054021    0.0375323511479708    0.0533396462858045 Si
   0.9542026410743384    0.2854652631348595    0.9467023188950994 Si
   0.2118977096721709    0.2826643382717255    0.9434362743244947 Si
   0.9654477842532970    0.2893447380514297    0.6114003568360948 Si
   0.8294137357499806    0.0357951839183847    0.0549299169454177 Si
   0.7113057661754099    0.0476703344465474    0.2742878116928624 Si
   0.8313481957726737    0.7888138574238563    0.0572930391111526 Si
   0.4545678875739098    0.7928243754539168    0.9473271823463087 Si
   0.4478628706562036    0.7799949081431899    0.6160576484953387 Si
   0.4601938364437212    0.7970612463639449    0.2759121517734234 Si
   0.4512141920395393    0.5381604068627414    0.9463161023157270 Si
   0.4541849001118894    0.5388641444707614    0.6133119429510671 Si
   0.4622007123636250    0.5392177624748596    0.2760579670879493 Si
   0.7119372732387104    0.0480348127207383    0.6077275445578700 Si
   0.4601307740464902    0.2906366977723594    0.9428093248564364 Si
   0.4595164692481860    0.2919155565813759    0.2751434000824352 Si
   0.4601003529598396    0.0388927394992690    0.9388236578568734 Si
   0.4600485204611841    0.0374095238990221    0.6125817704337598 Si
   0.4465884529760011    0.0326767197700355    0.2842327842193904 Si
   0.2131367097440633    0.7888065551604024    0.9438387432081864 Si
   0.2094064636994687    0.7895271445455302    0.2748777920120972 Si
   0.2092312115341521    0.5423552652660126    0.9412711527093617 Si
   0.2091220218757894    0.5397877963176752    0.6119083522977841 Si
   0.4618321887287016    0.2955140958652569    0.6121022290974681 Si
   0.8247751676294695    0.5390593753290736    0.7270310569912720 Si
   0.8366834244490226    0.5486721180648777    0.3881419165847095 Si
   0.7059500473044453    0.0405770528622845    0.9498292134518008 Si
   0.9627912934375610    0.0458761915206283    0.9422482434634568 Si
   0.9563670067168408    0.0435578766933904    0.6074639576022446 Si
   0.9631755221002185    0.0495993771462725    0.2737685940678069 Si
   0.7109601770153032    0.7948507434730380    0.9472361923906969 Si
   0.7119935785320842    0.7900978445934134    0.6090209724869564 Si
   0.8282272076199555    0.0399983205382130    0.3886774232817473 Si
   0.7136769828631649    0.8010947972272193    0.2705540192524584 Si
   0.8293716518293810    0.0391815920510044    0.7245901301262256 Si
   0.8274704648317873    0.2917254261742594    0.0583573729815237 Si
   0.8306210504187882    0.2877803817019481    0.3825664755314142 Si
   0.4174645647435445    0.2120563041697210    0.0532800867614601 Si
   0.8364657688475380    0.2977607398271246    0.7233202902923158 Si
   0.7116320902218722    0.5370795880723614    0.9461350193041019 Si
   0.7115994160925840    0.5409156887828740    0.6147595087013079 Si
   0.7148456266301101    0.5449091642640966    0.2769424873190486 Si
   0.7045761576851800    0.2894459880462626    0.9475976682255981 Si
   0.8280989016404636    0.5407913760260192    0.0548657959583969 Si
   0.7144547026266126    0.2921942825751920    0.6112433740820218 Si
   0.7156858743798645    0.2915544372734625    0.2744589600222047 Si
   0.9623674305909523    0.2858825817861615    0.2815111305446429 Si
   0.1722081858101858    0.9621263781983894    0.7221219196558477 Si
   0.2930821023200987    0.9611534999182512    0.9455108618401112 Si
   0.1687985332356312    0.9610952909903503    0.0546818353788879 Si
   0.7121303010061842    0.4210191298567798    0.1610803432186587 Si
   0.7149895670101060    0.4276049981279069    0.5044783192355055 Si
   0.7094410084996635    0.4232203387330151    0.8319056778739119 Si
   0.7152469884194342    0.6773568951094112    0.1632005229244591 Si
   0.7114315122016447    0.6724024757147017    0.5000032158632908 Si
   0.7099089060187223    0.6666668978981177    0.8329319084155243 Si
   0.7136612809432109    0.9184370228511669    0.1678900933678982 Si
   0.7109153981497426    0.9125774630430193    0.5001175746292272 Si
   0.7117441513470633    0.9128981825135030    0.8363924579339125 Si
   0.9585635360739005    0.1629943006114996    0.1682005112330418 Si
   0.9529755048146048    0.1645122573253765    0.4976365508028687 Si
   0.9619533840688224    0.1729901938857020    0.8373267479189512 Si
   0.9549804733238906    0.4182116989020933    0.1651391497612885 Si
   0.9582661217016738    0.4201793499159276    0.5015431689784782 Si
   0.9616984743337670    0.4207477990330419    0.8313718927714369 Si
   0.9601470955931334    0.6718242271304683    0.1631585256606443 Si
   0.9485017799172367    0.6652188814543354    0.4889290768300387 Si
   0.9593812707234816    0.6666617615064814    0.8379283587398245 Si
   0.9635371692583860    0.9220963982196765    0.1629441977035120 Si
   0.9593468977401218    0.9124666501165202    0.5011279636636037 Si
   0.9631521050375986    0.9278099408391480    0.8277840625373970 Si
   0.0370587751046130    0.2118457837873847    0.2795757508584606 Si
   0.0395166803295236    0.2160803411920113    0.6151105060585849 Si
   0.7134623547629252    0.1744905898314960    0.8397034869041143 Si
   0.0389707247177434    0.2018833005287929    0.9444763179826042 Si
   0.7052426882540428    0.1646618556837244    0.4968467615459862 Si
   0.4484234917366265    0.9149676139232085    0.8337050523624256 Si
   0.2102525029122504    0.1616683972405373    0.1651339981652997 Si
   0.2055184006520684    0.1661541199203734    0.4926025538893912 Si
   0.2118239369455446    0.1641596224383935    0.8378692157654716 Si
   0.2110085604036878    0.4205177047915505    0.1704601540283248 Si
   0.2148162189202454    0.4234254156894612    0.5022344237821572 Si
   0.2138753587282447    0.4217810066976801    0.8315399199781427 Si
   0.2153748000841710    0.6779109049575011    0.1668078448288177 Si
   0.2113806610501654    0.6728360893953768    0.5018330762965555 Si
   0.2064543733585852    0.6639131883750100    0.8330227036695658 Si
   0.2064630051180320    0.9171686707530590    0.1620179548428193 Si
   0.2104941689875701    0.9266309568682727    0.5026171190498883 Si
   0.2112775842542000    0.9139135716567450    0.8393108213588159 Si
   0.4528337318617221    0.1657193562118437    0.1668754850521758 Si
   0.4580303671196648    0.1629777318203398    0.5058261271175675 Si
   0.4493354908126686    0.1663648625504760    0.8285974823770429 Si
   0.4550017664859316    0.4168957544107280    0.1609569553914953 Si
   0.1667523827866937    0.9607465488476202    0.3881500912026669 Si
   0.4619590320716366    0.4207185860789128    0.8329401206167071 Si
   0.4634245482033218    0.6749513557840979    0.1632321530989015 Si
   0.4634897148778769    0.6735510475787571    0.5069144650205153 Si
   0.4635725730837216    0.6723975474929991    0.8343554850434304 Si
   0.4573269548278988    0.9173153268481931    0.1666227120128490 Si
   0.4515679790077927    0.9100619488876601    0.4982588746393860 Si
   0.7088557750367595    0.1679490293658180    0.1653170345699400 Si
   0.0347325071421871    0.4460215882630965    0.2713352575338184 Si
   0.4564796045705449    0.4217914686315731    0.4973553803770719 Si
   0.0424760415603304    0.4594558029933712    0.9439871585620421 Si
   0.5350031002071145    0.9579893273788136    0.6087890354441925 Si
   0.5355619059650063    0.9564829749283247    0.9484925663621417 Si
   0.7887541625230141    0.2098746304394576    0.2792827829257533 Si
   0.7916176487958857    0.2180947183907054    0.6139653204412386 Si
   0.7905223195360449    0.2073312538587231    0.9459111491213074 Si
   0.8017874749717651    0.4662801149324502    0.2785279922911700 Si
   0.7947869392037789    0.4571119991664223    0.6109220764919446 Si
   0.7878572105324304    0.4634443247595040    0.9453306412515261 Si
   0.7951100567829074    0.7092534496618356    0.2745062631018054 Si
   0.7925787516127262    0.7099871666853723    0.6097736221854108 Si
   0.7891018435301139    0.7097831517566974    0.9457797417653471 Si
   0.5363287562514948    0.9515570958260602    0.2754476003652620 Si
   0.7924057472688807    0.9632095308223632    0.2783042992850062 Si
   0.7877476159503266    0.9531849276823520    0.9431794182467028 Si
   0.1662696369377380    0.2001736995466480    0.0564830650697295 Si
   0.1657358829062913    0.2033148610246868    0.3878134169497117 Si
   0.1793836743809247    0.2136403263618077    0.7261487030635418 Si
   0.1644915378302274    0.4623019872392500    0.0507101594485447 Si
   0.1635400986416750    0.4537073514606439    0.3898523374735031 Si
   0.1673491744709251    0.4585611433138000    0.7191645801642585 Si
   0.1639202266971435    0.7103185363563268    0.0546801025169791 Si
   0.1702564847815529    0.7095789092469805    0.3886532750191916 Si
   0.1721905562935191    0.7086998995793446    0.7259170764245156 Si
   0.0381263274106650    0.4601492420299443    0.6088980484930423 Si
   0.7890780213964201    0.9609355764358316    0.6112046246462203 Si
   0.5404055289634134    0.7101671960376976    0.9453380665888816 Si
   0.8376354619887599    0.7874913137589878    0.7178763695702147 Si
   0.5426610241511058    0.7150719543520951    0.2716748445816705 Si
   0.0417500957988300    0.7088069028691727    0.2733681402715944 Si
   0.5378735423396643    0.7081673149143526    0.6120446537662508 Si
   0.0482775484412307    0.7144585606907007    0.6193494364272570 Si
   0.0388400999770923    0.7072767808050346    0.9452208377619500 Si
   0.0484112717749877    0.9591971667092308    0.2776631804559200 Si
   0.0413945047718815    0.9599794798838045    0.6126725149335638 Si
   0.0491134288265926    0.9610652719011957    0.9495744798795263 Si
   0.2983671649049489    0.2127988520371381    0.6196419051525552 Si
   0.2903634747531456    0.2077737585743464    0.9436434047518518 Si
   0.2869827007559474    0.4556970971329004    0.2771734357412783 Si
   0.2913986998488389    0.4604700964271759    0.6116782322338939 Si
   0.2942332427142659    0.4602624940159457    0.9421326510994147 Si
   0.2894652134046699    0.2072871253545173    0.2753165246208009 Si
   0.2900393229206237    0.7048358731160580    0.6117261778660191 Si
   0.2897128793222928    0.7150552752504989    0.9402765285880459 Si
   0.2870808353762327    0.9596098856796692    0.2730400522152517 Si
   0.2924187108078862    0.9605987604966086    0.6148701436065472 Si
   0.5394202094394542    0.4534573888758957    0.9393702780109121 Si
   0.8308752595547214    0.7921491968412736    0.3910315124157158 Si
   0.5312315655499742    0.2068836621758241    0.2782814500952333 Si
   0.5363267538424762    0.2094303965927037    0.6142074613708934 Si
   0.5355424976926171    0.2140568868046905    0.9441638025905733 Si
   0.5428431275262914    0.4654884950932676    0.2801470198032081 Si
   0.5393337520717493    0.4515413835145479    0.6089757453918353 Si
   0.2963616815633675    0.7142432924141763    0.2768388896235970 Si
   0.1272460744871504    0.6285480119980857    0.6118430937061782 Ta
   0.1250260994608875    0.6236149746381158    0.9462971564804183 Ta
   0.1270549024670317    0.8743079722633674    0.2745255799386992 Ta
   0.3687316444032108    0.1218719346180337    0.2763502352259735 Ta
   0.6263763543726198    0.8762823794131092    0.2752780123277425 Ta
   0.3784756959977398    0.3760795909606267    0.6123144631639108 Ta
   0.3754081488442168    0.3744913607230440    0.9430129060285910 Ta
   0.6242755993551270    0.1255427547746164    0.9456453431937776 Ta
   0.1251812003165590    0.1234072454521472    0.2757106338688742 Ta
   0.3721084911258933    0.1244534747684424    0.9433270147043763 Ta
   0.7528178586170775    0.8748682081588400    0.3869556671657832 Ta
  -0.0027597087856727    0.3741220771369473    0.0551055582877995 Ta
   0.7508584864551134    0.6253546246620599    0.0553707196426658 Ta
   0.7480843789822955    0.3745138173285274    0.7219816185109433 Ta
   0.7530725928537143    0.1260247631982653    0.0570164375245409 Ta
   0.5005540800709312    0.6256161229932136    0.7226928597090051 Ta
   0.5020300109205329    0.6260353384238502    0.0555726384844561 Ta
   0.2509456048928824    0.6222920330494409    0.7230438588181740 Ta
   0.2526381636304959    0.3778154616078443    0.7216791744850704 Ta
   0.2478703866733019    0.1218954641193135    0.7254406360456067 Ta
   0.0029651673773908    0.6255977238104958    0.3854772566557396 Ta
   0.0013078636808519    0.3758541425392458    0.7193872845129139 Ta
   0.7528494240867619    0.6279436064544195    0.3878050505890858 Ta
   0.8743571206895007    0.1247794768031013    0.6125420671521479 Ta
   0.6292424926490748    0.5050544901252657    0.5020380370962230 Ta
   0.3738271821619085    0.2503653760969769    0.1640757934633590 Ta
   0.6243581788720993   -0.0015207355721879    0.1665697222069445 Ta
   0.1265155411290124   -0.0017119681419757    0.8354100886898982 Ta
   0.1244070173225792    0.4968982550245877    0.8308898273498625 Ta
   0.8783358525487940    0.5020693315504561    0.4970685946165360 Ta
   0.3774738774984422    0.5004255659087739    0.8312099753362386 Ta
   0.1234334582303658    0.7463154303636337    0.8355232305895884 Ta
   0.3736612630521162   -0.0035666186441085    0.5028441791169922 Ta
   0.8713711416858569   -0.0013697369802419    0.4984322564140729 Ta
   0.8776747369402190    0.5046639313238337    0.1637605732937537 Ta
   0.3771144309018625    0.4996172914251315    0.1652914382379230 Ta
   0.5003644519333876    0.8743730153806162    0.3863608095915155 Ti
   0.4994575173146479    0.8755730990503942    0.0573015730826461 Ti
   0.6263699663682273    0.7509387587961844    0.5023268826054249 Ti
   0.8744782420842904    0.0005082507535328    0.1666784692493614 Ti
   0.5006538771650445    0.3745820634451843    0.7241569106981560 Ti
   0.8757820648564274    0.3766543628065310    0.2757835944884803 Ti
   0.6268227174011060    0.7532496287169844    0.1624949780200841 Ti
   0.2510655376142355    0.1241992463169377    0.3858553126024462 Ti
   0.2505528499911464    0.1242125623446128    0.0540249511612096 Ti
   0.0021055395790360    0.8748414046652756    0.3895943688812589 Ti
   0.0014230552039139    0.8729015066127296    0.0569290154911314 Ti
  -0.0001577850329542    0.6276515246083402    0.0543841565308902 Ti
   0.8779324893242891    0.7514752695918206    0.1662081384145239 Ti
   0.8746610916152685    0.7494802293188404    0.4992389907307140 Ti
   0.8735627011334169   -0.0009298371924828    0.8342813715113628 Ti
   0.7501121503058047    0.1240910774912153    0.3880609344408021 Ti
   0.3780275266288297    0.7522447880156850    0.1659026031175767 Ti
   0.6272429445913635    0.5005317388035510    0.8326780420488662 Ti
   0.8751562796286126    0.6260193073273337    0.9457726898967614 Ti
   0.8734303820405591    0.1219210388134808    0.2774203618287302 Ti
   0.6260090739950812    0.3772746056478525    0.9412970324608169 Ti
   0.3745502415825093    0.8773609822620849    0.9464642384025764 Ti
   0.3739618148454245    0.8759827710927124    0.2753606055259311 Ti
   0.3740500773188035    0.6227892101223985    0.6127920427722198 Ti
   0.1242178396193067    0.7480818314936414    0.1651589715368579 Ti
   0.7511536428267261    0.3775124825022363    0.0538296663536812 Ti
   0.3739384342207486    0.0002731583276521    0.8338537540888025 Ti
   0.1277651775564726    0.3772135909853235    0.6105059369865867 Ti
   0.1253354346168340    0.3745533849422784    0.2788086329512811 Ti
   0.1259029022401190    0.1220337411020366    0.9456880656688640 Ti
   0.3757401881172574    0.5008743626311134    0.5030368256766471 Ti
   0.7521862879568643    0.8759179597053112    0.0568499007772316 Ti
   0.7518399799498630    0.6270045160896787    0.7226766259689194 Ti
   0.8776185341592784    0.3791006995915722    0.6135250024612796 Ti
   0.3746014313403438    0.2510086188458343    0.8334410092536287 Ti
   0.1264446460636108   -0.0011933656407433    0.1653530198137704 Ti
