Li100 Mg1 Zr1 Ti1 Mn5 Nb1 Al1 Ni90 O200
1.0
   7.2395894887196661  -12.5195451763216177   -0.0026051947440194
   7.2032468075842573   12.4985551547973461    0.0078279563509169
   0.0075935071230224    0.0087554002326342   19.9673251739337303
Al Li Mg Mn Nb Ni O Ti Zr
1 100 1 5 1 90 200 1 1
direct
   0.6043505572409276    0.2050210707777351    0.2417169411569743 Al
   0.1391382806756601    0.0673534033358573    0.1272771366389225 Li
   0.4730785330493733    0.3403540051985451    0.8785225116447958 Li
   0.4788538013742756    0.3340098518266275    0.3636482702583350 Li
   0.4708293345621773    0.1343269841824561    0.8709633512128784 Li
   0.4751077018675369    0.1374520920043317    0.3661352066138234 Li
   0.2717062637788437    0.9331535420019971    0.8660072612130412 Li
   0.2623722229902546    0.9426180825594308    0.3683108208337272 Li
   0.2599764227100143    0.7322607230171814    0.8649812640459357 Li
   0.2686627166972799    0.7367519213234316    0.3727489942942281 Li
   0.2640026161027110    0.5298458015598366    0.8731416870224310 Li
   0.2621926212081742    0.5253975512928249    0.3786042272162501 Li
   0.2665246971079334    0.3244658414905914    0.8811387339590377 Li
   0.2747112864781455    0.3371137568527769    0.3756697385712418 Li
   0.2663994534269800    0.1276903743188163    0.8692958327676571 Li
   0.2678822639455720    0.1360658195790524    0.3702287925000282 Li
   0.0644156247268130    0.9308318393458386    0.8787714286266471 Li
   0.0673112825000159    0.9383827030925428    0.3755458325213591 Li
   0.0694246478739405    0.7308983725930609    0.8729164162119567 Li
   0.0621294107269197    0.7298794266614019    0.3684477786268545 Li
   0.0592462828083549    0.5275141906004144    0.8709016559152269 Li
   0.0667591862927846    0.5363634782503801    0.3778855546691234 Li
   0.0643091995056079    0.3333467217797750    0.8802198064157291 Li
   0.4606640976668303    0.5288127049763526    0.8770944876312728 Li
   0.4639550728385387    0.7413357308838477    0.3731263289377040 Li
   0.4590760420314262    0.7252856371090408    0.8766420091014386 Li
   0.4671507087366157    0.9378357400238650    0.3740094219433055 Li
   0.8624347667641418    0.9328408815935924    0.8789256865887075 Li
   0.8630339878323209    0.9321687417409846    0.3788071017266557 Li
   0.8656613284342521    0.7277231405561152    0.8727760540056658 Li
   0.8736043129153359    0.7448865284712088    0.3743371491772992 Li
   0.8615516870190770    0.5257879270929954    0.8678233639632351 Li
   0.8726636944049673    0.5364726275794300    0.3670562370688915 Li
   0.8691609757746400    0.3330918353513015    0.8764898670401388 Li
   0.8616202729166571    0.3334359811394833    0.3653057942829321 Li
   0.8635629971979617    0.1336636544903099    0.8769620475018518 Li
   0.8688648135280520    0.1322491031979643    0.3765008762470892 Li
   0.6652508827812029    0.9352595374448850    0.8775577100824806 Li
   0.6722638957548536    0.9396745063935535    0.3796689711409546 Li
   0.6686606395124979    0.7352714816620617    0.8847327447279293 Li
   0.6655872275400282    0.7349907995524037    0.3844587543927137 Li
   0.6643934283317920    0.5321213030041888    0.8690916408008266 Li
   0.6775903139032289    0.5377935713940234    0.3694293014904875 Li
   0.6665514487677848    0.3301374835788816    0.8725621667256608 Li
   0.6666919851891293    0.3338442279197829    0.3751138957935010 Li
   0.6626920196821160    0.1335084649954443    0.8699903191362690 Li
   0.6676539360386644    0.1384311433600470    0.3662872799563933 Li
   0.4707912088498863    0.9308113677470878    0.8787723033932879 Li
   0.0645792687081449    0.3360744350193704    0.3751872546560627 Li
   0.0728001046106185    0.1347484497570549    0.8793664457427499 Li
   0.4737857667979261    0.5389479794833921    0.3790644975285850 Li
   0.9292018300412899    0.8604520402991116    0.6228316549572556 Li
   0.5346336195722865    0.2718697695248064    0.1269273164521525 Li
   0.5341887525420487    0.0751865127953054    0.6191777622457674 Li
   0.5363977275545516    0.0707951742904254    0.1185600285257840 Li
   0.3320480631570300    0.8634324247351466    0.6245183516979176 Li
   0.3348260786696505    0.8598222586647928    0.1214126868403939 Li
   0.3300682262952683    0.6652313954514013    0.6223526857690539 Li
   0.3428433712405106    0.6732008245471758    0.1257910950045561 Li
   0.3338801768745807    0.4702948881680717    0.6323797301609041 Li
   0.3319694081057055    0.4687129992362611    0.1298297622638604 Li
   0.3399913612806570    0.2689673540021182    0.1263865382100058 Li
   0.5305665588429920    0.2687617314488150    0.6278585360578812 Li
   0.3313181600521407    0.0616900811431051    0.6137077347653911 Li
   0.1282335780886975    0.8670354650638916    0.6244902209701277 Li
   0.1392704213820591    0.8694300815783140    0.1217219845755364 Li
   0.1313237475015120    0.6731637237068608    0.6197241068368387 Li
   0.1355896693904002    0.6682901130897223    0.1261169164175278 Li
   0.1295056152231145    0.4719578041116473    0.6210916598672136 Li
   0.1396578103834575    0.4688737388748158    0.1327822188139379 Li
   0.1262430765739231    0.2645215001784154    0.6315703139316630 Li
   0.1355501588409459    0.2664350655719541    0.1306926432439590 Li
   0.0659562902609675    0.1380564825936741    0.3846865113176833 Li
   0.1348223014781314    0.0673658390931386    0.6267723310381828 Li
   0.3403164174472821    0.0671144291421600    0.1213028153068668 Li
   0.5384062965793829    0.4703327728177311    0.1303037213713067 Li
   0.3280057671449068    0.2703956152123166    0.6351061598089163 Li
   0.5366257027279944    0.6726326727988435    0.1301393004188126 Li
   0.9374766591396438    0.8587434634525212    0.1215779520458242 Li
   0.5297490776955829    0.4617543071664201    0.6284841842556473 Li
   0.9243054544921220    0.6629034020407324    0.6216823373406548 Li
   0.9400572722942415    0.6713099473589338    0.1253976230601837 Li
   0.9352763203342592    0.4699734440995653    0.6163788130372209 Li
   0.9440154046721503    0.4729089609059353    0.1240330770947344 Li
   0.9351970350735187    0.2709354759489594    0.6257181931626969 Li
   0.9318321953109803    0.2610512351449426    0.1233133417243466 Li
   0.9359960070213516    0.0635480470072023    0.1296607108263860 Li
   0.7321761232116772    0.8687056448587557    0.6306974597092663 Li
   0.7388036568102458    0.8694361761547998    0.1299138665564353 Li
   0.7330976785429084    0.6677079353314906    0.6290666497557904 Li
   0.9246997884459202    0.0628026292863798    0.6278702614601305 Li
   0.5342613360213135    0.6696625494731395    0.6340608389983275 Li
   0.7288744486449040    0.4692094579589888    0.6256407529901031 Li
   0.7366966952688632    0.4558928634443019    0.1164313728098647 Li
   0.7277264204991686    0.2692730446593319    0.6229279493924933 Li
   0.7365161453576271    0.2654066685098291    0.1210875999059116 Li
   0.7195481405748607    0.0574490208215999    0.6273768509113922 Li
   0.7276961099565785    0.0617513084632921    0.1264241833731629 Li
   0.5254234118576455    0.8656852677756905    0.6190065555322941 Li
   0.5302052826276451    0.8614818550336470    0.1248862591496611 Li
   0.7375094996262476    0.6737719404204120    0.1347961297438040 Li
   0.2036652467759002    0.6029731935450613    0.2539083028139517 Mg
   0.6071640381677077    0.6100847268047641    0.2570861720620600 Mn
  -0.0051743425995873    0.3966820371013110    0.7512379539316903 Mn
   0.5973621399899176    0.3995453752076235    0.4987878360886497 Mn
   0.5975254163404479    0.6010239642033781    0.5070628222862408 Mn
   0.3944881784042877    0.3986535143845670    0.5052608829957072 Mn
   0.2021839885911689    0.5948199623916098   -0.0010693891612339 Nb
   0.1995608206056398    0.6027468207015556    0.5000694149347397 Ni
   0.1973899846711293    0.4004169272904996    0.5062865821477327 Ni
   0.2041914627853598    0.8025901824766271   -0.0045081769075698 Ni
   0.1986757009612990    0.3844217474386670    0.0061921542838989 Ni
   0.1994592195729288    0.8022394680739855    0.4935552674145242 Ni
  -0.0032962515132567    0.3873721667144737    0.0012054068312441 Ni
   0.1985722294667388    0.1882097610102955    0.0054826130422720 Ni
   0.1982761077843541   -0.0006749110364189    0.4934434309870177 Ni
   0.2043660125919140   -0.0025718714896374   -0.0019364557767314 Ni
  -0.0007506751724328    0.8010397235998623    0.4949461622384662 Ni
   0.0036706536417759    0.7973866615875924   -0.0024575727225010 Ni
   0.0002702481519175    0.6044994256591666    0.4961785764930177 Ni
  -0.0027445325680966    0.5955798478259213   -0.0033749121198068 Ni
   0.0035064105987275    0.4065239552377591    0.4991615677655980 Ni
   0.4056181472696480    0.0020230270431565   -0.0072811078580152 Ni
   0.0027338897607070    0.2003898401991346    0.5054798574833723 Ni
   0.1967996759602864    0.1974477480019133    0.5058740849404415 Ni
   0.3967806610171230   -0.0006233816508233    0.4935172405716057 Ni
   0.8022804404368636    0.7924050784649600    0.0054902330845514 Ni
   0.3950053848690847    0.1970449255325049    0.4967418304926053 Ni
  -0.0022070077155224    0.1861881019916564    0.0060559285547991 Ni
   0.8014088257418205    0.6031900100116370    0.4985471643597594 Ni
   0.8060162045338942    0.5937609448979707   -0.0022715174413778 Ni
   0.8005268697343142    0.4083210117470672    0.4959956613523230 Ni
   0.8019830213634699    0.3932915113838067   -0.0062735674016415 Ni
   0.8006720892731485    0.1920188258761035   -0.0024804315042547 Ni
   0.7994937001062683   -0.0047613586194454    0.5053862446089435 Ni
   0.8009368058365357   -0.0096928050699687    0.0068942711423522 Ni
   0.5977562648034768    0.8007000408930151    0.5056694284519606 Ni
   0.4033508661784540    0.1966310160574122   -0.0038277110988355 Ni
   0.6007362853567412    0.7949409489213912    0.0059485664973481 Ni
   0.5923902336986726    0.1984915711026842    0.4954007532889919 Ni
   0.6044877865995267    0.1984819046375172   -0.0091457450910814 Ni
   0.5932423868198496   -0.0052060593694505    0.4989705492632671 Ni
   0.6053517707390189   -0.0011462032689980   -0.0019117828779007 Ni
   0.3966178294023427    0.7991704639330621    0.4981615733310515 Ni
   0.4081235442387208    0.8023358668707035   -0.0020859092523860 Ni
   0.3961400541226908    0.6014627081833367    0.5031311056953519 Ni
   0.4028176066657741    0.5907353240847332    0.0036239370336037 Ni
   0.3991629726082960    0.3884445269127406    0.0033512002516184 Ni
   0.6042345715072914    0.3949215752683886   -0.0044873560304834 Ni
  -0.0001586633484645   -0.0017441848412000    0.5025342648362164 Ni
   0.7982009239038993    0.7987714443627197    0.5060047457078407 Ni
   0.7965761216114197    0.8027669504159478    0.7556290099553656 Ni
   0.3920035321287085   -0.0046181436902552    0.7424457097964833 Ni
   0.4011491028036664    0.0050305893926945    0.2426986396998787 Ni
   0.1926028378783906    0.7977336973667487    0.7422998814843677 Ni
   0.2027291065977665    0.8046097955820610    0.2457992085368738 Ni
   0.1936733215738088    0.5995411345862202    0.7457274015429431 Ni
   0.1998396893912638    0.4020133952332879    0.7559951592420150 Ni
   0.2065796161006971    0.4046934335396954    0.2565220123378111 Ni
   0.1967193723072737    0.2013069566847417    0.7566045205175678 Ni
   0.2053424000776401    0.2062128111588177    0.2534950329180773 Ni
   0.4063820198562189    0.2071115869842763    0.2473463575125362 Ni
   0.1935520463589727   -0.0016726337329361    0.7468423352120577 Ni
  -0.0055399059049755    0.7989854364827513    0.7475668560278775 Ni
   0.0055785061990914    0.8061006285928539    0.2458600751615378 Ni
  -0.0074167086743409    0.5980107070977014    0.7447194620421309 Ni
   0.0049028127783187    0.6018540702994675    0.2472618973318731 Ni
   0.0053132313526765    0.4022992990749910    0.2506161299781061 Ni
  -0.0023189327091933    0.2006643477642278    0.7560431117979918 Ni
   0.0047091751519198    0.2059430307405036    0.2528921516707774 Ni
  -0.0035909417342348    0.0012438321171724    0.7536907937555634 Ni
   0.0004732897981376   -0.0108238527010432    0.0049409797194463 Ni
   0.2035543121755340    0.0071854705359472    0.2454372996654463 Ni
   0.3947235627581702    0.1982783207848013    0.7481930961596113 Ni
   0.0019470152486914    0.0060696444132539    0.2520228327064846 Ni
   0.3974441235723279    0.4023951756554393    0.7545940377721611 Ni
   0.8046494513186837    0.8090984054866264    0.2553648922428957 Ni
   0.4071850435845935    0.4069934697144083    0.2532092937168277 Ni
   0.8078279475881502    0.6070725099722538    0.2476136957485547 Ni
   0.7930069634909045    0.3963897215665180    0.7474582794878315 Ni
   0.8061302632131518    0.4024481761627307    0.2420324118500634 Ni
   0.7940972262255014    0.1955689828821854    0.7509971646692201 Ni
   0.8031569971916932    0.2030463166996697    0.2443155651076159 Ni
   0.7961216532630487    0.0022016515035253    0.7566172577795277 Ni
   0.8018300581858113    0.0086618716278226    0.2537830431747474 Ni
   0.5970036256307923    0.8044225842246601    0.7555650212527715 Ni
   0.6029772529315710    0.8102242607935126    0.2566437442276041 Ni
   0.7946037498514706    0.5999301859561009    0.7479404593997678 Ni
   0.5960034275944440    0.6021441915044097    0.7537709019454347 Ni
   0.3969499855936146    0.6045791384807256    0.7508536259748452 Ni
   0.4000636991182033    0.8056710935574077    0.2485855479743458 Ni
   0.3934855794578063    0.7982263672945381    0.7456479738029211 Ni
   0.5998783167552597    0.0061447955563794    0.2468130338779778 Ni
   0.4039298523589630    0.6071342467863051    0.2545988712473012 Ni
   0.5926927903297009   -0.0016454265124745    0.7501201607080051 Ni
   0.5930422666120995    0.1950205446894782    0.7455273073521070 Ni
   0.6085172441823146    0.4066103234788219    0.2478763336264610 Ni
   0.5952488815363973    0.3982590068930839    0.7486665824631077 Ni
   0.7315939115307148    0.2682962646901642    0.4344429385949812 O
   0.5348989496817073    0.6624823258061513    0.4518783033411048 O
   0.5394896585301083    0.6554345034885826    0.9460904070920291 O
   0.5201447679447365    0.8561995696700787    0.4441213650030826 O
   0.5445735566817486    0.8733148792390893    0.9435385454146652 O
   0.7308745688633171    0.0619611753491078    0.4399014948514443 O
   0.7356590114232775    0.0628711946672093    0.9466906616209925 O
   0.5455809046919498    0.4640987603395779    0.9453709978432669 O
   0.7378634573146385    0.2693572380712209    0.9383971839292176 O
   0.7347085275838015    0.6676198130497001    0.9482602790355091 O
   0.7458483458074400    0.4600970167969945    0.9397402763914711 O
   0.7240848526790192    0.6686476189639943    0.4522607959118234 O
   0.9279291263958402    0.4553337347283907    0.9431061626537348 O
   0.7354582594175222    0.8602105792444640    0.4506779520879088 O
   0.7415912903949662    0.8611510451499969    0.9544312919849669 O
   0.9385164193769695    0.0727718605550021    0.4498466724480482 O
   0.9334021391790929    0.0534767530204667    0.9541755094439290 O
   0.9384817001623197    0.2705613353834723    0.4391902795123840 O
   0.9276278139852014    0.2515630127793659    0.9449519659055827 O
   0.5280923513039676    0.4686190848390475    0.4518703865583528 O
   0.9377335978245209    0.4815845002765514    0.4408556345179778 O
   0.7201423514043173    0.4670684429186256    0.4414128958862751 O
   0.5411056514111450    0.2752297321407592    0.9370986291992170 O
   0.3395027924054764    0.2650435068548105    0.9478640802044827 O
   0.5425676656353355    0.0742213535777697    0.9362034217771458 O
   0.1333205028750573    0.0619143574869489    0.4434372147437121 O
   0.1420071223943663    0.0653925199319497    0.9480855550409585 O
   0.9369847991104203    0.6793483020940910    0.4376445748001627 O
   0.1293129770381728    0.2591308601060158    0.4541369129378126 O
   0.1272077027277611    0.2459260927812665    0.9533836802431948 O
   0.1414216065924972    0.4796947457499366    0.4469301193647420 O
   0.1375211108568729    0.4600791422269249    0.9438821976903471 O
   0.1328558395864883    0.6610854880900973    0.4447770565617173 O
   0.1381570085742577    0.6585519890546305    0.9370519873533791 O
   0.1384024607759569    0.8774704610445285    0.4369741318091501 O
   0.1303134889108752    0.8687667298639326    0.9434989179838095 O
   0.3201797958655481    0.0643747312676964    0.4381474187006135 O
   0.3440932349968255    0.0730981743994604    0.9398378940239045 O
   0.3239422705605216    0.2716411410999453    0.4513757385431326 O
   0.3346951859033799    0.4634054148743534    0.4496709543264863 O
   0.3365941125029607    0.4507466979755531    0.9489605730473673 O
   0.3257442208149507    0.6705502907280712    0.4469087026031756 O
   0.3336989534698778    0.6584165530843960    0.9412305369733633 O
   0.3395690313558359    0.8662874183867794    0.4418615595129461 O
   0.3421051262921078    0.8767968724180600    0.9380671734123038 O
   0.5208347798934910    0.0632668272562613    0.4387246067849631 O
   0.5316294153458341    0.2779534307673671    0.4407000059025469 O
   0.9439787802373217    0.6782249895519545    0.9399352143076578 O
   0.4689174836207743    0.1298144475710663    0.0452547213111820 O
   0.9440741291269474    0.8670180420079305    0.9478710640979529 O
   0.4681016538863196    0.7293596255318813    0.0609761048884108 O
   0.4563514199155920    0.7377535182603571    0.5555700850077678 O
   0.4756742033152684    0.9434511237753681    0.0493930151854791 O
   0.4548296142049671    0.9215282986957720    0.5519150437765395 O
   0.6721396708999450    0.1274347448962887    0.0496093502231233 O
   0.6626668316545370    0.1333849081489299    0.5591752256611391 O
   0.6704169912899415    0.3276899354279921    0.0438758501081205 O
   0.6597797280600203    0.3383916114175817    0.5527040877459438 O
   0.6636842629497516    0.5156050051795992    0.0548132876054290 O
   0.6585025448788051    0.5273621202464781    0.5562538012891666 O
   0.4667742950179175    0.5282245209443426    0.5599548895843385 O
   0.6608987206411742    0.7109214781013585    0.0650114036281741 O
   0.6742815972508370    0.9314704031513827    0.0608312272811342 O
   0.6644779654738463    0.9313762787580604    0.5631750954759439 O
   0.8693270155283295    0.1206345088911648    0.0578071704660184 O
   0.8749574879652651    0.1377112066092241    0.5599228967484615 O
   0.8542464683718147    0.3204364451989978    0.0490950045857886 O
   0.8657941580393331    0.3389765634188244    0.5590673971572336 O
   0.8614805064815467    0.5116512641571367    0.0518975683985340 O
   0.8760940593760074    0.5426386626772834    0.5524129923767676 O
   0.8783171715416807    0.7326960488122335    0.0515178623525579 O
   0.8640798021347266    0.7359318528776707    0.5570194702191544 O
   0.6562632515299676    0.7196172580523175    0.5655144814748244 O
   0.9350191484447580    0.8651982774550446    0.4445353811767124 O
   0.4668544200953492    0.5142698994510767    0.0585687445842509 O
   0.4618007339882364    0.3171622824194964    0.0529465717074073 O
   0.0593244673484045    0.1078403532476737    0.0625421743380889 O
   0.0743145909795863    0.1323824928985346    0.5630826465987685 O
   0.0576584800863143    0.3127699451931760    0.0604941098585086 O
   0.0636111763952584    0.3276107661191369    0.5608055166355517 O
   0.0723203692590522    0.5315304798614604    0.0581400271862515 O
   0.0779693608776037    0.5447469216400338    0.5549161065432529 O
   0.0636774432454346    0.7342226521121967    0.0506733833712404 O
   0.0598999629102658    0.7329946408058083    0.5476356970871075 O
   0.0622070582196034    0.9194647643731069    0.0539503986453637 O
   0.0732304158309740    0.9276321799200682    0.5489421286165957 O
   0.4672420789088823    0.3363902108821784    0.5541979813752167 O
   0.2633872423105948    0.1208517323840022    0.0541497506690753 O
   0.2586412708364164    0.3092779373316242    0.0632079864761274 O
   0.2769532728008425    0.3395672237104209    0.5645694708596264 O
   0.2643783609647983    0.5283029954368176    0.0613947415695844 O
   0.2607848394764000    0.5419838143661339    0.5568695191972178 O
   0.2674514516093228    0.7286948880956701    0.0561389275427472 O
   0.2684323509724518    0.7331826429608109    0.5496724178017662 O
   0.2707012093748324    0.9378328170275803    0.0511049437534389 O
   0.2670207871903728    0.9405319688079622    0.5453300341898044 O
   0.9256796839847465    0.8630494748077463    0.8079313939462612 O
   0.4572061848211570    0.1221504221236011    0.5504393660180247 O
   0.2561278115797690    0.1205895012931617    0.5518247101209550 O
   0.9323588809275450    0.8701222287247407    0.3069186261064559 O
   0.5268183741450337    0.4646860149943445    0.8092873406571741 O
   0.9373589828841186    0.6638047222872032    0.2986353954581134 O
   0.4833858942257946    0.5500016021773991    0.1996162773934986 O
   0.4597226542565527    0.5422564577930419    0.6980352057236334 O
   0.4643634189839614    0.7425327790893476    0.1983986901789863 O
   0.4568937797119026    0.7293106589826960    0.6958347769314583 O
   0.4588763581075612    0.9252358830907031    0.1900238905013095 O
   0.4573395877310272    0.9206856315726762    0.6899093442253099 O
   0.6595076938938675    0.1312972173349947    0.1888879820107921 O
   0.6511642884429039    0.1232692615207916    0.6954192018558282 O
   0.6708448215867067    0.3309185281695861    0.1862650476197702 O
   0.6572960029528293    0.3194322609232039    0.6912450161064649 O
   0.6743759294170464    0.5501420713563698    0.1995526000644876 O
   0.6689828381765118    0.5388189366670388    0.6948473661922425 O
   0.6751021206612291    0.7416591333436952    0.2039835674316174 O
   0.6661772241042879    0.7448776012648312    0.7032478039362369 O
   0.6735262715093897    0.9464795394393145    0.2009240113685714 O
   0.6669118232341554    0.9356495180052322    0.7048189908618619 O
   0.8630077718119974    0.1326338957026298    0.1961444303185332 O
   0.8528502934973020    0.1222313807040157    0.7000783708190286 O
   0.8701434776785810    0.3259162844252755    0.1878439300173911 O
   0.8635152693364024    0.3210374446558460    0.6979840865957817 O
   0.8829837753933745    0.5408380385049051    0.1894041266881080 O
   0.4635989099473672    0.3365221628710857    0.6929392757587246 O
   0.9186085730340375    0.6593986375645067    0.8012312793983749 O
   0.4727831324551421    0.3414897713450410    0.1925232727057636 O
   0.4762901455040331    0.1440255315987188    0.1881186750716954 O
   0.8620019027612642    0.9119428038972215    0.0637314592330531 O
   0.0638777998633942    0.1431593702396361    0.1985032468434031 O
   0.0679841067433344    0.1439407768779528    0.7040369036156631 O
   0.0780526533016963    0.3411829498475644    0.2028153896141492 O
   0.0572399148591734    0.3269712344575829    0.7004488655595986 O
   0.0664682677189091    0.5309206212124256    0.1967174432260420 O
   0.0514965192158022    0.5158882732075811    0.6908035310092250 O
   0.0810696022998753    0.7407428214904410    0.1894888004597420 O
   0.0682331382018660    0.7376643367637997    0.6889376420053613 O
   0.0773876154066009    0.9460556790771036    0.1930062976598658 O
   0.0656103530325464    0.9375154224543649    0.6922113247384704 O
   0.2623284867023081    0.1368347405553825    0.1947664219834265 O
   0.2528182940743980    0.1354004674843445    0.6976432156957004 O
   0.2638112362436622    0.3380592079709264    0.2020847998059835 O
   0.2619796306858601    0.3267190092552013    0.7031236006013198 O
   0.2674567941707291    0.5259633391595552    0.1998826653280751 O
   0.2739270037652036    0.5374529185625032    0.6964479520743003 O
   0.2738570383797916    0.7410136343961895    0.1956830802845176 O
   0.2519563773853397    0.7334265556090243    0.6878886291483253 O
   0.2650157242744182    0.9469002278986286    0.1891254406158745 O
   0.2561669138541446    0.9234392753297782    0.6865885199740771 O
   0.4699822606527959    0.1356077311481162    0.6899936181384565 O
   0.8686153737349623    0.7348831527550531    0.1926201345031012 O
   0.8537015037515128    0.5369008739412404    0.6918241654828875 O
   0.8592596550237923    0.9403162640112762    0.2016657948642161 O
   0.5463114569184720    0.4817883849003465    0.3106743346054309 O
   0.5411151808689239    0.6717318605088098    0.3128241121245782 O
   0.5240593770964975    0.6746854865043675    0.8055141817456164 O
   0.5260828536995751    0.8784833103995893    0.3028299092430953 O
   0.5328105379925644    0.8738869398993422    0.8048458712685844 O
   0.7444614550426587    0.0807523973548756    0.3020333738938747 O
   0.7358788956854109    0.0720017456348897    0.8070215866772973 O
   0.7347936774382300    0.2633917076531661    0.2944614092575088 O
   0.7185412600139547    0.2544433037018299    0.7998970456554640 O
   0.7463814474919713    0.4791281106104464    0.3004259104239354 O
   0.7306183091544662    0.4738543763187881    0.8019176262404712 O
   0.7379892350850715    0.6781065037587672    0.3102762666844844 O
   0.7354662206838671    0.6660985679354390    0.8059443080446171 O
   0.7418410061594317    0.8911278185384398    0.3121279451852616 O
   0.7359001416325179    0.8812756786329268    0.8145784249551642 O
   0.9313225340820132    0.0768977483564367    0.3064259111337901 O
   0.9230117345319256    0.0692914958904485    0.8085784438388811 O
   0.9435919659654295    0.2749692301300685    0.3022692509078416 O
   0.9366597777338866    0.2693561467187267    0.8084182165727634 O
   0.9357153230819623    0.4598681410660720    0.3023387246406945 O
   0.9294610940667163    0.4594748854243378    0.8046007631071729 O
   0.8561539116622687    0.7261951813247284    0.6947239457678445 O
   0.5487454819159616    0.2683502599895070    0.3016803368478242 O
   0.5345408794849780    0.2577195911890716    0.8009401608279698 O
   0.5414295606211993    0.0771451758154594    0.2971735986769068 O
   0.8551608312179682    0.9374883987055103    0.7028895316937107 O
   0.1437643990052042    0.0706737190273181    0.3030148246695420 O
   0.1333177454420902    0.0741456566785196    0.8090508102879042 O
   0.1456270320344192    0.2765217404724521    0.3104444642269548 O
   0.1388769323884864    0.2645300302068790    0.8135126021707033 O
   0.1428408404563491    0.4651264437862866    0.3106316364682986 O
   0.1218142099974884    0.4653721465744741    0.8066758960715453 O
   0.1255642445838719    0.6665761229465283    0.3061244520524685 O
   0.1308604825829637    0.6764842281370367    0.7983249951528064 O
   0.5298504923662007    0.0676640476756458    0.7988838742105134 O
   0.1453664849368757    0.8795112708927001    0.2973526709133967 O
   0.3313330953854189    0.0686326905154633    0.2985026002663015 O
   0.3210046511930664    0.0576762401317564    0.8001164354906746 O
   0.3447296276991250    0.2702023823168807    0.3099707415472817 O
   0.3222936705414290    0.2603487741720950    0.8087190762198283 O
   0.3306499318271568    0.4685421909963737    0.3094501331302020 O
   0.3393782801972318    0.4852697777349354    0.8092315480556018 O
   0.3432618656595484    0.6856083916064932    0.3074883864001681 O
   0.3356066344776021    0.6730143437156303    0.8010582718773842 O
   0.3304878762065282    0.8657524769925926    0.2988848504516007 O
   0.3189170275061489    0.8560301922809228    0.7957698265752698 O
   0.1358378999016442    0.8645869042924508    0.7987605433816556 O
   0.8647930771644277    0.9237415152290102    0.5626801375637506 O
   0.6013764365256851    0.5932224276940786    0.0040149968769442 Ti
   0.7987934075763901    0.2020462568883468    0.4977989542655582 Zr
