K4 Ba76 Y16 Zr16 Zn16 Ga16 Co16 O240
1.0
  16.7808087413605271   -0.0010588565994091    0.0071684528386861
  -0.0010587821658844   16.7963642301570495    0.0012835900473543
   0.0089615859445718    0.0016047005340488   20.9729724053174564
Ba Co Ga K O Y Zn Zr
76 16 16 4 240 16 16 16
direct
  -0.0053837178692596    0.0006699099017473   -0.0009062121093736 Ba
   0.5032254661360492    0.7511784076865113    0.8036006382928919 Ba
   0.4989807248869659    0.7524234986078672    0.5981890109314882 Ba
   0.4943819862687185    0.7520076091578537    0.4010274689631290 Ba
   0.4952095775814487    0.7516605632571236    0.2012805041364613 Ba
   0.4975739779838657    0.7495928879665105   -0.0046144440864164 Ba
   0.4922103461767793    0.4995058434748764    0.6019979864779541 Ba
   0.4954386221675486    0.5054058587567644    0.4020285087525309 Ba
   0.7496965410802628    0.0014602121328965   -0.0052739727516541 Ba
   0.4986227374158759    0.5008791752652704    0.2026950685245786 Ba
   0.4901512813648481    0.2474839737622409    0.6015408763545514 Ba
   0.5051033280250989    0.2443351219356733    0.4001591432947394 Ba
   0.5032680048527449    0.2504317395261030    0.2032902938168261 Ba
   0.5041780736069856    0.0004033357768889    0.8028169436076787 Ba
   0.5006945883685869   -0.0003142232238809    0.5963581828405216 Ba
   0.4988035373678619    0.0002169808115312    0.4046668418924834 Ba
   0.4952503040445525   -0.0013726087836458    0.2014057321739028 Ba
   0.4925174030640905    0.2521323809984659    0.8018268219804480 Ba
   0.4980781739137159    0.0027752648753253   -0.0060686167433765 Ba
   0.7497748950627975    0.0035764180503043    0.2018776378364420 Ba
   0.7454906845925116   -0.0017823180640682    0.5978040684589142 Ba
   0.7485211265372471    0.7485202258295084    0.8033648173057123 Ba
   0.7452903101320335    0.7525076997701496    0.5963707984549791 Ba
   0.7543175802201393    0.7475779536178759    0.4035112969055199 Ba
   0.7517429672348753    0.7520070769959996    0.1996933871553732 Ba
   0.7513454672529118    0.7487934078240084   -0.0050045157860831 Ba
   0.7509592136733976    0.4910691629673797    0.8019144742972607 Ba
   0.7492426685245029    0.4929122828751593    0.6040487590145699 Ba
   0.7461111610392389    0.0042921645846911    0.4024718213213351 Ba
   0.7547237916458878    0.5013119498815173    0.4008684201810600 Ba
   0.7502447694061936    0.4952459567226020   -0.0103079716241290 Ba
   0.7495034370796033    0.2551563695689971    0.8030444367620160 Ba
   0.7500063734010122    0.2548021191297270    0.6003474231293338 Ba
   0.7496302860787120    0.2488800068998622    0.3988184584625873 Ba
   0.7481563489127424    0.2487490501952496    0.2038370268425420 Ba
   0.7437803489670453    0.2517725825418636   -0.0086998975369770 Ba
   0.7491645247943450   -0.0001042045474434    0.8053446922431721 Ba
   0.7514304129397841    0.5002912571811111    0.2015263512530338 Ba
   0.2462264231208165    0.7430254312893892    0.7987003501010036 Ba
   0.5022376026177957    0.4909056291417780   -0.0093566667018800 Ba
   0.2529245735648787    0.7526324918811689    0.3992554968167618 Ba
  -0.0052143583501595    0.7456361939900670    0.5964812819066867 Ba
  -0.0000114464718283    0.7481506065690258    0.4018344619864337 Ba
   0.0037907281167896    0.7549114563963925    0.2026548764992472 Ba
   0.0063907373731449    0.4982395809122762    0.8005653265948012 Ba
   0.0025583889067857    0.4911704138326747    0.6014075333542389 Ba
  -0.0004785692838354    0.4966589499799797    0.4017865022958329 Ba
   0.0053672780238922    0.4958100212983235    0.2001152204218439 Ba
   0.2545190796623416    0.7491428310917005    0.5967105956129530 Ba
   0.0030231812446118    0.2563085581769768    0.7984938277939616 Ba
   0.0066056835194521    0.2541879825048081    0.5987014387199706 Ba
   0.0011800598160067    0.2534984222047457    0.4012492057258800 Ba
   0.0001839602994052    0.2503656396836968    0.2041051261840520 Ba
   0.0014412625214166    0.2532575088653521   -0.0023517760228796 Ba
  -0.0035983780161363    0.0047086408178780    0.8015057611553829 Ba
   0.0075942166909834    0.0075645405431777    0.5974815447628629 Ba
   0.0087723039426168    0.0065335846587204    0.3999034315900701 Ba
   0.0020364557926889    0.0037946707707092    0.2063641132783030 Ba
  -0.0011122478049039    0.7393805552785276    0.8042380415158389 Ba
   0.2493385366412758   -0.0002620090614240   -0.0061293687431122 Ba
   0.0092434167012431    0.5012624088638994   -0.0021332650390441 Ba
   0.2477936464404709   -0.0002855024549334    0.4023871244598822 Ba
   0.2503797694669645   -0.0049900783418536    0.2081055818987862 Ba
   0.2540244522534030    0.7510902399135537    0.2062098259257279 Ba
   0.2455387591930960    0.7471768883589315   -0.0035791846942072 Ba
   0.2441315842558421    0.5008188559359358    0.8007594540013825 Ba
   0.2521177107681272    0.4916306693825520    0.5986246166767618 Ba
   0.2504249526754859    0.4998283092381964    0.4022119924556566 Ba
   0.2490454809323442    0.4975942971513401    0.2015300232109710 Ba
   0.2520844328028398    0.2523097548144626    0.7941893631621793 Ba
   0.2467445883737371    0.4951037837969653   -0.0015022359575657 Ba
   0.2453530555135535    0.2493881706203724    0.4043679489904157 Ba
   0.2480642040154644    0.2539796798343925    0.2023553380836002 Ba
   0.2513578216498393    0.2550181544971737   -0.0045616038542110 Ba
   0.2506452408705819    0.0056700949595217    0.7979693731610008 Ba
   0.2530265203302983    0.0109127853998603    0.5952090654178899 Ba
   0.3748339552426480    0.6357809379445502    0.5012562055747931 Co
   0.6180267716974073    0.3680591776219956    0.8893681592234249 Co
   0.3751578072058708    0.8779221572954267    0.3102506503547402 Co
   0.3704949465427771    0.3985290898702873    0.7155214831984769 Co
   0.3750740822785422    0.3541440253245492    0.4965145186889452 Co
   0.6231789269830619    0.3714573403929691    0.1102445282326008 Co
   0.1247558407121322    0.6217106666358413    0.6957568661851041 Co
   0.1260718428622464    0.3711222213010223    0.0970950134582070 Co
   0.8827026955074444    0.3756817776812583    0.7004810861078588 Co
   0.8733979070526487    0.1262145144723565    0.3014625799028295 Co
   0.8772674149168359    0.6252770663165601    0.2944052495954264 Co
   0.8848339489630234    0.6192817772726744    0.8994939687118944 Co
   0.6169579249080400    0.8772379548851195    0.4956269029804103 Co
   0.8732654883099185    0.6134605457364126    0.5117995167346093 Co
   0.3769262659705175    0.1184201925822144    0.6986613346721584 Co
   0.8806102017288023    0.1333317726063872    0.9007871631407116 Co
   0.6165044830762045    0.1217094789184414    0.2986250036214305 Ga
   0.6090718938782402    0.1295303889387246    0.9001486175146171 Ga
   0.8962951054632738    0.3836030928089725    0.9000324328209116 Ga
   0.3754795646607981    0.8711076044926594    0.0861384725725362 Ga
   0.3759404542637323    0.6254927977753287    0.7065241572059362 Ga
   0.6271509543714188    0.3810269537575892    0.3040214961872062 Ga
   0.8930425915581304    0.8908926164269766    0.4997864773833163 Ga
   0.3729822433981566    0.1319152362519140    0.9006881219787584 Ga
   0.6263630713370630    0.1255425048990385    0.5030243902041212 Ga
   0.3746411448586162    0.1219004175849089    0.4977852373906296 Ga
   0.1270693520430954    0.6317460691431371    0.1028934894461092 Ga
   0.1261500824150602    0.1312199122731327    0.4994792607895946 Ga
   0.1193665476110317    0.3741470912139583    0.7001386339498803 Ga
   0.1357636583101449    0.1288210663396462    0.3002575555527998 Ga
   0.1247244480887120    0.8709290425643521    0.4983413763014040 Ga
   0.1263633833230610    0.3756062692287859    0.8891165177565962 Ga
   0.5000910231796469    0.4957459070520033    0.8030680925710253 K
   0.4999489612558247    0.2555086340037923   -0.0059207274259876 K
   0.2531161006699843    0.2507888641040249    0.6022825849863972 K
   0.0008073523501757    0.7502256030192179   -0.0014504988223656 K
   0.8698718916681828    0.3681684459180822   -0.0146474928570417 O
   0.8794799275820020    0.1345199950054195    0.8098456996876472 O
   0.8763156097943687    0.1302822165597806    0.5963509868149671 O
   0.8783176676977861    0.1276623983032475   -0.0026378343902886 O
   0.8732989108190071    0.1204598167767546    0.2025746164502779 O
   0.6280666673877344    0.8788336906699795    0.8069803836689911 O
   0.1290633966175183    0.8820557950606981    0.4051743578792774 O
   0.6221203604130300    0.8770466953838442    0.5819406616924511 O
   0.6168892510972401    0.8805031603675284    0.4055396115872910 O
   0.8736104365843830    0.1304033007705352    0.3961383748742799 O
   0.8736501606343426    0.3752376192111414    0.2010453109271596 O
   0.3710375725117621    0.3750260075066200    0.7998991757181126 O
   0.8784102282213451    0.3780516336471814    0.6092332122706209 O
  -0.0025524987212956    0.1326733246707910    0.8998833577283242 O
   0.0074209097906947    0.1325900857076366    0.6989954458855988 O
   0.0035193240675689    0.1300446155507910    0.4974776755176170 O
  -0.0211744788355826    0.1290203650495684    0.3011620882923382 O
   0.0003121533254846    0.1210873041706338    0.1022067396867556 O
   0.8747497774717986    0.8705614321380147    0.8039805608595126 O
   0.8588669299959707    0.8654135573007525    0.5815520212258383 O
   0.6212705991812193    0.8775571893721562    0.2051039342618626 O
   0.8732427111908362    0.8599616766425450    0.4158959327447534 O
   0.8663029223359037    0.8765516716294199   -0.0041202943066699 O
   0.8849432777875302    0.6144816074855355    0.8042640020179237 O
   0.8743142098123987    0.6093596187118834    0.6026430980209494 O
   0.8775691700272572    0.6232755304164599    0.3787821193566423 O
   0.8768222946867846    0.6252286657466876    0.2097139616546517 O
   0.8823415898225448    0.6232819640534797   -0.0119442532749560 O
   0.8736528884389644    0.3684674414930968    0.8139603030485733 O
   0.8741044462736562    0.8828564637698296    0.2015121622632126 O
   0.8754306091176761    0.3799600755745115    0.3997377019592898 O
   0.6294940326616189    0.6317619195449142    0.8099207601924013 O
   0.3645064625127056    0.6279808716276931   -0.0019427881921354 O
   0.3951577453031835    0.8771830802849077    0.8047858332103922 O
   0.3744610744494653    0.8761051585496994    0.5931250415808660 O
   0.3769105985015658    0.8721268738375842    0.3964506285570034 O
   0.3807091103090814    0.1218268670992263    0.5897613162461217 O
   0.3759816470741309    0.1190987968867136    0.8080167596338589 O
   0.3750073149050595    0.8738208441363433    0.2254128390280827 O
   0.3765351628471143    0.3741527321994653   -0.0016717173021678 O
   0.3745791397855334    0.3832642748799273    0.1982111781395864 O
   0.3698985500353064    0.8723504623019737   -0.0056802169119459 O
   0.3653239720692013    0.6223098097419566    0.7972394080122447 O
   0.3748231551831266    0.6281984423408232    0.5898647047044768 O
   0.3744722684641977    0.3740306827226907    0.4122281713038999 O
   0.3744848389254161    0.6327478433203386    0.4132287054753375 O
   0.3752252909404845    0.6314075968836786    0.1992402942202052 O
   0.3756256074018534    0.3764324307158895    0.5770863695458862 O
   0.6254198372774448    0.1336010133070287   -0.0051197181416509 O
   0.3768661808088340    0.1237235479080857    0.4057348357139586 O
   0.0097461483458026    0.3813090277817884    0.0947371848913997 O
   0.6279115511188555    0.1296159301566650    0.2027154599113928 O
   0.1458818875275812    0.8847650772260589    0.5872157270973954 O
   0.6263390963155805    0.6308866602927742    0.5989145804476386 O
   0.6300446155259318    0.6241977545239907    0.4008910173099512 O
   0.6210998227521365    0.6184654260972474    0.2020475870562455 O
   0.0896702072647260    0.8727540104545738    0.7950792812059575 O
   0.6330701023598810    0.6082684448639680   -0.0113812975735224 O
   0.6240691542564583    0.3652951061664084    0.8035978029187568 O
   0.6218424395205938    0.8802195558243637   -0.0079860878923931 O
   0.6175153467725144    0.3698290718187570    0.6064341179935022 O
   0.6264705827728074    0.3707400036112999    0.2078599038151836 O
   0.6255798274309522    0.3731824074777147   -0.0230205969337937 O
   0.6231896005359336    0.1262410933807760    0.8037445322293850 O
   0.3721359824120660    0.1220168575630592   -0.0091450139091630 O
   0.6224622256813163    0.1219979253452010    0.5991825531168964 O
   0.6277122144812542    0.1235406982629239    0.3979526055612338 O
   0.3731514055479840    0.1102073159206181    0.2057019259172722 O
   0.6316870834193976    0.3706521188775034    0.3948080849099775 O
   0.0012098964701213    0.3722066980877999    0.3002162210695669 O
   0.4959393060839316    0.6353925844159969    0.4999092925131052 O
   0.0019513200435911    0.3777714892248759    0.7037651202627682 O
   0.4992921298682577    0.8774531238240193    0.9015493047966489 O
   0.5104433028522227    0.8756488045225959    0.6975965232115388 O
   0.5095107484882855    0.8757209130495509    0.4976002594050563 O
   0.4945204451832774    0.8792862519534383    0.3056945684689540 O
   0.4857669405550901    0.8848770241764214    0.1006319169724263 O
   0.4947713881546176    0.6251132771997252    0.9019869375935115 O
   0.7508752202461650    0.1411516374426211    0.0984887487640555 O
   0.4886337112370241    0.6231837619426097    0.6967486646337075 O
   0.4981289077278941    0.6279736684399648    0.3045536650480744 O
   0.4919606385132036    0.6081903113711575    0.0917352451976263 O
   0.5132780457048746    0.3685035908247570    0.8939404458719954 O
   0.4688255224238266    0.3775047196151664    0.6991922705253854 O
   0.4869785060856973    0.3686573474321828    0.4951583549600970 O
   0.5115139018692262    0.3716595231788607    0.3014691902791288 O
   0.1294991217350866    0.8769005536851513    0.2111729057186714 O
   0.5075079760378597    0.3854122696305416    0.1022630196723715 O
   0.7668173115145200    0.1258555760018291    0.3004899514485452 O
   0.7428711053670427    0.1453685442554951    0.7008032677824412 O
   0.7224235071441560    0.8801384235467985    0.4957874240216191 O
   0.7448473930024921    0.8751116567799935    0.3083236099790532 O
   0.7562289387534651    0.8659669643481422    0.0979487574832370 O
   0.7782509849121888    0.6202195476233324    0.8970269957192553 O
   0.7554087947992910    0.6110303325803703    0.7059125292858576 O
   0.7529102511711397    0.6196202247123948    0.5008917475380618 O
   0.7468832838431111    0.1199479946605175    0.4998139156315050 O
   0.7523547738507861    0.6261999104167094    0.2970269434157108 O
   0.7283383890498069    0.3713670588626010    0.8960245274364856 O
   0.7706829089580856    0.3726632510726914    0.7026422998074608 O
   0.7564141519453434    0.3811367598859981    0.5064507274540514 O
   0.7471828450089264    0.3746107115127662    0.2993530245958577 O
   0.7339136533557207    0.3640463609434187    0.0964937496240426 O
   0.7692575753363042    0.1284468079233577    0.9003041591413428 O
   0.7531708645766551    0.6448278810525588    0.0996412158334995 O
   0.4948369020946332    0.1283506407470518    0.8973830829174345 O
   0.4918781982945977    0.1181676982342198    0.7005861787268848 O
   0.5040697024038177    0.1221798356543923    0.4982921724264960 O
   0.2491551804182916    0.1263622881867129    0.4971723460599277 O
   0.2495160388904362    0.1243543081374357    0.3047447151578139 O
   0.2448579816380825    0.1508938895583711    0.0989745116145189 O
  -0.0138262785504296    0.8802610458311007    0.9110731277043690 O
  -0.0021182678381014    0.8754873133857035    0.6691727067697736 O
   0.0071091463184975    0.8823634912641805    0.5025552690461524 O
   0.2651577421226604    0.1226741619279847    0.6995181192102616 O
   0.0068842661027236    0.8775734901685210    0.3082895828127454 O
  -0.0083477259557453    0.6171743130600530    0.8975739904391110 O
   0.0058105200069841    0.6141236661887993    0.6981671483330865 O
  -0.0113789680012943    0.6157211607707447    0.5019095949339688 O
  -0.0009007114631061    0.6259231153530344    0.2938670930852941 O
   0.0153799695160661    0.6094014928769562    0.1040168246585604 O
   0.0099470502435903    0.3751203443734255    0.9001292345822726 O
  -0.0043972161622942    0.8869230465920173    0.1039780068686883 O
   0.2509914544228713    0.1285448210693637    0.8983299531429914 O
   0.2471376265931415    0.3652353794560746    0.0982874206187523 O
   0.2405440827575472    0.3721690344372853    0.3031755692297616 O
   0.5019042358328969    0.1209788238857817    0.3021196117642680 O
   0.5050418415254643    0.1108267184385013    0.1016938261747667 O
   0.2536377763017023    0.8766177169802504    0.8876854756901512 O
   0.2504667925269505    0.8716745912441379    0.7175957660813538 O
   0.2478529377612855    0.8767090781090856    0.4938089196100213 O
   0.2585676036325553    0.8779197249798876    0.3082562476309218 O
   0.2651424678614523    0.8702259968719444    0.1094970035467802 O
   0.2450158458654307    0.6195185256156515    0.8984296571197181 O
   0.2486734040662348    0.6220290327578648    0.6933528102184302 O
   0.2589815109816915    0.6324107573140336    0.5016298743197372 O
   0.2524419709010847    0.6266205276232125    0.3024422249317953 O
   0.2428043099024969    0.6214993205737150    0.1007109081930547 O
   0.2408447319263550    0.3772904962306558    0.9005820809321039 O
   0.2709263285381298    0.3799495738592706    0.7019875813315088 O
   0.2649732026523006    0.3726108501002736    0.4946569063753093 O
  -0.0045992581330999    0.3763576080415334    0.5045716530755308 O
   0.1389521377604140    0.8799210429658744    0.0004127088001403 O
   0.3711395483282497    0.7473276239301506    0.8964719195339920 O
   0.1243464334796256    0.6178759522929600    0.6103659750954047 O
   0.3741353925155523    0.0045236745920456    0.8971745211275413 O
   0.3873719830287921    0.2543315737189463    0.1091090037298109 O
   0.3767956898112300    0.2439934233906665    0.3016156399324278 O
   0.3785154880368851    0.2427606933424653    0.4968403447283634 O
   0.3775675882663286    0.2228120076275557    0.7021385264961048 O
   0.3691426047187676    0.2512908173484568    0.8948697502586211 O
   0.3625249308945435    0.4998875675145500    0.0993287981897242 O
   0.3757476959578131    0.5064216136657868    0.3083905222222302 O
   0.3761968270547069    0.5291071734232160    0.5004904402558121 O
   0.3749540667189226    0.0118354124825312    0.6979135317255460 O
   0.3673393080149155    0.5071229453815628    0.6929429758656124 O
   0.3762494113273759    0.7529344391091848    0.0972534053018302 O
   0.3752127751787606    0.7630416905583913    0.3044251490213973 O
   0.3757255136131148    0.7427465167080062    0.5010076128105582 O
   0.3700273221416621    0.7393139144776728    0.6962102696196900 O
   0.7392727052785475    0.8666056956091894    0.6956879580789955 O
   0.6417261449506945    0.0087612325231924    0.0976588162078938 O
   0.6294847042049824    0.0071257424831411    0.3012450230008190 O
   0.6206522917416297    0.0038344297036234    0.4978938912380844 O
   0.6293440159874655    0.0023567794334943    0.7018109909158214 O
   0.3725840314911806    0.4953715790072289    0.9017300857141962 O
   0.6279810667439140    0.0151763291130474    0.9003974489322467 O
   0.1262051686569600    0.6204093346490764    0.7798678491539557 O
   0.3564208125033848   -0.0124882622010880    0.0981705617116025 O
   0.1398928323128582    0.0088434770559522    0.1072292375737393 O
   0.1198167590772462    0.0160678248042428    0.3031977526844277 O
   0.1274041342773119    0.0119333564321304    0.4982541778701466 O
   0.1310828569909478    0.0110590823490859    0.6963728155234880 O
   0.1218978727785954    0.0077980763234829    0.8947509907048542 O
   0.1162663706575360    0.2642041085624430    0.1003676898150450 O
   0.1203882942385020    0.2427988460382721    0.3050616762501136 O
   0.1248812680104126    0.2494904621941825    0.5003203722485470 O
   0.1322445664056980    0.2580926239161294    0.6988919422645458 O
   0.3741175588047680   -0.0093245844345847    0.3097233915684314 O
   0.1266296401803486    0.2588273710203278    0.8983244932040070 O
   0.1228579251041229    0.4971470284931017    0.2994207985162199 O
   0.1310739591878891    0.4899111104646590    0.5035145648578778 O
   0.1325845348324477    0.4951709965325376    0.6985633120368429 O
   0.1230397365991635    0.4954184144192595    0.8991774918330273 O
   0.1264650559358322    0.7446878248407754    0.1049261858598683 O
   0.1270337889663272    0.7488672825718160    0.3033297911702583 O
   0.1193162161463579    0.7553802138336989    0.5000762095218608 O
   0.1250825207125356    0.7351408084607854    0.6932471361638356 O
   0.1230413276976303    0.7373174879377942    0.8961441709184719 O
   0.1330526675606326    0.4774030484239004    0.1010804812858137 O
   0.6156497199387755    0.2649548822995509    0.1042841603266075 O
   0.3747504767810256    0.0033918681202740    0.4965793329118940 O
   0.6265829169994820    0.2390295926292181    0.4991509395991347 O
   0.8818809923491857    0.4835913454503770    0.7068163089015467 O
   0.8800689734318985    0.4997870233217658    0.9001512298180366 O
   0.8895674504409432    0.7610727820504073    0.1038842413797357 O
   0.8776486128023359    0.7405514128374027    0.2973071567751692 O
   0.8739125269032879    0.7161461459559548    0.5010199794256640 O
   0.8783436939959418    0.7379953917058569    0.7009006449200247 O
   0.8751335572879109    0.7336914426676467    0.8958932388669023 O
   0.1224680272372070    0.1299085503672763    0.0001407306913737 O
   0.1230299748199484    0.1349432088079416    0.2055012106425327 O
   0.1237035237316964    0.1301176329761451    0.4009857148234975 O
   0.1273135107608941    0.1295833935515800    0.5956163812353330 O
   0.1285888400199262    0.1341965297577113    0.7976707561854008 O
   0.1282685051087649    0.3734344373701711    0.0097108490516811 O
   0.1252612164377379    0.3719549910655010    0.1864661840476332 O
   0.1220142498980347    0.3724875125491920    0.4065618304290797 O
   0.1289417008765341    0.3759295639431864    0.6072419504181125 O
   0.1292514849172066    0.3764469133703826    0.7943006414736005 O
   0.1281116436139569    0.6157031537195823    0.0078113093903537 O
   0.1304670167601498    0.6192189005122812    0.1981056622423539 O
   0.1197251932985217    0.6194848242209675    0.3980607855296492 O
   0.6302139139874091    0.2379791378829291    0.3024291272969972 O
   0.8724921210259029    0.5104683991143321    0.4984865720635996 O
   0.8755940579558663    0.5033893916342469    0.2970016767326922 O
   0.7550642282080063    0.8761877160525671    0.9003222521789552 O
   0.8784491348403208    0.2379795748577775    0.9023962683076513 O
   0.6054968354679870    0.2531993884585985    0.7019779797112011 O
   0.6273456944943075    0.2466245301129995    0.8928804343615684 O
   0.6315054989022902    0.4765024704227269    0.1023889236467318 O
   0.6273032639261279    0.4984613574440580    0.3024037386534434 O
   0.6119920553295513    0.5045664025927701    0.5019053572309204 O
   0.6245919935488271    0.4825589693930585    0.8908562458464250 O
   0.6060275382221061    0.7473137231798604    0.0950518330947647 O
   0.6227841286199740    0.7517780967801991    0.3022591796212821 O
   0.6249761510476780    0.7550087668507838    0.4955076628733918 O
   0.6241710143223627    0.7562595578795771    0.7023400160447691 O
   0.6210340662747754    0.4856942749727740    0.7017969168366971 O
   0.8677717638737837    0.0003136401897614    0.0957608140011906 O
   0.6263082379767680    0.7510972006055250    0.9019096151923086 O
   0.8732755928832105    0.2519672127440109    0.4982868894639811 O
   0.8721059803561272    0.2480396426969787    0.2999352080540159 O
   0.8868604041418569    0.2463319234164475    0.1016662614272984 O
   0.8849614287119025    0.2700778703789269    0.7024422896483914 O
   0.8666547128809393    0.0026478102820869    0.7046739689658955 O
   0.8789166199111554    0.0027602702250478    0.4958952566737508 O
   0.8753246799147281    0.0114999405055865    0.3069905107560597 O
   0.8772629928511250    0.0268109755651496    0.9004197807285552 O
   0.8600852889483445    0.5020381040749871    0.0957762258056547 O
   0.6208657943864604    0.8762612408117892    0.0983185754757762 Y
   0.1254103957859378    0.6224646851562705    0.5024021345024527 Y
   0.1282841464802838    0.8764070918444002    0.1026959794216203 Y
   0.1231891397105666    0.8742868414917967    0.6951693553435836 Y
   0.1194196689925981    0.8720739532998787    0.8975682403393931 Y
   0.3739784069721160    0.1251069326017988    0.0985756476019461 Y
   0.3758144190995397    0.3754339585153914    0.3032141547682693 Y
   0.3767985822574896    0.8737686278359729    0.6989109138949718 Y
   0.6229886691643658    0.3727039415690407    0.5006056049676714 Y
   0.6243437509240222    0.6195320754952124    0.0949660490409383 Y
   0.6212764506883376    0.6185502643392891    0.7045500779860190 Y
   0.8735369521481783    0.8730976984185619    0.6953699094847093 Y
   0.8746533875106726    0.1307539352535960    0.7016817317804699 Y
   0.8758498696815249    0.8766587425447074    0.3079552768949641 Y
   0.8723978788541533    0.3748114754674928    0.0943957117492746 Y
   0.8819097150081666    0.6280593795482929    0.0960872718292999 Y
   0.6269424067987317    0.8762679973952748    0.9000538863842078 Zn
   0.1258449720763510    0.1318463633729468    0.6990141225805973 Zn
   0.1225264446315487    0.3746636168493876    0.3076577667055359 Zn
   0.1228135478017317    0.3719826099065321    0.5049429719883394 Zn
   0.8734155820324691    0.8638537586779835    0.8984489244882671 Zn
   0.1263112886150516    0.6208131406890425    0.9098184024974517 Zn
   0.1251684737964873    0.8723087787647967    0.3058172041145872 Zn
   0.8756191620704148    0.8796042499565331    0.1020746207004575 Zn
   0.8742190046836879    0.3722324174157708    0.4968791305210854 Zn
   0.6255404698291046    0.8784805067846527    0.7071871006796521 Zn
   0.3751397478088923    0.6232756178189943    0.2963601912147856 Zn
   0.3664801778449874    0.3749279999903942    0.9017327314409533 Zn
   0.6092351039413025    0.3708808126756893    0.7009864848887873 Zn
   0.3700978168529033    0.8814415285456220    0.4998078656271769 Zn
   0.3728321166282581    0.8723788695417122    0.8974504969218059 Zn
   0.6145406064527746    0.6267049364511581    0.8999623181431542 Zn
   0.1271260885762968    0.1271516834583088    0.1022747910504511 Zr
   0.8745641457526068    0.1263949827343336    0.1003795972762293 Zr
   0.1253040933460151    0.1309560867352922    0.8978593301750825 Zr
   0.8751215174552226    0.1280352684943127    0.4989808340710147 Zr
   0.1266154108265124    0.6231394060567208    0.2996680551219279 Zr
   0.6234828165446324    0.6258554519113450    0.5012997867626009 Zr
   0.3711236807713175    0.6245262619543901    0.0990099694167677 Zr
   0.3718087026434425    0.6198515633062802    0.8973048501402793 Zr
   0.6227129868863754    0.1283983632458888    0.7013073033146034 Zr
   0.6238811002660414    0.1274109835918675    0.0971257701195617 Zr
   0.8769729428789955    0.6177604497282423    0.7033358503479460 Zr
   0.3749524500560485    0.1231139007379658    0.3032801090327188 Zr
   0.3780053893530652    0.3732844407507072    0.0985200787172752 Zr
   0.8751815624237508    0.3750607556863045    0.2999539016253447 Zr
   0.6241897803340525    0.6254502616935731    0.3004180077311183 Zr
   0.6229814786039695    0.8781457831998976    0.3025722568873566 Zr
