Sr80 Hf16 Zr16 Ti16 Mn16 Sn16 O240
1.0
  16.1773670856675871    0.0049255863241186    0.0066385165317937
   0.0049278911307632   16.1569289616815155   -0.0022597234593314
   0.0083080553587836   -0.0028248376058590   20.2392194341875253
Hf Mn O Sn Sr Ti Zr
16 16 240 16 80 16 16
direct
   0.8778177005304018    0.8719672479432820    0.5011791241001212 Hf
   0.3740473606158323    0.6270289163871653    0.2983278616641458 Hf
   0.8766225094995282    0.6264759036632688    0.6985308306761129 Hf
   0.8756574900041535    0.3757145673700799    0.9015752009667879 Hf
   0.8723043847788388    0.1255082921129342    0.8999967952271037 Hf
   0.8728881891601044    0.1266356117175148    0.1020212948382324 Hf
   0.6281144263064359    0.8734474275353515    0.6990063471117719 Hf
   0.1229638412781556    0.1251782027292316    0.6977676045966097 Hf
   0.1221498214939394    0.3794407355217509    0.2970597105486000 Hf
   0.1245001105364722    0.3759170801751444    0.9006304137166250 Hf
   0.8768584991627829    0.8729350358901727    0.9007466715723816 Hf
   0.6246847992413674    0.1260057089789904    0.1002462417267672 Hf
   0.6258585355515112    0.1267791268956298    0.2988752826093475 Hf
   0.3744761252378244    0.3762482811107132    0.6998097455006119 Hf
   0.3750129360948521    0.1248981089245313    0.1029261574868370 Hf
   0.3749702625905705    0.8748976613892403    0.6976335382317844 Hf
   0.3739461753522617    0.3770118049230288    0.9014601540682599 Mn
   0.8726701740507818    0.8749055698781937    0.1003466931712438 Mn
   0.8758936111794945    0.6256489252321252    0.1004595115401965 Mn
   0.3777875458169352    0.8712434820027192    0.4985793897871610 Mn
   0.8779973743375050    0.1243540557483911    0.6986161303498124 Mn
   0.1254487009594807    0.6255449954599879    0.2988418613782653 Mn
   0.1233181490520646    0.6219090577214437    0.7005972652217585 Mn
   0.3794592156082062    0.1233581135076215    0.2997266111117061 Mn
   0.6275731682322012    0.6236541460383713    0.9023055751573836 Mn
   0.6265611284181326    0.6259102075912015    0.1015171378686365 Mn
   0.8761666113364062    0.8721801769071105    0.6990791390537168 Mn
   0.6253340467086204    0.3755059044238669    0.6992788861997660 Mn
   0.1247289146517904    0.8726622994336459    0.4994015408080207 Mn
   0.8754351541484972    0.1284272221630954    0.2992586393306297 Mn
   0.1243166740919013    0.3772666645269143    0.1007957800343080 Mn
   0.3757889032780047    0.3732819220256139    0.4991168261354839 Mn
   0.1286661221832036    0.3802988626472779    0.7975909905880348 O
   0.8492788149189877    0.2505486409542562    0.9004660934885697 O
   0.8698452027282810    0.5001661406724959    0.1022063136802820 O
   0.6174769275650206    0.3772987872644135    0.3990430879110988 O
   0.8560805590071981    0.4968870457129847    0.3001060852786533 O
   0.8910256035334042    0.5011624111041866    0.4975421578765928 O
   0.8536937888636954    0.5010223591256020    0.6996441909878863 O
   0.9047342963937405    0.4987957245788584    0.8998209411373015 O
   0.6221472510402093    0.3816948091630253    0.6050892524089321 O
   0.6347911754947203    0.3777616870514467    0.1960732654800913 O
   0.6077552128749960    0.1338138431872193    0.8014609204398628 O
   0.8817884020830399    0.7460959564017239    0.1001682227032862 O
   0.6252281843251660    0.1154709064980502    0.5989308367282669 O
   0.6415675039105287    0.1300324741123099    0.3985500941506995 O
   0.5999765795999819    0.1233937984028221    0.1996639424084100 O
   0.9038794002217513    0.7515354789928964    0.2986999887362258 O
   0.6517456382616867    0.1221873575604564    0.0015121753420253 O
   0.6182875666680253    0.3821071045348703    0.0039085558714753 O
   0.8954626596829190    0.2480254003169765    0.6959272069822736 O
   0.6281404848601709    0.3726337030800450    0.7974407728809274 O
   0.8572088284642849    0.2551364914990726    0.4988564221956921 O
   0.6206965001864432    0.8676460828381722    0.4035657641745935 O
   0.6033377669664779    0.7481556149784180    0.6943165418380116 O
   0.6492749656202029    0.7427382501904227    0.9050384493078987 O
   0.6346913904865081    0.8680161270275595    0.1961446830790692 O
   0.6217760006254465    0.8730039269508005    0.0041244594455090 O
   0.8658250695397123   -0.0041062306008590    0.1021825115831091 O
   0.8535633768578318    0.0052744873324352    0.2961731245293957 O
   0.6323020324664308    0.6292536734962036    0.8034469692026702 O
   0.8995467792046763   -0.0019957538621561    0.5010841714579554 O
   0.8618315299736353   -0.0020725838258769    0.6998072667882309 O
   0.8975055837284459   -0.0005462283920731    0.9002562405966860 O
   0.8788570400016505    0.2543920822313387    0.1018273786532105 O
   0.6150634145452343    0.6195449211886608    0.5961685067188092 O
   0.8902796921958186    0.2486433910472567    0.3007066756287261 O
   0.6369428804929661    0.6252472193064957    0.3977128291512418 O
   0.6214861559197598    0.6272948107740252    0.1957311590553797 O
   0.6291279481283767    0.6214929081424803    0.0003708992669462 O
   0.8574061160407728    0.7457394364672573    0.5010058281194746 O
   0.1257426447739672    0.3774854931947593    0.6035471840475309 O
   0.8952563292459763    0.7538389009375023    0.6975916411883769 O
   0.8513080880571011    0.7499099624604962    0.9035579735891943 O
   0.3793154541338184    0.3590316165099323   -0.0035816272194627 O
   0.3887001900727417    0.1124648477459672    0.8005477818432984 O
   0.3734377382670235    0.1394948028043626    0.5986933990302313 O
   0.3647695339242465    0.1280084942001779    0.3939486734339095 O
   0.3960127284710768    0.1159181934104472    0.2053136926206303 O
   0.3483411278729118    0.1355531518908510    0.0040803958755581 O
   0.1270412158273445    0.8750315741015138    0.8031852052191303 O
   0.3595126326771014    0.3897429827641039    0.1991063837355415 O
   0.1272266456174692    0.8728055257170332    0.5959706997547707 O
   0.1422828881216358    0.8792535167347145    0.1990177098146169 O
   0.1148155561403768    0.8599685607663060   -0.0024609253782586 O
   0.1260158677178166    0.6205803228572844    0.7972051439934787 O
   0.1147297721359455    0.6248935951529104    0.6031541129496462 O
   0.1340229529189634    0.6294202191078203    0.3948559955405885 O
   0.1160871858743296    0.6203828961000181    0.1983356419855657 O
   0.1236241870064546    0.6277602050886323   -0.0003310283255878 O
   0.1189128583764747    0.8685458961246113    0.4049678753242460 O
   0.3853501299742897    0.3712484445116873    0.4047584675162419 O
   0.3742707309274415    0.3671861777694371    0.5964176352659549 O
   0.3701440560586454    0.3877108317837312    0.8032809572442703 O
   0.1475026971120853    0.1355071997000280    0.0014240018031643 O
   0.3739919454675615    0.8690235985086576    0.5947934729199682 O
   0.3811871037902017    0.8717992331557760    0.4026738757940814 O
   0.3661992985302349    0.8863483115936907    0.2029955562722974 O
   0.3850883148266089    0.8607895542674836    0.0067633480352514 O
   0.1004664366919476    0.1137341241714040    0.2024178549423417 O
   0.1335229419137867    0.1306505798335223    0.4024120766770287 O
   0.3688798292772543    0.6069051407066757    0.7999419656286539 O
   0.3876743044427878    0.6365904005396630    0.6004743214087090 O
   0.1245638388996160    0.1245307896335445    0.5954163208144023 O
   0.3652865373435439    0.6375993712450003    0.3984353781351500 O
   0.1046807589388462    0.1203229326589682    0.7982873907994059 O
   0.3805992501362067    0.6048054758372011    0.1985581303887697 O
   0.1167267915440813    0.3734674936556624    0.0042135094159934 O
   0.1307692845081270    0.3835674357862119    0.1947365561603153 O
   0.1116658517216913    0.3785819009160654    0.3977508993734747 O
   0.3726845753816235    0.6502112376208050    0.0013293176534748 O
   0.3734221233210583    0.8948430762960581    0.7992657487435564 O
   0.6279139638134257    0.8794517129175150    0.5966300396031551 O
   0.3517074040928136    0.7477828266785522    0.8862574423834361 O
   0.8511045226203648    0.1236834397454653    0.0012924052638112 O
   0.5026960927668461    0.6070318801549233    0.3041723989550530 O
   0.5052118577201732    0.6215708097397532    0.0957963325563382 O
   0.4961874479589489    0.3590212449636366    0.8966364008450988 O
   0.5035352709397688    0.3925968107496317    0.7018368630709415 O
   0.4946912402032262    0.3556017951662089    0.5039121137230922 O
   0.5014189977698497    0.3986701878052645    0.2909128646594310 O
   0.5027332462883132    0.3892194188341765    0.1056940111465222 O
   0.5016815739563205    0.1494393033301865    0.9159535997100036 O
   0.4998964795582874    0.0990130570178233    0.6929777620670154 O
   0.5017390352333002    0.1434981990652936    0.4939568124071601 O
   0.4965458349514439    0.1092205205620065    0.3143685538896901 O
   0.4996064117669284    0.1171284587808601    0.0817712204099564 O
   0.2443073689078306    0.8898073098987442    0.9078691324005013 O
   0.2490221633828122    0.8501573233956105    0.6994563124985537 O
   0.2476195588506372    0.8862781633988863    0.4954427594871360 O
   0.2564900373531075    0.8590679909711540    0.3080808249466466 O
   0.2538614875496720    0.8601310946083687    0.0913699162867608 O
   0.2444927095727447    0.6046535458659520    0.9034431364391715 O
   0.2439716959521850    0.6434411971841774    0.6948523318639878 O
   0.2480546305638173    0.6068351605680780    0.5065102647678505 O
   0.2446792035188297    0.6441910825267975    0.2895425042634813 O
   0.5057767530918068    0.6401031656434851    0.4891987483394857 O
   0.5004059773253372    0.5964184173392877    0.7069019444707850 O
   0.5062923703454697    0.6418704154949616    0.9016686391629354 O
   0.5053896499554857    0.8776286004691979    0.1069034551173762 O
   0.7474271717841379    0.8888005032979636    0.4977663137931895 O
   0.7524350270401450    0.8500656081660219    0.3063706505396589 O
   0.7552983405161801    0.8662061852175211    0.0923330308569256 O
   0.7445595132602485    0.6006678467518533    0.9027843978316901 O
   0.7496117053516859    0.6451529187272302    0.6929213915822924 O
   0.7501313797526954    0.6109589635076085    0.5054560376923218 O
   0.7471440998531172    0.6464064433162058    0.2925103749920158 O
   0.7528385186157250    0.6292091944720276    0.1031347470851757 O
   0.7501461310626185    0.4027877503445154    0.9062735784703203 O
   0.7447567198094274    0.3541631801986090    0.6965597267002211 O
   0.2435992900924114    0.6347094031686555    0.1045688144177649 O
   0.7544491808227896    0.3951052814818862    0.4972655873768475 O
   0.7481173486625795    0.3741777806161203    0.0952774819328161 O
   0.7493308853073475    0.1032005520245648    0.8819884629090677 O
   0.7576650503269446    0.1415876148186049    0.7034726181235373 O
   0.7517397708695915    0.0942293586015671    0.5033663639745183 O
   0.7534170438484336    0.1446052034723470    0.2872687102164719 O
   0.7485903409775436    0.1320272892567046    0.1215873232887510 O
   0.5016147549682785    0.8474749538690739    0.8987802751708573 O
   0.5014051844945208    0.8971159893960726    0.6971833130880009 O
   0.4971750148421191    0.8579739895259267    0.5019620842694181 O
   0.4966906565763619    0.8907252189994564    0.2965689644097580 O
   0.7541002926590068    0.3576979538227971    0.3040608790037220 O
   0.6282353524752182    0.8638582204311702    0.8001353470619690 O
   0.2546172064031481    0.3946907838763745    0.9054352289785479 O
   0.2558074084720035    0.3933793994024132    0.4957536411588679 O
  -0.0025090417618699    0.1187981294510891    0.0847931021752604 O
   0.8748000627275958    0.8733424120783733    0.7965767839214578 O
   0.8732270550211747    0.8749194767262007    0.6037197400123969 O
   0.8823774304013824    0.8774799001381099    0.4005520882563721 O
   0.8622092390111898    0.8732613900113823    0.1955699949266525 O
   0.8838364029637906    0.8756454015768529    0.0042468720970960 O
   0.8713586873444339    0.6293008653491163    0.7998697551684478 O
   0.8830169245169892    0.6228887019533076    0.5962184488199441 O
   0.8650797403872769    0.6245799645288913    0.4021680603023401 O
   0.8806022899101607    0.6238951050692284    0.1949284990629829 O
   0.8727985916452740    0.6226770266955853    0.0067213890435354 O
   0.8686158922494559    0.3724351877875799    0.7997956861170388 O
   0.8724087023904457    0.3792665330390300    0.5963062166564727 O
   0.8807491805403619    0.3766493358438827    0.3982668525621914 O
   0.8684575518969009    0.3756478504055848    0.1999600416149184 O
   0.8817616651472018    0.3754881532639843    0.0043660660763738 O
   0.8882356053643030    0.1248172993390231    0.7951115789434829 O
   0.8726865312811590    0.1262989670097978    0.6034139641551107 O
   0.8607512463528251    0.1275080705556265    0.3950525571175006 O
   0.8933184547615902    0.1278789845889629    0.2045772737572950 O
   0.6386572047642677    0.7485372238768243    0.5036099444733819 O
  -0.0074589811853861    0.1096636585360146    0.3159751012945984 O
   0.0050805707222043    0.1411089989080918    0.4948191160190779 O
  -0.0051503969500638    0.1084281601402775    0.6909674958416508 O
  -0.0028304126567134    0.1477856786155653    0.9147708353062818 O
   0.2466892145453195    0.3553808421299973    0.3060649113303311 O
   0.2430315211701115    0.3703087118340707    0.0922482423241466 O
   0.2494657681479065    0.0988701219116347    0.8873841068808888 O
   0.2475928737309440    0.1479015178216993    0.7061832763381497 O
   0.2461556258308562    0.1038617820367892    0.5005706201871765 O
   0.2539257991430089    0.1430794858487959    0.2876248881455541 O
   0.2510796074250480    0.1310708527023287    0.1250160309982041 O
   0.0025059088419911    0.8507630115278254    0.8969615956768389 O
  -0.0037362143418831    0.8923974001132327    0.6984921044533882 O
   0.0050813138493563    0.8542731304518559    0.5034084158242391 O
   0.2462203256411079    0.3583547934430911    0.6988770488373128 O
   0.0009005765377202    0.9001221765958172    0.2941120211024450 O
   0.0033288225869741    0.6454062216870227    0.9007406858887927 O
   0.0035943150895484    0.6057744739919085    0.7029049142984498 O
  -0.0049490085164460    0.6437734998460776    0.4927299624018638 O
   0.0066074309317148    0.6051905673921851    0.3040741672002417 O
  -0.0020387701184938    0.6180771196867593    0.0973885886499711 O
   0.0010689872843940    0.3485770391471655    0.8971237628030269 O
   0.0026216258126870    0.3953273636570078    0.7010774117472001 O
  -0.0048883969931961    0.3563868632828108    0.5031827749343271 O
  -0.0061440774398975    0.3935203675088414    0.2918731840104141 O
  -0.0014207364419887    0.3840429367248562    0.1057751054546121 O
  -0.0043508497094367    0.8829643496468129    0.1092954992235764 O
   0.6031319930069110    0.7433346032968985    0.3001131855507492 O
   0.7512024387937906    0.8984585362272500    0.9028339295367679 O
   0.6018531722116931    0.5056671362183531    0.8982984687127493 O
   0.3953316905648911   -0.0001939610848436    0.9156388038453800 O
   0.3476806022949389   -0.0006277805550372    0.6887240790156152 O
   0.3886829649155339   -0.0056953158208213    0.4997009417375786 O
   0.3690226399713691   -0.0053396851128111    0.0968579487119650 O
   0.1427136479086133    0.7448265992840148    0.8962562547870381 O
   0.1027179966031288    0.7441427532856411    0.7019251233756502 O
   0.1429583325545302    0.7532678573676618    0.5005336093391297 O
   0.1071868100200056    0.7439945633212018    0.2948249065922574 O
   0.1128399757179384    0.7454910368629296    0.1038089454778890 O
   0.1063128163969459    0.5025080425947231    0.9020692221840274 O
   0.1406635925727240    0.5027591645625602    0.6991336372007791 O
   0.1035877342846829    0.5013322219376269    0.4993327067983027 O
   0.1439742534530315    0.5062295425440088    0.2989841678691804 O
   0.1279197640542881    0.5012846118016081    0.0970521671062676 O
   0.1512487363303286    0.2512429353982083    0.8945333266046702 O
   0.1045390556990943    0.2546053694099475    0.6997208279035423 O
   0.1453574342087857    0.2456807582104026    0.5012114364245767 O
   0.1028435180984657    0.2520789049903425    0.2955969287861075 O
   0.1159558413975171    0.2588679149903220    0.1065021686198578 O
   0.1037936908061448   -0.0076561326992595    0.9070535264728744 O
   0.1420095772756042   -0.0016813379626934    0.6970560249352351 O
   0.1104721596960900   -0.0032984961031479    0.4983784129525827 O
   0.1477297971868868    0.0006012402184836    0.3079999550023733 O
   0.1348082106205091   -0.0012080071658684    0.0881531605880148 O
   0.6248852488935678    0.7463173440346229    0.0981582417236528 O
   0.3842010696971653    0.2524723353042899    0.1110102214992836 O
   0.3932817268319255    0.2446624610355310    0.2961602121260803 O
   0.3624791554117476    0.0019886635791830    0.3047468525179199 O
   0.3951670902354550    0.2509953120344740    0.7080115942989551 O
   0.6471784916465205    0.4950166626328031    0.7011627285661183 O
   0.6106060913364549    0.5049222950258303    0.4976009088635822 O
   0.6471139690384203    0.5060588351821789    0.2973483779170249 O
   0.6327463937992548    0.5046807473771266    0.1018801672416708 O
   0.6491369647304646    0.2535122676804352    0.9044797205477253 O
   0.6081126392017036    0.2568734874648730    0.6954853785394062 O
   0.6503811416925651    0.2485215132270887    0.5046093851875466 O
   0.3553762044336599    0.2558060438458692    0.4955666654415852 O
   0.6174680786084520    0.2552597166327497    0.0985790348392648 O
   0.5973903001778272   -0.0017741607446019    0.9011064320012169 O
   0.6507488987741252   -0.0017932699930762    0.7063336087893025 O
   0.6031519524385475   -0.0063819647589947    0.4932777008966086 O
   0.6439032066212916   -0.0004788595870719    0.2990237884637320 O
   0.6061420333436808    0.2530176008459372    0.2976299895581948 O
   0.7570204939598060    0.8549278522092815    0.6987478179935337 O
   0.3975498640493050    0.7500800926189158    0.7104104069186998 O
   0.3607528604635268    0.7556852787787606    0.4994227015220952 O
   0.3924066519628892    0.7545576382262241    0.2906237983540690 O
   0.3831667155094836    0.7541555763813191    0.1192099417202681 O
   0.3932216803683251    0.4934809475484833    0.9116762738291579 O
   0.3540476254594080    0.4996152355862620    0.6885799774370017 O
   0.3945652898157736    0.4949796321804456    0.4995473206160938 O
   0.3570700003709199    0.2579649950103996    0.8921470637737957 O
   0.3521639030435827    0.5026211845164272    0.3119137737553594 O
   0.3633778479412485    0.5037633073277099    0.0791439471805465 O
   0.6337134075458246   -0.0053484518557813    0.1016008536234761 O
   0.6277594825742947    0.1215243460428101    0.4984090383609910 Sn
   0.6278925467867968    0.3793140884833909    0.2979266837543431 Sn
   0.3741164406242090    0.6249346688102045    0.7001336028763534 Sn
   0.6266017949503508    0.1246908642834438    0.9021216855440051 Sn
   0.3740575163904489    0.6285898823439754    0.1000603359292802 Sn
   0.1235555828965585    0.1256875095465139    0.3011288354132827 Sn
   0.3741515445672911    0.1235108703121427    0.6998325827256527 Sn
   0.1246064460604738    0.8736054666912921    0.0986465829580443 Sn
   0.1215021506506716    0.6264400439393095    0.4995411638448060 Sn
   0.6249453577147134    0.3789322815170049    0.9015872425976290 Sn
   0.3746876384566790    0.3799597737968959    0.0986366120528674 Sn
   0.6238509227924955    0.6222381643653913    0.6994002723515526 Sn
   0.1234303022782943    0.8712340138206124    0.6998735105173787 Sn
   0.8760496320424438    0.8763855067822508    0.2987007770723741 Sn
   0.6269305444069999    0.8721641706264177    0.9017641718072965 Sn
   0.8742376427174524    0.3753528557349193    0.6988591543296014 Sn
   0.5083816195361593    0.7487131035402610    0.1961762092992713 Sr
   0.2406676793287468    0.4999437432175466    0.0014961006225946 Sr
   0.2441918140476835    0.5065070877089783    0.1974930666541923 Sr
   0.2447198431156318    0.5058392823440488    0.4006750579432122 Sr
   0.2422782592315719    0.4994462598153936    0.6021520643602132 Sr
   0.2442107551627807    0.5020092560795286    0.7995845165126760 Sr
   0.2415784620883521    0.7472091281006012   -0.0038660835369408 Sr
   0.2486314326704123    0.7535479618724532    0.1993093710056264 Sr
   0.2515476678338415    0.7560980568045116    0.4045136273589123 Sr
   0.2461069311564012    0.7519696869379400    0.5965916191028461 Sr
   0.2400268013045642    0.7424774288989133    0.7973063502813602 Sr
   0.5012396177035489   -0.0090954280838058    0.0047763732118659 Sr
   0.4969330991769276   -0.0033273655837030    0.2016664003573431 Sr
   0.4920652323005834   -0.0093945415757843    0.3987253673678250 Sr
   0.4995550893449902   -0.0050380629565600    0.5951130704430949 Sr
   0.5009676970312109    0.0001012954609395    0.8003604474900162 Sr
   0.5008550907008611    0.2601975837722494    0.0022496593924963 Sr
   0.5010756190363844    0.2532803111045951    0.2001611099457172 Sr
   0.4971475048815471    0.2497782134378305    0.3978718279796006 Sr
   0.4970678423785067    0.2516655450092041    0.6002910576688411 Sr
   0.5028436170957472    0.2562110400772994    0.8022074213256272 Sr
   0.5072485432894553    0.5039857305724349    0.0031915942685707 Sr
   0.5117953850294238    0.5078728986071300    0.1964182526093443 Sr
   0.5033877911730233    0.5010810889555785    0.4014511408176336 Sr
   0.2517450615561879    0.2585094478932770    0.7989679312998139 Sr
   0.2516317229403657    0.2508869503539456    0.5976652415256527 Sr
   0.2514728347264488    0.2580145498129766    0.1995045612912032 Sr
   0.5008010745302347    0.4957028665388946    0.6017756079092079 Sr
  -0.0098004454761605    0.0017365277854505    0.2003009677398626 Sr
   0.0043789964988170   -0.0026367011094358    0.4025089064635509 Sr
   0.0017109730935687   -0.0047133700656091    0.5999464604521803 Sr
  -0.0063153242873846   -0.0018126527953025    0.7936709497516042 Sr
  -0.0000839559626712    0.2578002626702047    0.0080080769833218 Sr
  -0.0067011730155941    0.2574826046817700    0.2021668340531833 Sr
  -0.0042226453491628    0.2495900062293083    0.3964094614379797 Sr
   0.0001607788889104    0.2460510334727376    0.5988965086106967 Sr
  -0.0038475267073803    0.2474029368818880    0.7960456749462543 Sr
   0.0028353851586436    0.5029747789931159    0.0070786961820752 Sr
  -0.0009827967527963    0.5033647748866896    0.1955279902137906 Sr
  -0.0031771278512619    0.4987840159563413    0.4002473695577162 Sr
   0.0021823766353340    0.5005240703249236    0.6009792192594392 Sr
   0.0089139164718930    0.5037813120969902    0.7994181876464048 Sr
  -0.0019695652719890    0.7468057713124968    0.0054355900013058 Sr
  -0.0031189197323552    0.7460190715049453    0.1932516915609524 Sr
   0.0054507133637202    0.7481613621112384    0.3998207434246897 Sr
   0.0046621307218548    0.7481263516283957    0.6008567364984589 Sr
   0.0037318076904125    0.7472540106448599    0.7995232079051687 Sr
   0.2501455571247390    0.0017819335848279   -0.0011768372982451 Sr
   0.2558297241634043    0.0056767381103665    0.2075365378412961 Sr
   0.2560488072427772   -0.0061228856415269    0.4013047888191925 Sr
   0.2441406254087628   -0.0090307923363255    0.5912623535984463 Sr
   0.2472043950897770   -0.0055241509513657    0.7972271976291355 Sr
   0.2504610886479022    0.2603181870065151   -0.0015726846817262 Sr
   0.2523316689442298    0.2446843434913242    0.3969027298233875 Sr
   0.4996217316398729    0.4949949865901940    0.8033701865942700 Sr
  -0.0026484021232907   -0.0064161738076822    0.0037706790697824 Sr
   0.7513825594935355    0.5037051256611986    0.4033489902750094 Sr
   0.7498983712161464    0.7459081200213318    0.8012230894779181 Sr
   0.7513257552426842    0.7509138857065480    0.5976457218131241 Sr
   0.7467395705157193    0.7453314696902330    0.4054464259624320 Sr
   0.7509450317452262    0.7494669159016570    0.1903434050823697 Sr
   0.7482532367158616    0.7435018436395525    0.0073314436454312 Sr
   0.7433003127545722    0.4981490962574903    0.7999160750981578 Sr
   0.7493536206944443    0.4976190347060341    0.5998576434218987 Sr
   0.7498032111374555    0.5088555513961236    0.1951472004355655 Sr
   0.7459800868203087    0.5050044934906928    0.0086603791957305 Sr
   0.7555224532678101    0.2495840443505901    0.6028279849163843 Sr
   0.7484015851984395    0.2523612039124408    0.7983653332537840 Sr
   0.7575136513126010    0.2596199567376364    0.1995805177953626 Sr
   0.7505353565832534    0.2562784738648846    0.0034343056177284 Sr
   0.7598317238791419   -0.0050185525510602    0.7953763511095169 Sr
   0.7566182126625299   -0.0017778806336311    0.6044035235211385 Sr
   0.7530253961319723    0.0012648277002814    0.3973350894545180 Sr
   0.7518633889775956   -0.0017200764276726    0.1986533324167197 Sr
   0.7513862356676204   -0.0066971065824324    0.0054321247929914 Sr
   0.5087207191519718    0.7432097430067692    0.8030710800055675 Sr
   0.5017796245206458    0.7515313437055123    0.5940853726541317 Sr
   0.4975196513986873    0.7538566662667341    0.4006203295671827 Sr
   0.7565173489592401    0.2513231141395379    0.3966070994845129 Sr
   0.5101353342282904    0.7444835410158248    0.0033795513177108 Sr
   0.3757186111616334    0.8750105930646737    0.2957246709965970 Ti
   0.8728050067797546    0.3792696691830095    0.3008392362890126 Ti
   0.8784463901554598    0.3817838943629408    0.1021339446654052 Ti
   0.3701997483166799    0.8711149284491422    0.0992563026720243 Ti
   0.6229185944658471    0.8740356979261741    0.1004500900765431 Ti
   0.6261652507806205    0.8770858586152978    0.4990904542787297 Ti
   0.6271378752421803    0.6259788554446682    0.3040008502430627 Ti
   0.8765618746246415    0.3769573364383026    0.5001354268911088 Ti
   0.6283598199095670    0.3791165732688446    0.1008677693926235 Ti
   0.1213281802750769    0.8746948395195926    0.9009840604573092 Ti
   0.6257729508554301    0.6260764937881863    0.5026552208237977 Ti
   0.1226018036450175    0.3750659636945700    0.7001545575916442 Ti
   0.8742295957750096    0.6229005243109056    0.5003780669795030 Ti
   0.1229908822491516    0.6279712763362226    0.9034126284712179 Ti
   0.1268210957391495    0.1218079263734986    0.4978635657368694 Ti
   0.1224749989549476    0.6244966422098867    0.1041644482678049 Ti
   0.1255644103483536    0.1277752843192975    0.1022000460228218 Zr
   0.6269230746111739    0.8705313871931480    0.3000574029103184 Zr
   0.6250430047568309    0.3743135070579411    0.5013213847800185 Zr
   0.1236134723046620    0.1250964473095366    0.9005455967306689 Zr
   0.6256496371844856    0.1260584658071290    0.7002927753611964 Zr
   0.8755889378523950    0.1251676644834829    0.4987254486537129 Zr
   0.1264270778478341    0.8732342166541892    0.3006638514696600 Zr
   0.8765257408842647    0.6270295350714227    0.2992704031214160 Zr
   0.3747170157386888    0.6213625739713045    0.9012870703223153 Zr
   0.8732341815692338    0.6223724595655016    0.9029794506400732 Zr
   0.3766071550399657    0.6234309532001491    0.4999843054164930 Zr
   0.3749260452598211    0.3774509959638498    0.3016131111664107 Zr
   0.3752436674362599    0.1280172289165606    0.9019346813823429 Zr
   0.3738952486451329    0.1251788959366430    0.4973432922425405 Zr
   0.3742244047977096    0.8724225645642490    0.9005832177998836 Zr
   0.1265361864317450    0.3723206191266918    0.4995435115736442 Zr
