Na100 Ti20 Mn25 Cu13 Ni20 Sn22 O200
1.0
   7.7643511796291209  -13.4551629321774850   -0.0192981819854225
   7.7584238797109881   13.4517438753578009    0.0114457253779425
  -0.0113128397162451    0.0256482906368609   21.9771144665318126
Cu Mn Na Ni O Sn Ti
13 25 100 20 200 22 20
direct
   0.3929081862413292    0.3955530707391174   -0.0003666214058247 Cu
  -0.0053286561342562    0.0020115085941992    0.5007691679070505 Cu
  -0.0038848933731792    0.1937482967720215    0.0012717697259580 Cu
   0.1929091323599789    0.0010953808406313    0.4996772715266210 Cu
   0.1949967276117365    0.3964843516687131    0.5019403366521530 Cu
   0.3937074128504680    0.6031594047338767    0.7501093087835462 Cu
   0.3936331480397560   -0.0134666525072116   -0.0019513902512756 Cu
   0.4237640977779037    0.6076883657115457    0.2498332619402096 Cu
   0.7957579400065812    0.5892404826733776    0.7478658260552076 Cu
   0.3824339411024923    0.1932070132829946    0.2470774672125045 Cu
   0.2021307703465566    0.1882406311796609    0.2548845660912629 Cu
   0.0029054933050626   -0.0011536594226711    0.2552559277746893 Cu
   0.4023108554656799    0.2025627503503253    0.7501358425669199 Cu
   0.7987378634292779    0.0043627826026244    0.7502601974336108 Mn
   0.3984419394720625   -0.0002221492855748    0.2482888451766808 Mn
   0.3927488692183219    0.7944322371945807    0.7505195444996189 Mn
   0.1962253068692048    0.0004594432831666    0.2483581569984269 Mn
   0.6067057956815665    0.6082516918605435    0.2513293142346017 Mn
   0.0008256559114320    0.3972944798141216    0.7490617682921774 Mn
   0.5932076835493231    0.7973180188794413    0.7475566863317442 Mn
  -0.0083279730201909    0.0034203001014629    0.7465990026305037 Mn
   0.7985692161777475    0.7973527439101917    0.4965404436479189 Mn
  -0.0013673488244364    0.8067997469873258    0.2489168013108732 Mn
  -0.0044925960443537    0.0009633293999196    0.0020986381192586 Mn
   0.7991693926041783    0.2036434546366309    0.7499363682715811 Mn
   0.8015647232505663    0.3999691695939628   -0.0022147468821030 Mn
   0.7989529092845713    0.1984962273683598    0.5015396175328273 Mn
   0.8032369222616713    0.1992390633463853   -0.0022689790866379 Mn
   0.6060648849157525    0.8071497389986571    0.4998898524333187 Mn
   0.6049865682706563    0.6002010995775490    0.5025273046641650 Mn
   0.7953832252499183    0.5939137596456936    0.4994452825239009 Mn
   0.3986548812129813    0.7988199439899610    0.0007965414453831 Mn
   0.4000112875797206    0.5940008893739296    0.0005038099841877 Mn
   0.2032422080046027    0.8017116862303763    0.4990019417587158 Mn
   0.1993997718139945    0.7961437538557377   -0.0020547343196617 Mn
   0.1911388502455893    0.2007791227807416    0.5016172822214380 Mn
   0.2004154849174214   -0.0027043815406626   -0.0015109776612565 Mn
   0.6042858068964795    0.2029250607007924    0.5029132452451672 Mn
   0.6707491307660038    0.3365845474041727    0.3870556221303134 Na
   0.6655810041773357    0.1352448301855330    0.8744781702094108 Na
   0.6649225181936563    0.1321322769245061    0.3824588361238401 Na
   0.4566843862211274    0.9297288123883161    0.8782133537835891 Na
   0.4667426262239093    0.9373447340265737    0.3738425879484087 Na
   0.4611814888849428    0.5311579738841269    0.8780873882278363 Na
   0.4735909676777892    0.7361424041055247    0.3704827078511496 Na
   0.4734028519680872    0.5368634707801812    0.3709145139122785 Na
   0.4623658922185142    0.3320256460909645    0.8747153181258522 Na
   0.4638118058665556    0.3308702539489682    0.3746970526470122 Na
   0.6691724242950845    0.3309795878667163    0.8734101242467515 Na
   0.4665640073608305    0.1386839106272220    0.8717543276797634 Na
   0.4627713801074163    0.7314484294538494    0.8718107844234013 Na
   0.6653426476480864    0.5359736408246019    0.3790446207761223 Na
   0.8708244157097698    0.3359167283497376    0.3815340928349066 Na
   0.6750325454929177    0.7391126397274376    0.3744077451772279 Na
   0.6694101922624964    0.7327403855118793    0.8754251663976143 Na
   0.6672060487294200    0.9387939594517631    0.3826134281452204 Na
   0.6685968355943994    0.9327064002007728    0.8758717991015669 Na
   0.8676885498681634    0.1360229863662980    0.3879253165265071 Na
   0.8633320248743028    0.1327991896084778    0.8765877709927437 Na
   0.8646626677379391    0.3371986110299082    0.8687119591599977 Na
   0.8637270952528153    0.5331054539160174    0.3794300095105374 Na
   0.8635695995372026    0.5301251016580817    0.8699669839014020 Na
   0.8626034479158188    0.7294971364729629    0.3682943562103049 Na
   0.8632644452132848    0.7276162815970295    0.8724955826809729 Na
   0.8683804489809310    0.9344705902581752    0.3811358955197044 Na
   0.8643895980249806    0.9324017917361951    0.8782625045729127 Na
   0.4650335105067518    0.1360359067854388    0.3724136159680381 Na
   0.6682653095885648    0.5325492450127275    0.8719130110665976 Na
   0.2602752532006865    0.9331164456479629    0.8769822109028675 Na
   0.1277639799920283    0.0574112898610221    0.1300467286194857 Na
   0.2621127903758469    0.7326888731054695    0.8704438929601594 Na
   0.5258369788744292    0.2657378487813017    0.1249108114547409 Na
   0.1339469143171597    0.2682228365234863    0.1248953336469304 Na
   0.5305643221953157    0.2623999810730763    0.6262757194508580 Na
   0.5309772313763370    0.4657651501254796    0.1283407256254860 Na
   0.2647006882980876    0.9371176694293658    0.3755031917007707 Na
   0.5315206701200332    0.4591343945914354    0.6225869737076383 Na
   0.1295240008122744    0.2763640602452391    0.6250234808006198 Na
   0.1228219873006579    0.0633296563990525    0.6180213272961781 Na
   0.5332588861714432    0.6650524148377910    0.6240646531151045 Na
   0.5387583281680127    0.8627190709255309    0.1284691293565730 Na
   0.5335316354758101    0.8690435092959328    0.6232810633718675 Na
   0.7372360763253268    0.0668202531186130    0.1205853948299658 Na
   0.7303611492391966    0.0662406923791829    0.6200933265693996 Na
   0.7358626358084365    0.2684151584973626    0.1188594763956819 Na
   0.5415346328507062    0.6724600812647040    0.1332721633461424 Na
   0.7356668006806015    0.2678661257022878    0.6253027745489497 Na
   0.5309611997998346    0.0683244686823051    0.6238165491934532 Na
   0.5286721748784908    0.0629747456785206    0.1234029228317507 Na
   0.1345309242157249    0.8654396874913942    0.6212573622950871 Na
   0.3332854003551627    0.0609179139357946    0.1238616732731137 Na
   0.1398353341921636    0.6656762854249176    0.6258996920807263 Na
   0.3224124144953650    0.0662795431390677    0.6235999116895882 Na
   0.3279756817885842    0.2633340361714506    0.1313341827536261 Na
   0.3277493146968493    0.2644697171064446    0.6254986988214676 Na
   0.1333340705402469    0.4674470291377968    0.1216616106785497 Na
   0.3420662105552656    0.4702439731196205    0.1202869145082056 Na
   0.3437859900249154    0.6652450772052702    0.1274949842863732 Na
   0.3347287414223699    0.6680417828240767    0.6311054688839078 Na
   0.1381004107993492    0.6630823022456948    0.1209707335805161 Na
   0.1351890577687965    0.4697633674761676    0.6277037762613532 Na
   0.3430291140404455    0.8633335496455261    0.1189392915033835 Na
   0.3300308940000092    0.8652387424961790    0.6252034866123776 Na
   0.3262592800545942    0.4678137342590434    0.6281437681120580 Na
   0.7370365460996784    0.4738898519959304    0.1229995774910336 Na
   0.1374406573805202    0.8641388113856260    0.1208811564001951 Na
   0.9291202279827194    0.6601001666849874    0.6254402142335826 Na
   0.7323726029960059    0.8653866675387100    0.6180331730094069 Na
   0.9372323680926007    0.0682751060945625    0.1222296327844179 Na
   0.9310806690077351    0.0698035714491815    0.6186287510177035 Na
   0.0728901562933896    0.5350031728721770    0.3812697185952700 Na
   0.0649577688646642    0.3311151048336789    0.8724714858461698 Na
   0.0757945092703853    0.3360665464365363    0.3829390731489123 Na
   0.9299265913382646    0.8665318742046598    0.6199233541923049 Na
   0.9344043838407774    0.2652885466069896    0.1192188666845538 Na
   0.9325292150095650    0.4660666200050530    0.1207673065759103 Na
   0.0565035175847932    0.1332752485378484    0.8759986474629944 Na
   0.9309290376864511    0.4602133840500353    0.6241276852164686 Na
   0.9390973953933078    0.6744786634246144    0.1233232809191186 Na
   0.7325964942485851    0.4628964674295796    0.6214484301817229 Na
   0.9340681360261905    0.8699270328851658    0.1284853374700772 Na
   0.9297793445984840    0.2625883809989596    0.6277374125776637 Na
   0.0701888050255694    0.7353157512036548    0.3737962597456702 Na
   0.0698619441450417    0.5322955293090368    0.8733126068440662 Na
   0.7361111991740336    0.6592249482504638    0.6221588012821568 Na
   0.2711106921086251    0.7372510184011013    0.3799761309406500 Na
   0.2641679482533280    0.5301891155733123    0.8682447648951832 Na
   0.2686528407739465    0.5321807193403150    0.3820783207209635 Na
   0.2611227743018009    0.3340354315155185    0.8788476651978959 Na
   0.2674359347827656    0.3309281648229541    0.3759582939763056 Na
   0.2617923741279670    0.1329602832497884    0.8724793607477827 Na
   0.7424729897823859    0.8701930328091353    0.1254630780615928 Na
   0.2608807784681559    0.1319992869189667    0.3722988013139724 Na
   0.0604645941416501    0.9337493615507867    0.3767858204206659 Na
   0.7388666402756049    0.6725543285266459    0.1289481559651617 Na
   0.0701881011752483    0.7328515560228580    0.8748692799360674 Na
   0.0620875097251057    0.9378488303551988    0.8738236226522517 Na
   0.0623816200348689    0.1281434992245808    0.3798694266086461 Na
   0.1986628278998532    0.3987192997425544    0.0006209713030497 Ni
  -0.0019758740458420    0.1963579318299841    0.5017075364067818 Ni
   0.2018563684839582    0.6007878746542896    0.5022849059177396 Ni
   0.7998542042595295    0.0014079843163638    0.4997873926237784 Ni
   0.6026223247460847    0.4012765844871788    0.5025569223991759 Ni
   0.8051811978649202    0.0023033390166256    0.0006172306367830 Ni
   0.8030132605584729    0.8006660882857733    0.2502847912174041 Ni
   0.6032494158706641    0.0054459640941903    0.5021748254485131 Ni
   0.4021802208905673    0.3993416869822367    0.2521473186097590 Ni
   0.8031003620683217    0.3972157773189108    0.7482266900974448 Ni
   0.7987763978269161    0.3958927782433176    0.4997761527181308 Ni
   0.6049238083607847    0.7965426056367582    0.2502246667593936 Ni
   0.8051181800723630    0.8023766570967679   -0.0005950640496413 Ni
   0.6017724950668045    0.2013906897582846    0.7501398204773870 Ni
   0.2019632368171438    0.5990191200565541    0.7509233106254878 Ni
   0.8009927446448055    0.6095040391573416    0.2483725640208653 Ni
   0.4066052746333553    0.7983153617661833    0.2509229357569584 Ni
   0.1953879067176618    0.4045259682238932    0.7515711458121417 Ni
   0.2014365979315446    0.7989541337232628    0.7503528596015991 Ni
  -0.0069685297924822    0.2026271086400908    0.7498316122444740 Ni
   0.5406326832938375    0.8741125696069636    0.9488945767043793 O
   0.7339931779861540    0.4734434989507800    0.9499854471792557 O
   0.7200066090789832    0.0599804799963999    0.9526235699396984 O
   0.3200218681447565    0.6559092494514837    0.9466358273005048 O
   0.7338266629694856    0.4724706793340891    0.4507132511463607 O
   0.3402930306212801    0.6741632009839221    0.4487765166569616 O
   0.7415793403193056    0.2648199554689281    0.4489093826499465 O
   0.7337963777793709    0.0748094789051077    0.4521534402423846 O
   0.5201233584357917    0.8666126351110874    0.4469041342618439 O
   0.5383642069702856    0.6692445796885012    0.4557149156478759 O
   0.5459664583226528    0.6656383655984339    0.9488847059140534 O
   0.5473846692900359    0.4810254224887200    0.9496013887908785 O
   0.3183321929054101    0.8532741586493423    0.9467713441617895 O
   0.3323690404906625    0.4591304080374478    0.9522601987834814 O
   0.5259854743924934    0.0707330271991477    0.4541834289705259 O
   0.5276417828597576    0.4687825225876498    0.4549445258848844 O
   0.5309148059169638    0.2669625209955696    0.9484018016777526 O
   0.5318274438728660    0.2629939324838886    0.4528675665337960 O
   0.5333484006293399    0.0659977281762567    0.9546267255466789 O
   0.3471871961880121    0.8779953491275417    0.4476399995669113 O
   0.7127206230024209    0.2573443348546929    0.9499223101053560 O
   0.9270818356789581    0.8595020517922909    0.8012446528049505 O
   0.3281273066625185    0.2530974214611597    0.9481540706359884 O
   0.9323634314291597    0.2753824198781268    0.7973944739025112 O
   0.9384049204707381    0.2777375334985636    0.2988845147609042 O
   0.9186565882309687    0.0625716479987012    0.8011592193353838 O
   0.9183320613404138    0.0782641517502241    0.3070425699592002 O
   0.7237940587374948    0.8585834058403952    0.7964541398562404 O
   0.7403118764818616    0.8788915728474566    0.3041793005725968 O
   0.9380164748300116    0.4680061132610265    0.2997238252580982 O
   0.7296173002061656    0.6665876021099462    0.8000147505056514 O
   0.7229717615040653    0.4558896406856149    0.8012367076263820 O
   0.7386589504085082    0.4681102614764192    0.3011837485762472 O
   0.7365334415253230    0.2642670216466840    0.7975810131133576 O
   0.7388733356339423    0.2695382490069321    0.3009930214031863 O
   0.7219911219855472    0.0607543257417518    0.8083968673509996 O
   0.7324726268357563    0.0698197852074255    0.3008241355679442 O
   0.7310949019521726    0.6650899772640053    0.2986900507474884 O
   0.9378330844858574    0.4645925721277325    0.8005494035460419 O
   0.9411740364377452    0.6713801889371239    0.2973708765935887 O
   0.9411500756045256    0.6701169686817825    0.8033010019697827 O
   0.3378295196302490    0.2737935338280276    0.4484003402877186 O
   0.3394524515408751    0.0812085732296011    0.9438347485164882 O
   0.3411916185149039    0.0685010548270623    0.4473184087107234 O
   0.1162988953277210    0.8589052283793908    0.9439779485120074 O
   0.1331110457313033    0.8587083631663874    0.4484135045545926 O
   0.1313559100125969    0.6642874990634074    0.9533546114246302 O
   0.1377395531823327    0.6725343741967962    0.4508326316247396 O
   0.1299544904735885    0.4725344868400159    0.9537294374579223 O
   0.1305427057807781    0.4640660287457901    0.4540257683352409 O
   0.1257770993448095    0.2624012996463336    0.9525401556181697 O
   0.1373746636958837    0.2607273359429269    0.4502376885196646 O
   0.1238241293898205    0.0654463620205134    0.9523712511930532 O
   0.1334362865045922    0.0769727436574380    0.4562169511852321 O
   0.7416549316341103    0.6676296925123313    0.4491943279163321 O
   0.9321143372409745    0.8719938489641604    0.3020641073474189 O
   0.3512275984313065    0.4739888581835605    0.4460185830988693 O
   0.7395160679465019    0.6615133209725033    0.9506789865881756 O
   0.2730164758081209    0.5420344924243844    0.5531824065435748 O
   0.7324523353379354    0.8649420752128132    0.9479059230330850 O
   0.4473851098612663    0.1205778212258071    0.5535573334214229 O
   0.4653164423253534    0.3361751034385476    0.0473110861650721 O
   0.4586801179081940    0.3331616167385553    0.5511821336584283 O
   0.4929962376828857    0.5501004852566157    0.0566001239627197 O
   0.4522849721987413    0.5228675857919644    0.5539766682523990 O
   0.4765460640770486    0.7346209513834476    0.0512500774560204 O
   0.4698762295983544    0.7430079121226647    0.5480200360475849 O
   0.4849700667125906    0.9369583276028091    0.0537998021431453 O
   0.4587540052800698    0.9310493937855177    0.5490791340433456 O
   0.6552133566759935    0.1329766676476557    0.0510406526917148 O
   0.6558910363009750    0.1358573181070497    0.5539815571110197 O
   0.6594878268221408    0.3286043511670813    0.0515527866216896 O
   0.6628982784804746    0.3255049142905586    0.5509037383776957 O
   0.6733418346542770    0.5384566383324320    0.0502591034417530 O
   0.6571456722770999    0.5317364061042401    0.5526855720909314 O
   0.6728500781490113    0.7309981104299950    0.0494268444600591 O
   0.6736117814038137    0.7258578343908604    0.5493620434852746 O
   0.6660304796304150    0.9355058754114993    0.0519307616984839 O
   0.6605170761077684    0.9272942794665248    0.5496190121933541 O
   0.8717140303940681    0.1340546415762289    0.0497839103019565 O
   0.8621818122768236    0.1374879246081382    0.5501255005248289 O
   0.8789816933687057    0.3418992644499165    0.0493705445746115 O
   0.8728033463614587    0.3319222426346472    0.5470264465864737 O
   0.8763691007076539    0.5463797529463145    0.0485623345611733 O
   0.8648761015515165    0.5320601752640998    0.5485256713327515 O
   0.8702105015579162    0.7267883049244694    0.0472841482655142 O
   0.8665691604943139    0.7184646168801172    0.5497438649266727 O
   0.4707345022645308    0.1479569510063459    0.0472781947957402 O
   0.7217264429782251    0.8646625788909931    0.4478635317137077 O
   0.2699141592592942    0.9310831858248733    0.5447433964533236 O
   0.2747252335504918    0.7449784918911274    0.5450913818149449 O
   0.9344249183253088    0.0662399265342783    0.4518743530043375 O
   0.9341005698378394    0.0598780213635645    0.9501914648364967 O
   0.9480436355263385    0.2802874701158648    0.4478739209771344 O
   0.9363336092964307    0.2909954913208828    0.9419260099002134 O
   0.9397029155678925    0.4676999327717032    0.4476371036705155 O
   0.9439677508010283    0.4822619622798865    0.9478239213089725 O
   0.9435273356813632    0.6667238433831529    0.4441773530734456 O
   0.9287810086309123    0.6618109040632516    0.9488603624923575 O
   0.9219594181376536    0.8482115393152834    0.4446885924042556 O
   0.9331303412794092    0.8532032078667308    0.9464833457420058 O
   0.0788818528924567    0.1309956956941410    0.0619781592724372 O
   0.0812731185503224    0.1526406104737311    0.5540328416983743 O
   0.0617923483052873    0.3426358269922289    0.0495462423155479 O
   0.0564355740093720    0.3359404724826469    0.5562601638685292 O
   0.0601454576256372    0.5366747843337640    0.0497658330723560 O
   0.0654850687432348    0.5308553934099095    0.5527666559921981 O
   0.0664593141065213    0.7330849280494754    0.0434291119786590 O
   0.0606147966564759    0.7280019780245711    0.5542859440814857 O
   0.0551776732838915    0.9192551712355704    0.0486528635303930 O
   0.0570456204008731    0.9275922629497012    0.5497164789441717 O
   0.2796826084232234    0.1390756094210895    0.0507220610148192 O
   0.2641745940862628    0.1443439609930657    0.5495156220795361 O
   0.2617089731758457    0.3304035039767935    0.0554335506775683 O
   0.2696995052514495    0.3341997766681042    0.5444873775369768 O
   0.2597739212343586    0.5347474677229807    0.0523738338697428 O
   0.5208635741719663    0.8660917593340286    0.8024003534012725 O
   0.2610761830065881    0.7143759424713337    0.0529736724130664 O
   0.2652313904528489    0.9217201149734808    0.0453821457212074 O
   0.5411333730765021    0.8750686138968848    0.3036744827505342 O
   0.6676345628202616    0.5300616046342849    0.1992563253667463 O
   0.5479247585629619    0.6729567765048530    0.3050826969425970 O
   0.2617432623214732    0.9404746373044012    0.6974284661852636 O
   0.4742070036602884    0.1365447146822301    0.1951154436817279 O
   0.4649442576137065    0.1311739215931542    0.6989034654351783 O
   0.4682500132936602    0.3306336662656513    0.2006253137176946 O
   0.4675228906076419    0.3324726031369494    0.7031543678148889 O
   0.4803285387788517    0.5343468132100104    0.2037666722878156 O
   0.4679506120366238    0.5238191898854703    0.6945869218513617 O
   0.2720721693989812    0.9198311997507905    0.1889235573164720 O
   0.4702332755736878    0.7362928868922206    0.2018417474381197 O
   0.4854154199277135    0.9375240694523430    0.2004333060112490 O
   0.4627825286557257    0.9331213340681950    0.6994960915277301 O
   0.6727106474064771    0.1401783250437538    0.1967979374594447 O
   0.6648538092084001    0.1303018053207868    0.7007628643097137 O
   0.6699478540212959    0.3350349885911229    0.1977978514393806 O
   0.6631605810033696    0.3346913423747172    0.6974814457007029 O
   0.6547576791094103    0.5182656712606725    0.7004483261406179 O
   0.4803168495511470    0.7423346671328364    0.6952803811203552 O
   0.6776835965299219    0.7452890266775685    0.1965799300837163 O
   0.2725771719958948    0.7394706841159715    0.7001852764741207 O
   0.5329922865143221    0.6676789272984879    0.7957366275903793 O
   0.8733868834705008    0.9331292589586665    0.0504538030206332 O
   0.0688651870745722    0.1342349732856133    0.2059813215212108 O
   0.0620533767891529    0.1397150544991493    0.6955600335439509 O
   0.0621761750216750    0.3374514026970321    0.1994086219533236 O
   0.0603784413054072    0.3389958367643939    0.7017799397794990 O
   0.0591606847230863    0.5228928046130000    0.1983774244784852 O
   0.0636120337831199    0.5258481685500570    0.6999014351962234 O
   0.2648249791820321    0.7190393377868476    0.2005307744084128 O
   0.0758978750373600    0.7249590771538545    0.1920904507225351 O
   0.0736907858122060    0.9220401799781572    0.1965080532436685 O
   0.0701769958774233    0.9309566034084682    0.6974466372380290 O
   0.2559914472483022    0.1141096316984277    0.1935479287230115 O
   0.2421720795267004    0.1197165320357506    0.6948093603257773 O
   0.2694388393938767    0.3521606985747495    0.1964341899901421 O
   0.2647672419272581    0.3309498896241301    0.6962600434024397 O
   0.2497544613655479    0.5263363765866926    0.2023269512331557 O
   0.0660037306629505    0.7321067553046396    0.6975044383512987 O
   0.6675184552953197    0.7228167562744207    0.6926865360270089 O
   0.2683621782856069    0.5354325609574586    0.7021510428025340 O
   0.6636625839538481    0.9315786122879420    0.7024723239724470 O
   0.3227927864182050    0.0672772006238636    0.7969354818665398 O
   0.3271555139498660    0.2663309020678399    0.2994942137901836 O
   0.3246422006248679    0.2630226871996152    0.8002081002481345 O
   0.3273136394307187    0.4654171327532057    0.3027962232209491 O
   0.3312153275982808    0.4593624024634296    0.8036771877587802 O
   0.3233854092249132    0.6617873902748108    0.3063240635587464 O
   0.3334721958232134    0.6761081417348600    0.8020797778298026 O
   0.3219100861196034    0.0615539423361176    0.2972877112508609 O
   0.3321957806084004    0.8592973387087668    0.3017117819347396 O
   0.5455217260144952    0.0677637347170494    0.3011454639759926 O
   0.5273773864621030    0.0656269724251572    0.8040581660237116 O
   0.5546341192132600    0.2740828428506217    0.3072897017997853 O
   0.5441898574864243    0.2779533420011602    0.8034153284088821 O
   0.5334533056699416    0.4604480615749562    0.3083317922447595 O
   0.5297102489577168    0.4668523674744731    0.8046508728571224 O
   0.6774757513913866    0.9476639839040253    0.2042055893057739 O
   0.3278873436466625    0.8764779002491451    0.8032927421973611 O
   0.1323150094124707    0.8750765493395902    0.7987863750047868 O
   0.8628071764692516    0.9228204211466901    0.5445994848667285 O
   0.1302814412046069    0.6668686910593253    0.8015146739109194 O
   0.1339595829306105    0.8629063608198188    0.2954517047290448 O
   0.8737073819646783    0.1412385756090580    0.1980183495733462 O
   0.8684677551278597    0.3358345932698595    0.1993786192109945 O
   0.8782834956458176    0.3413362907048816    0.6987039021737299 O
   0.8702293332872655    0.5327184753829880    0.1957216502634980 O
   0.8704832128607214    0.5322418980359701    0.6983466649604166 O
   0.8777341465821673    0.7400251637543660    0.1981852378838202 O
   0.8716175630140741    0.7397279855655527    0.6953801237419430 O
   0.8538320838289254    0.1319528811762863    0.7029223438642923 O
   0.8583633656848549    0.9251968431093048    0.6924359551711424 O
   0.1240334990245579    0.0597082089504998    0.3065413237027247 O
   0.1349583484815920    0.0642066323160278    0.7994955239082152 O
   0.1341522527651979    0.2884240159241898    0.3020915791876967 O
   0.1290988168354826    0.2634992292766841    0.8029773788635441 O
   0.1284948892473665    0.4718280329990914    0.3001554429806734 O
   0.1361132655518651    0.6628712242022821    0.2986441750047337 O
   0.1216038094355962    0.4606370830786326    0.8005263533131692 O
   0.8675160227609536    0.9480007764330850    0.2030867683552914 O
   0.8018544537206450    0.1976657664870354    0.2496875867239792 Sn
   0.5964515325483133    0.5943003321683148    0.7481149224445961 Sn
   0.5954021828599265    0.4029020311231967    0.2529795515307406 Sn
   0.5949078372540263    0.1956272882743397    0.2498475457764777 Sn
   0.5986526221518587    0.0005450898339604    0.7531436291116478 Sn
   0.3954643257370987    0.3982404468126706    0.7508756308820556 Sn
   0.0004461584148502    0.7985814343006544    0.7492085564935280 Sn
   0.2081585357249764    0.8034141043563130    0.2469392480027112 Sn
   0.1883470687933285    0.1996851811233577    0.7486585010585280 Sn
   0.0015239469299212    0.5953540173000325    0.7496729199451996 Sn
   0.0025094758700009    0.6040920419597509    0.2479825198466109 Sn
   0.0056934031167197    0.2001651362875077    0.2530278852579315 Sn
   0.8027315942528523    0.4047569684540773    0.2497948651086848 Sn
   0.3952078861658259    0.0019887360332564    0.7497988899080681 Sn
   0.7974282660009835    0.7993027971811937    0.7458121145216493 Sn
   0.1964654061452603    0.2010062645208392    0.0032366770082192 Sn
   0.5989174380196147    0.4001546847941328   -0.0002231628724795 Sn
   0.0004639526552151    0.5948311324244936    0.5005931047332892 Sn
  -0.0024028541798931    0.7982201928713101    0.4982877516872470 Sn
   0.6062527265656845    0.8016906438101636    0.0010376963497705 Sn
   0.3974083577371352    0.2014496018172359    0.5000100848852251 Sn
   0.3995585789698671    0.6030194381051212    0.5010370440292952 Sn
   0.8096544813927324    0.6112122994592898   -0.0038915195545027 Ti
   0.0183616188380187    0.4084430028647086    0.2491598092666784 Ti
   0.5973661155677626    0.5984008135127044    0.0041702949938131 Ti
   0.5983045877137279    0.1918447609248618    0.0004836843809429 Ti
   0.1960231471241856    0.0037332018864899    0.7459856780735303 Ti
   0.5973649626293651   -0.0037245280227238   -0.0000903952334093 Ti
   0.2228986084006735    0.4055307271491631    0.2507758027055687 Ti
   0.2217283885601317    0.6063068082874917    0.2540139163755969 Ti
   0.0029662339421606    0.3878351708122930    0.5024104898626306 Ti
   0.0022352346777002    0.5940846645598771    0.0004678459981166 Ti
   0.5940038695122429   -0.0175716063057524    0.2524863413990582 Ti
   0.3929562411193270    0.1887427719624150   -0.0034709259058077 Ti
   0.3995464755447389    0.0037002033942040    0.4982641202245453 Ti
   0.6098721154316781    0.3885476861239209    0.7503477625032017 Ti
   0.2132597723996104    0.6010108200955138   -0.0004459451838843 Ti
   0.8015668377415252   -0.0124766918324655    0.2555725645385072 Ti
   0.0045028396565429    0.8103723940897378   -0.0049019745232993 Ti
  -0.0000967610289582    0.3908559524064106   -0.0017746234340740 Ti
   0.4076629584214501    0.8128004759349462    0.4976897915931620 Ti
   0.4008204067825382    0.4060260266431567    0.4994668811593263 Ti
