Na100 Mg4 Mn20 Fe20 Co20 Cu10 Ni10 Sn16 O200
1.0
   7.6611175406422314  -13.2732885413592090    0.0054273067747100
   7.6533880231163787   13.2688270846762713   -0.0066217777550036
  -0.0017168426800407   -0.0100698951631882   21.8122963325988195
Co Cu Fe Mg Mn Na Ni O Sn
20 10 20 4 20 100 10 200 16
direct
   0.7975187534752448    0.1959906444299406    0.2522416554998982 Co
   0.4021288967441063    0.8037485242821899    0.2498821798259142 Co
   0.3970665173891745    0.7978631262183039    0.7491904755427384 Co
   0.3994803605915251    0.3981498288329379    0.2510858731169473 Co
   0.8033522358034461    0.0011051141604237    0.7457092332361958 Co
   0.1971343888269512    0.7953893934439956    0.7476009984046835 Co
   0.7981297062765650    0.6015588469848875    0.7475837302358428 Co
   0.8054460965567956    0.8053740382306910    0.2507564983570810 Co
   0.8001947542696604    0.8020567792516812    0.7476332575456565 Co
   0.0052455829987353    0.8009216928381865    0.0006697346799033 Co
   0.2009750432611493    0.8035484852853452   -0.0013054997611342 Co
   0.1984764575348925    0.8000796618396598    0.4986498049838040 Co
   0.3991956237649691    0.0011481927177151    0.0013713214191346 Co
   0.1983492732797011    0.2012930410377117    0.7502140360267021 Co
   0.1970916216862918    0.1927779395520648    0.5014420914804470 Co
   0.7971440304749904    0.3948059435076078    0.4997133535400839 Co
   0.5984108126434191    0.0002705053663791    0.4997134420441239 Co
  -0.0043279620389434   -0.0000206941191817    0.7473595363709905 Co
   0.0000715045519977    0.8005627371694626    0.2510464789243201 Co
   0.5989508856647879    0.3962261504171748    0.4995914204518570 Co
   0.1978936892827256    0.8023718251313362    0.2504612173851546 Cu
   0.5960686902820744    0.0007635895068601    0.0010728612587084 Cu
   0.8039977385392088    0.6027215047684121    0.2488028138174629 Cu
   0.4012281924547738    0.2003043083787774    0.0016758767976715 Cu
   0.6019181790328348    0.3993895388905970    0.2505110098015545 Cu
   0.6011278087001858    0.4006614495954419   -0.0004242735693239 Cu
   0.2016359808950243    0.6038260578224716    0.7496750084187219 Cu
   0.6030507771968922    0.7994476203199070    0.7479836091773868 Cu
   0.3987027527215780   -0.0042628196478074    0.2503910670439997 Cu
   0.2003227701075506   -0.0007682929766167    0.4989642311348639 Cu
   0.7976057764368172    0.4024769948353424    0.2512653920437756 Fe
   0.6017396451765700    0.8053651908476356    0.2507825607073808 Fe
   0.6009042607041749    0.8028372146446109    0.4973002532602032 Fe
   0.3958592122094804    0.2018243898773253    0.7525694521700127 Fe
   0.6000880561286128    0.0004030793337296    0.2517100617528023 Fe
   0.0030888114846988    0.0037525415563994    0.2512632412511173 Fe
   0.8030104769620940    0.0029768195731060    0.2519928148156689 Fe
   0.0008500721959845    0.6041422834212075    0.7505604119763866 Fe
   0.3981481607714117    0.8021380049405823    0.4997271755749659 Fe
   0.0046652495547720    0.4049843169927809    0.0016726296012394 Fe
  -0.0055647715262529    0.7971333615747465    0.7487632724742139 Fe
   0.1953287575065408   -0.0039651653723425    0.2512411894051486 Fe
   0.2032593483171357    0.3934342425844909    0.2509362603837390 Fe
   0.5953964910007088    0.2004776803051745    0.0043799620255390 Fe
   0.1959020866853965    0.6016473067002629    0.5016765214279952 Fe
   0.6008696394238906    0.5931007981607948   -0.0020368086783479 Fe
   0.1969738438409418    0.6003336548341517   -0.0002835787355371 Fe
   0.4009231962728304    0.5996462221185904    0.2509828037197015 Fe
   0.2002388934520065   -0.0002838879024448    0.0003536453985006 Fe
   0.0012447673670629    0.6020733638080034    0.0010757935661875 Fe
   0.3977760019078639   -0.0022100262610427    0.4990436631520885 Mg
   0.8017090545954966    0.0015945086475458   -0.0002957615548072 Mg
   0.2022764442928427    0.3981216849783067    0.0002773822772386 Mg
   0.3997997331991991    0.3967536319688356    0.7516240931819592 Mg
   0.3950411672872770   -0.0056922179245883    0.7495141902151001 Mn
  -0.0019634300791096    0.1972593725376419    0.7472193320508758 Mn
   0.2015648498344962    0.3967242691114135    0.7484122378875129 Mn
   0.8038459338013503    0.8048091434034776    0.4979260444837340 Mn
   0.5973952630241340    0.4015480331406852    0.7481119871813401 Mn
   0.8011309907747028    0.5981435381146333   -0.0009169005364239 Mn
   0.6009601240695632    0.1977127105100883    0.2531567502390772 Mn
   0.7987468681662434    0.0011521563423682    0.4983241830984184 Mn
   0.6003015129840795    0.6028407549465773    0.4986638385010638 Mn
   0.5986551729144759    0.1978629790165408    0.4996252602902483 Mn
   0.3945795359517642    0.8013353831750406   -0.0020335559300553 Mn
   0.3984999991473644    0.6012045119982152    0.5002059032513477 Mn
   0.8011593792801351    0.4045091634642121    0.0018273926603657 Mn
   0.4009593601976054    0.1999627667846553    0.5013518722464759 Mn
   0.2064664505438712    0.2014614868701306    0.0001153797059632 Mn
   0.0044703241680494    0.8016434943122723    0.4995093496494531 Mn
  -0.0069840496540130    0.3967579804247396    0.5000277946402448 Mn
   0.7989896064769388    0.4036448134457637    0.7499276823355776 Mn
   0.6037010815782219    0.6004757794670603    0.7477628227127670 Mn
   0.4026428700998679    0.4002681216792144    0.5014193684120878 Mn
   0.6694841643823560    0.9366261753505151    0.8737738506374410 Na
   0.8684252577796420    0.1347689570157753    0.3758863297285545 Na
   0.8658858641788434    0.1330575988216685    0.8712385290622384 Na
   0.8592946895214708    0.3283269878999871    0.3786751754112737 Na
   0.8670255797838970    0.3364719621690087    0.8750824524279198 Na
   0.8667335428500289    0.7322396589278555    0.8714860374151876 Na
   0.8679848531345324    0.5347967472639895    0.8738189208992606 Na
   0.8709462178583656    0.7376343720956678    0.3707753853988685 Na
   0.8665920790304107    0.9345683348584025    0.3748590754898639 Na
   0.8711032107652477    0.9389131477357974    0.8709011679690624 Na
   0.6661950345390882    0.9362549519015185    0.3753735869307717 Na
   0.8674483024114477    0.5330984844087382    0.3730981705367585 Na
   0.6680236252599749    0.7363318538791305    0.8687897834361221 Na
   0.1346166670389036    0.0676764396503350    0.1264189483602214 Na
   0.6686339442627575    0.5354001338939041    0.8733727130521779 Na
   0.5359263986669536    0.6671985209232657    0.1270754370101056 Na
   0.5356532315289113    0.6676351394895574    0.6232230481070512 Na
   0.5308852885945403    0.8671652628199560    0.1265748283469595 Na
   0.5332289690055542    0.8638368305633151    0.6227849098043490 Na
   0.7307429825950900    0.0665163756527502    0.1277573060126015 Na
   0.7329863171186248    0.0710002119631567    0.6191541735132271 Na
   0.7370211185732526    0.2728402669794649    0.1304731608795305 Na
   0.7355892279750416    0.2687434927886558    0.6209914347800223 Na
   0.7332681972237680    0.4697756682320454    0.1262219930538587 Na
   0.7289387144974355    0.4649013134305510    0.6249042669200749 Na
   0.7400806546141097    0.6737992457967016    0.1258758321069942 Na
   0.7372139866349451    0.6741162203126297    0.6250289123626497 Na
   0.7364550697912313    0.8718244827042373    0.1283021057180861 Na
   0.7332414203450421    0.8691198155816482    0.6249448728016025 Na
   0.9333886968269210    0.0640122349602512    0.1278949844519566 Na
   0.9324879491353641    0.0653165560400370    0.6214750231750114 Na
   0.9351755324140799    0.2637289065522586    0.1300975759250018 Na
   0.9289192278057631    0.2594146764831927    0.6196755537597142 Na
   0.9356324665631482    0.4678013868077348    0.1259395939314933 Na
   0.9304116972941353    0.4672901464098072    0.6208716500621360 Na
   0.9327956872954638    0.6653431054026401    0.1286376891287552 Na
   0.5332935599708420    0.4656651679282618    0.6233989598739740 Na
   0.9327756216799101    0.6644357844214315    0.6259800346612167 Na
   0.5345495397768906    0.4636462630462715    0.1236322237734604 Na
   0.5369474065961224    0.2687704447366315    0.1242129174890675 Na
   0.6722684686748753    0.7408227918059487    0.3749066574287987 Na
   0.1347457720306685    0.0670779100873962    0.6199733208160823 Na
   0.1353996902563976    0.2646706699399652    0.1300094544445776 Na
   0.1309871102953902    0.2631282839297857    0.6250935761908750 Na
   0.1354463660372916    0.4649756928873137    0.1233911023763261 Na
   0.1302525149646029    0.4662010488689470    0.6262587695675250 Na
   0.1305135462881337    0.6665463397403759    0.6243435828420334 Na
   0.1319203121500174    0.8649847109117632    0.1256752242164281 Na
   0.1299232098295862    0.8626245050805517    0.6212329280201100 Na
   0.3340972015030185    0.0651230356640669    0.1235198615132510 Na
   0.3315324564060411    0.0627837773085390    0.6209436269462826 Na
   0.3330940136523194    0.2668762269752015    0.1250616625083091 Na
   0.3332827441255596    0.2675613766743928    0.6272917731321986 Na
   0.3339406947758937    0.4620170414706339    0.1270650436962506 Na
   0.3337538464679731    0.4647211655394610    0.6253902259566435 Na
   0.3371126264091444    0.6684197079093894    0.1255449129485716 Na
   0.3295292158932020    0.6646763852787666    0.6256956351886911 Na
   0.3310261187246392    0.8673137212063615    0.1275440310243299 Na
   0.3290963286929391    0.8622620370319323    0.6245766102258431 Na
   0.5342035628227242    0.0652758109980933    0.1264892716059059 Na
   0.5288581885967927    0.0626475646300792    0.6207903904492956 Na
   0.5298524223030553    0.2632086177862783    0.6229855957386198 Na
   0.9395759125388383    0.8708190660293179    0.1263210945699084 Na
   0.1344780906140649    0.6712389611934941    0.1255149239108331 Na
   0.9345438591489801    0.8700944512965458    0.6228454298268769 Na
   0.2649831711582204    0.5336137938354963    0.3749020069899969 Na
   0.2634050126579630    0.5312080106584047    0.8740707252029493 Na
   0.2677054188485115    0.7355513962136008    0.3759258353224654 Na
   0.2666426510004774    0.7365681287393357    0.8712917045580247 Na
   0.2615762778506053    0.9286729714021186    0.3748113141087129 Na
   0.2644305356341465    0.9313385727185841    0.8752707268014605 Na
   0.4632098917706215    0.1248310815971568    0.3772642711238520 Na
   0.4625821740415159    0.1275278101821498    0.8802161458536664 Na
   0.4731307843957036    0.3364266364482602    0.3756515870633496 Na
   0.2687574273684873    0.3333648035395931    0.8748233625392819 Na
   0.4650178943831158    0.3292541619732437    0.8808593897156324 Na
   0.4684982343143868    0.5262798879607850    0.8758956083134718 Na
   0.4668662793960055    0.7333848425270207    0.3749322709251610 Na
   0.4668782263088316    0.9332114200841384    0.3745810390811374 Na
   0.4659145350480624    0.9329523452526896    0.8774898019842514 Na
   0.6689746866592188    0.1328813466609359    0.3778614206626948 Na
   0.6682158831988804    0.1355525004833740    0.8784755909330931 Na
   0.6640042234435325    0.3320518991441105    0.3766651680474328 Na
   0.6645439557959509    0.3374186597222694    0.8792808196299416 Na
   0.6703023028352731    0.5352746585629100    0.3725263900489718 Na
   0.4649833695028620    0.5330829325496608    0.3755780643181865 Na
   0.2686885825051294    0.3313933594003012    0.3720326182054005 Na
   0.4680024717919875    0.7322965149493019    0.8706752468466027 Na
   0.2645820289910890    0.1342013808515227    0.3775381696046490 Na
   0.0644103548028556    0.9335218544651779    0.8767410421769013 Na
   0.0625104608948970    0.3284783247821222    0.3756031143279797 Na
   0.0692230850544704    0.1317324447609866    0.8724857632093459 Na
   0.0700166127273088    0.3344273266925888    0.8752955179372407 Na
   0.0621568479020820    0.5340922269471606    0.3784989408829659 Na
   0.2679650910738280    0.1342273084612153    0.8763174057907498 Na
   0.0651085925403654    0.9355269573521747    0.3776616796786857 Na
   0.0670198456411028    0.7362466325278534    0.8762331034827373 Na
   0.0725439986964143    0.5388807150501105    0.8751800831504372 Na
   0.0660213390270554    0.7314963431473966    0.3724775837054933 Na
   0.0674347571787472    0.1359740570085269    0.3746392565874613 Na
   0.8020427676942640    0.2002665986812940    0.7488683481519498 Ni
   0.0056842802000675    0.0000070514654026   -0.0003806666038584 Ni
   0.0011020052381565    0.1969934623324390    0.2515622842262976 Ni
   0.0007959848861175    0.0020362868853460    0.4994307345510137 Ni
   0.7986199859184426    0.1987612353524054    0.4994221378436384 Ni
  -0.0033397867355320    0.6030404871957402    0.2500141563688881 Ni
   0.4002308978452554    0.3942934767520503    0.0005349975200591 Ni
  -0.0049459951513799    0.1947299013818095    0.4994032445428038 Ni
   0.1972460389902405    0.1984218669663317    0.2510680047137501 Ni
   0.0008914237588315    0.5986986474096815    0.4999684717412609 Ni
   0.7351011360554224    0.0622581173854904    0.4516594673209464 O
   0.5374618453655610    0.4672820613297188    0.9482760496004053 O
   0.5286723192681155    0.4699037515326657    0.4530148620555576 O
   0.5304743014406803    0.8635966686017865    0.4493568850353704 O
   0.5327041941957311    0.2622635406396029    0.9517338539430927 O
   0.5201026971125593    0.8520872680907692    0.9464197438241756 O
   0.5276685334991690    0.2556159235072852    0.4519067745008560 O
   0.5351982623370560    0.0693680364803778    0.9536995372355468 O
   0.5332262410583997    0.6652994742342895    0.9476695084679795 O
   0.5443520673974093    0.6688994470080885    0.4484092552820501 O
   0.7361404090543505    0.4759766073868078    0.9484083085543183 O
   0.7199915830029071    0.2594595558691602    0.4506885864717635 O
   0.7369814548370690    0.2749032554539180    0.9517319410774950 O
   0.7316662525846643    0.4693436475674261    0.4466816736337084 O
   0.5375735086130189    0.0721143652514996    0.4513445352438757 O
   0.7458964216271046    0.6785152032611363    0.4479433637342746 O
   0.7294551985848686    0.6717662712278415    0.9446324432349170 O
   0.7329802686620102    0.8766500149480845    0.4478347286752851 O
   0.7313924059753772    0.8675335072646234    0.9460304127959475 O
   0.9226842946485040    0.0612503546211480    0.4504783515652932 O
   0.9352777002181450    0.0704534395725669    0.9464728132366860 O
   0.9350584328565610    0.2747641264725588    0.4514381532992524 O
   0.7312938916272915    0.0709944062227131    0.9504995431234625 O
   0.3285728299888581    0.8707292490725080    0.9471435892397421 O
   0.1222492255041395    0.8568663110315834    0.4481334070901831 O
   0.3325309385252679    0.6685615805411245    0.9508408670552361 O
   0.9332607771517104    0.8688199477199711    0.3006900665057450 O
   0.9307073733644595    0.8662781048364200    0.7981612586815509 O
   0.9311981092534261    0.6663217005172897    0.7999736277805706 O
   0.1385224384197478    0.0705375457086155    0.4515278271586720 O
   0.9301895309747655    0.6669574200827622    0.3000629910551740 O
   0.1420970756040665    0.0743777056050992    0.9508852371119091 O
   0.1364990466229136    0.2669630890712352    0.4481663258924745 O
   0.1385235044009678    0.2617053765355370    0.9487744054249453 O
   0.9420069044512516    0.4714624252154325    0.8048553963409357 O
   0.9344246597475266    0.2677014970070854    0.9478542415601494 O
   0.1234599419963143    0.4629299568881395    0.4505342614551004 O
   0.3323018731010166    0.8636875469299454    0.4480973479451270 O
   0.1316353698274644    0.4694159829276794    0.9494414966981287 O
   0.9283073006678794    0.4626726418389376    0.3032527006344833 O
   0.9373060730364393    0.2646414209370386    0.7989177967700147 O
   0.1320687049123838    0.6661364638258161    0.9495910523446671 O
   0.1358931575093977    0.8691644509665784    0.9488516352932576 O
   0.3344383456779947    0.0760152139678427    0.4527164208700913 O
   0.3348773444441556    0.0679230549791347    0.9524512055045368 O
   0.3443247215927290    0.2703019613637239    0.4540322808993232 O
   0.3248451569383865    0.2620011998061516    0.9500832674519946 O
   0.3301997606173623    0.4752829794318958    0.4487944425665690 O
   0.3337781747165320    0.4672255401409482    0.9476493725762096 O
   0.3328693324057637    0.6630482707415694    0.4528677524217437 O
   0.1365210915987519    0.6677951826799958    0.4500437600830697 O
   0.9342034171544935    0.4591460528535917    0.4516850020685785 O
   0.2708004857778051    0.7365947395643255    0.0477617586143309 O
   0.9373919917822052    0.6730510342772816    0.4492959466270346 O
   0.4552312572446931    0.5290752290960840    0.5492749162168754 O
   0.4693379280632393    0.7281337485308411    0.0541105485668656 O
   0.4674262992059816    0.7285553312413130    0.5481717248334467 O
   0.4615199736201652    0.9264974740997439    0.0472866127484496 O
   0.4664398640440550    0.9289161653976127    0.5509246741523853 O
   0.6720053019523029    0.1479763575531998    0.0580891547196200 O
   0.6585686628969462    0.1354959820302717    0.5491989789447012 O
   0.6733838330779199    0.3404243284500295    0.0499510168300865 O
   0.6609797051254028    0.3226748084795253    0.5489005977698969 O
   0.6750948301347147    0.5419071563357043    0.0488261445381420 O
   0.9291854803513754    0.2659720195432081    0.3041174903570709 O
   0.6655457087832705    0.5434482881269724    0.5496824459281359 O
   0.8795580202791538    0.7364155397184200    0.5515048370314368 O
   0.8649981097675491    0.7274544367288914    0.0490643783196555 O
   0.6677840801700176    0.7342778911980724    0.0502256850042430 O
   0.8621078442763354    0.5324617504216915    0.5529658012645399 O
   0.6711265683228660    0.7351969789965308    0.5462196540277131 O
   0.8682652491465009    0.5264656359761430    0.0520359384326807 O
   0.8744123297755262    0.3351565660103999    0.5500961938005604 O
   0.6618362862024731    0.9332225002953010    0.0506440032922702 O
   0.8754209423469527    0.3328153857496484    0.0544626435357854 O
   0.8599954438659478    0.1211305193792131    0.5491452717942591 O
   0.8693742156418199    0.1340166351731056    0.0529310882855471 O
   0.4717288771768109    0.5348361196476358    0.0514146766852973 O
   0.4659065119838514    0.3242205314921374    0.5517785496209449 O
   0.4695675619724997    0.3303346046514872    0.0493489450783623 O
   0.4679703403114115    0.1380977892133589    0.5476797122434361 O
   0.9298565787517804    0.6609310175436601    0.9509746090193485 O
   0.9333448570081327    0.8612856448003775    0.4527508610201662 O
   0.9346636064016483    0.8653520390550592    0.9456835934915030 O
   0.0772805468167428    0.1381857449153881    0.0502637611154239 O
   0.0721490516059548    0.1353936598445296    0.5508475474814482 O
   0.0662592045310448    0.3318574397531871    0.0501668224731255 O
   0.0609454956484049    0.3350606541392558    0.5497577533555559 O
   0.0692862313022734    0.5357285355564173    0.0514757118183040 O
   0.0623284760647480    0.5253306364043895    0.5491147577080496 O
   0.0682412113384216    0.7318668840700979    0.0508168478447001 O
   0.0647720370522836    0.7376759175085819    0.5475517945455900 O
   0.9301009934720517    0.4641138524126577    0.9528580202117752 O
   0.0710149698187533    0.9333172131552907    0.0505438927348620 O
   0.2653036660426654    0.1377592170842755    0.0487287582593055 O
   0.2791315912952616    0.1442630304093159    0.5511418690993896 O
   0.2638535591476481    0.3230141426345983    0.0493663245765725 O
   0.2714606170245212    0.3356670575515242    0.5493564759890842 O
   0.2670567783187164    0.5349101695798997    0.0524975195851794 O
   0.2564740153199740    0.5290007777899227    0.5538819595428247 O
   0.6709460950016711    0.9342558522692644    0.5474713790149139 O
   0.2650355371290848    0.7316799252525636    0.5509168223292670 O
   0.2675630988872227    0.9349900413001494    0.0506244822072703 O
   0.2606095488434928    0.9284361423924237    0.5471830817212462 O
   0.4690326786498926    0.1303554321510816    0.0550873188767674 O
   0.0660134709475498    0.9254163356399834    0.5465940942707597 O
   0.9371847933426878    0.0761225591058270    0.7972088204794547 O
   0.8627154766682215    0.3386367116518941    0.6999992463611261 O
   0.7366739753822008    0.8705770091959179    0.7951716692024350 O
   0.4721683062087140    0.3314864545602780    0.2001600288417607 O
   0.4696909094175060    0.3311715455708059    0.7021164888194853 O
   0.4691564075428027    0.5382183441916274    0.1984623828624176 O
   0.4764987397344147    0.5374660504031010    0.6987725127026387 O
   0.4675807846573404    0.7351200476647785    0.2023149251252769 O
   0.4687193120544124    0.7305386534822254    0.6981369939381220 O
   0.4692732760537032    0.9350246309872228    0.1999599623476498 O
   0.4664427337196722    0.9382223490248407    0.6996040776884509 O
   0.6627208559390408    0.1360331869327492    0.2031998277004082 O
   0.6652754356929244    0.1360909534688662    0.6969435499405173 O
   0.6617442235210123    0.3243702751634371    0.2042340153035833 O
   0.6539064492207329    0.3311912203960081    0.6975363787733635 O
   0.6748451722134774    0.5447002828687354    0.1954191995718486 O
   0.9315176348021330    0.0633616559706448    0.3024529712981810 O
   0.6679693965127936    0.7386751846246860    0.1991459253931925 O
   0.6628009031070792    0.7271061777894773    0.7007766991347375 O
   0.6660302159871412    0.9357524757626308    0.2005834333009139 O
   0.6733393721806693    0.9451321686935311    0.6911667270314463 O
   0.8606306186937541    0.1313087255962678    0.2012083710776449 O
   0.4619610790375921    0.1251760497270902    0.7013119945202763 O
   0.8737390823970546    0.1359708605856879    0.6993702632138477 O
   0.4762390677025148    0.1357989141049879    0.2026486327229416 O
   0.2621740180934743    0.9308255447962518    0.2008804947970638 O
   0.8658786419770649    0.9306830365229339    0.0515544240031450 O
   0.0642029828286294    0.1286174398474405    0.1988880159551138 O
   0.0583614127651893    0.1357823254919414    0.6994485945434273 O
   0.0697780300969178    0.3375473188196665    0.2003019547202308 O
   0.0536752922937271    0.3217562182222763    0.6958172999968605 O
   0.0673612093902398    0.5322315560633868    0.1987145150704562 O
   0.0613154006680089    0.5326065692198466    0.6964849039230494 O
   0.0670935150488696    0.7371243425384084    0.2011106602409165 O
   0.0607291569134971    0.7303122033237172    0.6982566636137754 O
   0.0666524518560238    0.9338881114106607    0.2005819214750764 O
   0.0631634354440826    0.9319798763175595    0.6954280818058580 O
   0.2697641248084920    0.1290576260699691    0.1981047822435069 O
   0.2694386580894475    0.1325674294233622    0.6974618973036895 O
   0.2676215902513800    0.3340757093408669    0.1996415832513354 O
   0.2638246213034239    0.3363187336725597    0.6999716831087871 O
   0.2681594739344550    0.5330714990553949    0.2005982958603731 O
   0.2674776757073066    0.5245914801935797    0.6988262218961661 O
   0.2717123123096917    0.7321298806311011    0.1957992474322700 O
   0.2636519915209672    0.7309953128230022    0.6994678422955282 O
   0.2568922167921291    0.9264956056406819    0.6950450671586759 O
   0.8639576899857347    0.3324001612070086    0.2008036443476400 O
   0.6659253960311232    0.5437677917431440    0.6960346721106772 O
   0.8640445709739686    0.5274315878396798    0.7016440301881967 O
   0.5406554011642443    0.0725780863980311    0.3011518254683378 O
   0.5423679581518840    0.0691320126227948    0.8053433754892352 O
   0.5336045987603688    0.2521573754907172    0.3045937294886595 O
   0.5261744178144935    0.2571187871271695    0.8059252702728694 O
   0.5385934806293440    0.4686114608012283    0.3015449289414510 O
   0.8637121024091645    0.5271155144682544    0.1984095032513818 O
   0.5341573616507592    0.6690283425212614    0.3015399817596606 O
   0.5365837716902081    0.6533830994082972    0.8015505637237191 O
   0.5339653125836381    0.8690869543412552    0.3017104759999648 O
   0.5387397014794603    0.8660630026422146    0.7998097582366475 O
   0.7319341815868302    0.0659620055462332    0.3023442709482893 O
   0.7354596623410365    0.0671220036870541    0.8002617759201895 O
   0.7262966197881994    0.2630588892787488    0.3003064782545323 O
   0.7347966998060499    0.2754947667492694    0.8004747794227198 O
   0.7317024862675089    0.4661872624657222    0.2988313602104194 O
   0.7277445264034551    0.4610385003499895    0.7962236063012104 O
   0.7354511690542384    0.6742436393357053    0.3020428719411289 O
   0.7267800101537710    0.6641749134735090    0.7966044275101495 O
   0.7325887486946617    0.8687732967037787    0.3005622688880156 O
   0.3345091180876950    0.8731276231360026    0.7987562530962146 O
   0.3342342647087943    0.8634669246151541    0.2976057898079564 O
   0.5449185686163454    0.4730422761423415    0.7958400314545603 O
   0.3351076398110547    0.6676141579758275    0.3026818751978449 O
   0.8693484870185635    0.7375047319444928    0.2014145939991444 O
   0.3363410990489158    0.6654822479348583    0.8030503991434904 O
   0.8667682942034124    0.9337048131449368    0.2009602522199147 O
   0.8654248669111162    0.9344219557338312    0.6963685996096299 O
   0.1326222097173987    0.0639884936319377    0.3016851702240760 O
   0.1301041434553434    0.0642219249888124    0.8002832862430959 O
   0.1357679345265018    0.2708684469262828    0.3024329469851941 O
   0.1243722351118331    0.2674720489054970    0.7959419363550735 O
   0.1325499631586348    0.4691698731447257    0.3040176364970412 O
   0.1362326849213237    0.4620298977056847    0.7970848406191806 O
   0.8661074864693882    0.7366618343762846    0.6977992919638776 O
   0.1307404090724969    0.6701690722460137    0.8006341995120895 O
   0.1366627174490862    0.6705313249810670    0.3014383995048023 O
   0.3391598172495509    0.4678741206985880    0.8038083014328483 O
   0.3333203892161933    0.4710141556270626    0.3018300238214200 O
   0.3350289535238481    0.2634249179551983    0.8030822365618638 O
   0.8572698543698350    0.9303270341114409    0.5462066334693001 O
   0.3320258861008127    0.0610764286004891    0.7995220733769774 O
   0.3305072208727890    0.0615308860067113    0.3026542583546145 O
   0.1272316363919822    0.8644349505942440    0.8001074808582046 O
   0.1282606209737376    0.8682091153470267    0.3030939875097613 O
   0.3377836575753043    0.2648088617813884    0.3050774699766193 O
  -0.0035284125214994    0.3965456386273619    0.2523012257658569 Sn
  -0.0004876180574723    0.4010873818292697    0.7487968554937738 Sn
   0.1951479438420428   -0.0023427911324184    0.7477804839426792 Sn
   0.2023549114225071    0.6043678369892258    0.2503497026809937 Sn
   0.3990633986510967    0.1979981759411047    0.2517971568961118 Sn
   0.4015584305165272    0.5986208863568933    0.7509650757071858 Sn
   0.6029094292159701   -0.0027499913615029    0.7488267409733483 Sn
   0.6033058096257859    0.6016735031794443    0.2495927349450934 Sn
   0.0043783995243487    0.1982999954391261   -0.0002251173301818 Sn
   0.1959120146066020    0.3976184245505511    0.4998400562891971 Sn
   0.5992113400792863    0.8029236218923800   -0.0003192128684153 Sn
   0.7980770207512679    0.2009423409321199    0.0030846148445551 Sn
   0.8021754069380781    0.5995330027765388    0.4995874540775507 Sn
   0.8061617200581305    0.8029860069834727   -0.0019283057538455 Sn
   0.5982429547959814    0.2012251397615194    0.7515831121456188 Sn
   0.3969672916422044    0.5935974001005474    0.0006276260532244 Sn
