Ta48 Nb48 V48 Cr48 Si144 W48
1.0
  12.7503883936364151   -0.0048060554836557    0.0001894683058997
  -0.0072090697577676   19.1171979276205093   -0.0139619788315783
   0.0003425929143532   -0.0168086112304081   22.9880207267019934
Cr Nb Si Ta V W
48 48 144 48 48 48
direct
   0.4184111038451130    0.2255479200879003    0.1668410893491993 Cr
   0.9148812366770357    0.4453046036130531    0.9279106080232714 Cr
   0.9189415186027547    0.4418023479446828    0.4114151666837306 Cr
   0.4156303849937280    0.7745696498399102    0.9225080065983191 Cr
   0.5815608859334231    0.2227911456483815    0.9243238693319400 Cr
   0.0899587824078388    0.5634557324332906    0.9275818692266529 Cr
   0.0761026013325298    0.5511383590708352    0.4156224110238299 Cr
   0.6720234414976223    0.3877442574946013    0.4206399139378128 Cr
   0.9170489912380191    0.7749006282691561    0.9225755507196619 Cr
   0.1710844319050844    0.7197156486268144    0.9198101468977000 Cr
   0.5713443036021889    0.2254716322152321    0.0762955828580601 Cr
   0.1603749193545669    0.7257206848953910    0.0818233062919261 Cr
   0.1799754612683505    0.0465059972336766    0.5825181142346272 Cr
   0.3166071439382703    0.9559861424332365    0.5847049913796780 Cr
   0.3230340249419497    0.6149831775052275    0.5777589137043344 Cr
   0.5913369353898282    0.7737020613843587    0.6771093295415840 Cr
   0.0909910163963730    0.7744231931749411    0.1723329104541456 Cr
   0.5849941262989570    0.5513986793009494    0.5737357523983631 Cr
   0.1630624106951084    0.6092223430469272    0.3253320631191853 Cr
   0.1595428152836829    0.6099006585883207    0.8381502861431191 Cr
   0.6694928485515181    0.6084601712244292    0.3247901154607240 Cr
   0.4964119866294046    0.0019738035631866    0.2398548186103284 Cr
   0.4935512360045227    0.6635100131482627    0.0102614029423471 Cr
   0.4959914214959636    0.3346895944127595    0.0027313632463827 Cr
  -0.0028766996516063    0.6644318679027462   -0.0062816707822529 Cr
   0.7527272086071700    0.8353472954919862    0.4909902778836755 Cr
   0.7460131103448713    0.5001158124042563    0.0047516457034791 Cr
   0.2433356179399182    0.8319684128647581   -0.0074818542400308 Cr
   0.8390022585820345    0.7261785918699850    0.3286500454303081 Cr
   0.8375184964093720    0.3914769650468470    0.3261894695913449 Cr
   0.3258730204512855    0.0533953172159334    0.8287878446412346 Cr
   0.3394712691099213    0.0560339518835886    0.3294694429339153 Cr
   0.9154599430780704    0.2215635585458128    0.8271355897075344 Cr
   0.9163886115989254    0.2217355661997970    0.3227876679684961 Cr
   0.4221787044526530    0.5480049532723397    0.8325079410952076 Cr
   0.5795213821618096    0.1138123755681963    0.8284532330819773 Cr
   0.3431457692535242    0.6106923614373885    0.4177230521624997 Cr
   0.3306993661479896    0.2716651074092463    0.4239412173756724 Cr
   0.9208506493268593    0.4398946427409007    0.5734815691446082 Cr
   0.4216930431385552    0.7803918442842309    0.0807503302981376 Cr
   0.7512170656210949    0.5005023184063621    0.7511156471271482 Cr
   0.3263531850810047    0.0493470445527057    0.6731226429824091 Cr
   0.1736542409008797    0.9455600127386443    0.6722724572411775 Cr
   0.4217827256874550    0.4408902590899022    0.0808378743749952 Cr
   0.9157581867248142    0.8877694349378286    0.6792362132274392 Cr
   0.1721818721815019    0.6092402650720989    0.6726640093888732 Cr
   0.1668808158402902    0.2770271664389098    0.6739609876451198 Cr
   0.8276385504480079    0.3858459717610442    0.1657594292252658 Cr
   0.4206679941166584    0.7758783348691265    0.5795731724550319 Nb
   0.8287679842344234    0.6133894630327119    0.4166837437441356 Nb
   0.8231596565113621    0.2811404125452120    0.9228053277461893 Nb
   0.6644889541228529    0.9401511147215135    0.8291667974704884 Nb
   0.6695407591823654    0.2851060501435785    0.3230167896055611 Nb
   0.7495444241788073    0.8315712118724204    0.2487538229342483 Nb
   0.1702631638588387    0.2817872175603415    0.1688769919305340 Nb
   0.8302808748947472    0.9459657363521748    0.9243321260344368 Nb
   0.1718778341919781    0.6114327452522980    0.1717764029412515 Nb
   0.0853345624444820    0.2231575747981276    0.9229171520254408 Nb
   0.6617543629380715    0.0585987174594992    0.9217385613087884 Nb
   0.1724555909392785    0.0523622847444764    0.9208950937383116 Nb
   0.0846175953210685    0.8838193845485770    0.0750820085176818 Nb
   0.8292433420382432    0.3910243061422623    0.6754030171131704 Nb
   0.5801877283363285    0.1128035527864610    0.3255294952212194 Nb
   0.4199236408531702    0.2268076258851115    0.3289982142178660 Nb
   0.0793870053133347    0.5549938342257269    0.5726368568610168 Nb
   0.2491247634830778    0.8282492145295962    0.7501288703682585 Nb
   0.2529417221799915    0.8359529942217276    0.2502939870944005 Nb
   0.2521643820084054    0.1701107171176806    0.2476431665156226 Nb
   0.5025915728031465    0.6659531701251810    0.2487254209913524 Nb
   0.4995224947822915   -0.0038118742461617    0.7514054133150407 Nb
   0.4163539101315760    0.5510912263848294    0.6724379755355565 Nb
   0.4964669912417373   -0.0026057183904730   -0.0032507889996222 Nb
   0.3302089783034038    0.3893514805180636    0.6750870683700758 Nb
  -0.0032231003317584    0.3369820377281334    0.0005681632152417 Nb
   0.2502229648901571    0.8332481222012031    0.5009987491056160 Nb
   0.2482241474010513    0.4979112985924057    0.4955495638781317 Nb
   0.9170364560450464    0.5548500222845845    0.6757613826897148 Nb
   0.3293702975972811    0.7184581736870196    0.8284585088529390 Nb
   0.3307413379670798    0.3868879649604781    0.8340106365473574 Nb
   0.3339626568095369    0.3884397987423009    0.3289459626513069 Nb
   0.9190471987939201    0.5549843408390261    0.8348541197628125 Nb
   0.7523295897933963    0.4980653684637170    0.4950891157606972 Nb
   0.6709523223010068    0.7274138648120203    0.5801630192313143 Nb
   0.5851555581961188    0.8927701708068441    0.4237239271742983 Nb
   0.0811272290056865    0.7774073736642276    0.6763555627742454 Nb
   0.1633080519135927    0.3849326447520107    0.5711807400509725 Nb
   0.0781613749767721    0.1112670775954870    0.6733373591505262 Nb
   0.5753530065703509    0.1157358594029208    0.1670972809168818 Nb
   0.9192778686341253    0.7821263609254525    0.5778280736146512 Nb
   0.8424663689374339    0.6138434906938872    0.5726054123628703 Nb
   0.1687168940357788    0.0556048412994770    0.0743996850001130 Nb
   0.9221712552794943    0.7757349344443847    0.0773007971289516 Nb
   0.8323720445882382    0.9446346324538265    0.0732075408637668 Nb
   0.9171291001282682    0.1138304255320180    0.5791104930024795 Nb
   0.0855453299634563    0.4495689497307567    0.6766484948936154 Nb
   0.3294874452910274    0.9422708371436931    0.0736622549828133 Nb
   0.0563555054548237    0.4506297656474408    0.4905976816557388 Si
   0.2537488588322764    0.5032315720942998    0.8816387698304379 Si
   0.5756977933269840    0.1217464726576834    0.4995655328156466 Si
   0.0728575861672335    0.7783240582466747   -0.0050477866924894 Si
   0.0604251961696823    0.7895323568363437    0.4938350762872255 Si
   0.5612514940756818    0.1276746982547693    0.0011883480827896 Si
   0.0661813261955654    0.4593630233643550   -0.0061682535358006 Si
   0.0746770753755408    0.1207544136877180    0.5059989914007091 Si
   0.0015478588103244    0.3346915262570618    0.6305115105532925 Si
  -0.0038011727063496    0.3402163955801707    0.1235324652253220 Si
   0.9323809550476666    0.4617573075113900    0.7541186626877874 Si
   0.2486227098989545    0.5057919385105853    0.3742512525522967 Si
   0.1837898866911886    0.9579741912635792    0.5045974241008415 Si
   0.1810673747341633    0.9525848746186338   -0.0032231941647637 Si
   0.1847748740850891    0.6204178288203908    0.4891464675884928 Si
   0.7434400051997256    0.8319266484188197    0.1240469191713150 Si
   0.1780057222377295    0.6358308859593660    0.0037821097229811 Si
   0.1790927778710438    0.2827022968072391    0.4930291888788439 Si
   0.2510447747758704    0.1664232258880645    0.3721762066422174 Si
   0.0048989170960947   -0.0058200253281404    0.6292798503468139 Si
   0.1912239313113974    0.2939898709239109    0.0039938596086198 Si
   0.7528625439035385    0.8373445033070628    0.6372342543876477 Si
   0.2556097622147491    0.1681686036440146    0.8757016595320303 Si
   0.5522625790108660    0.7826264606364025    0.0006303473777835 Si
   0.5008816402919958    0.6636601265719472    0.1230897087784309 Si
   0.5648574780879602    0.4580513296273311    0.4945448312647722 Si
   0.5632230814596672    0.4503479396854967    0.0075392131975979 Si
   0.0617260577377396    0.1198773974579453   -0.0047035184050560 Si
   0.5719708069041637    0.7954675349418727    0.5024227114903149 Si
   0.0042423310310214    0.0002955502890240    0.1250818880516061 Si
   0.6902256238394014    0.7066866704911506    0.2561615805951481 Si
   0.4998982533598221    0.3305341417631716    0.6229422812852635 Si
   0.5669649853429105    0.8874956125922293    0.2474318187121290 Si
   0.5711425375773672    0.5344222707956847    0.7560262233264481 Si
   0.5668434486549861    0.5410117497449926    0.2510786041455421 Si
   0.7470510404744354    0.4970264636190416    0.8891563840182422 Si
   0.5700583623200193    0.2044124162534353    0.7531072159875452 Si
   0.5557188899041681    0.2159230326795938    0.2442715098335197 Si
   0.5713876961516228    0.8701262249205293    0.7468412717527229 Si
   0.0673373597812297    0.8801250089113177    0.7499333151366613 Si
   0.0692939294612617    0.8770112504447348    0.2456646074636614 Si
   0.0768320602668004    0.5524447891411213    0.7535446325393490 Si
   0.0619519405968594    0.5421107697324060    0.2480204748372787 Si
   0.4982761153543704    0.0008829890744369    0.6264306214723969 Si
   0.0636381260223637    0.2142551867681125    0.7515991580816311 Si
   0.0628272509994462    0.2147783873180220    0.2507978709035493 Si
   0.5015346863452164    0.0016076953878983    0.1196037404148691 Si
   0.1883247262704880    0.0463199420413649    0.2525441979794302 Si
   0.1843600318203836    0.0376935195779422    0.7503236503104628 Si
   0.1880559710197493    0.3752677596179789    0.2461731542205339 Si
   0.6867061920332835    0.7112311307873393    0.7540177233864732 Si
   0.6700754288070961    0.2913990459409892    0.0031289996010607 Si
   0.2477142996994734    0.8303740040767111    0.8764869483550622 Si
   0.6789989980735087    0.3864537717755444    0.7551760665640843 Si
   0.7555241481363417    0.1670241883485713    0.3722998707618968 Si
   0.6882672699450348    0.3823687113512211    0.2454090059441188 Si
   0.6835708826735754    0.0489771770430190    0.7553064789888729 Si
   0.0014784668012619    0.6688489296214820    0.1308051092767449 Si
   0.6720072684447584    0.0400501832118961    0.2462579881301257 Si
   0.7460889187734547    0.1686040672551954    0.8707650052238495 Si
   0.1758619589066901    0.6982803592241673    0.7546807387118513 Si
   0.1819613881719728    0.7085928459878532    0.2513969875175987 Si
   0.0076898172354207    0.6649029323105238    0.6303394732347469 Si
   0.1831394181134199    0.3758979516871312    0.7529230523006913 Si
   0.7507682276963684    0.4940288104617078    0.3704318474827750 Si
   0.2526847604331026    0.8373972441198991    0.3755937395312725 Si
   0.7515444434358124    0.4997720260182132    0.6186663874012733 Si
   0.6769428792384037    0.6186931057431303    0.0063807235987294 Si
   0.6938001235615688    0.2886863460571515    0.4950457043462471 Si
   0.0019259514244244    0.6707313361242663    0.8799995990726753 Si
   0.8203614042081107    0.6217516090594519    0.2587483728709071 Si
   0.8077939893303124    0.2890359287922221    0.7570028900481236 Si
   0.8206201313026700    0.2955908969135446    0.2466971317233329 Si
   0.3125872497273953    0.9544549030678480    0.7514657589847512 Si
  -0.0017825789932663    0.3288975723679954    0.3676521178165425 Si
   0.2486848442590011    0.5032711739605400    0.6198205904738073 Si
   0.2499059135672086    0.8321322372649147    0.1267962617945029 Si
   0.3082980818577044    0.6131211438614822    0.7570277881582133 Si
   0.3170450945604879    0.6206270530901790    0.2527883937391194 Si
   0.0008391787267169   -0.0000261340196014    0.8759784084804361 Si
   0.3100358997785761    0.2883049947399855    0.7512245309017491 Si
   0.3276609557849825    0.2933980040891485    0.2443221502281598 Si
   0.9252907642800331    0.8793440127035902    0.4971966268036303 Si
   0.3219352852565266    0.9631950515390377    0.2506968484572720 Si
   0.8174283224728756    0.6209059500031556    0.7553891228332429 Si
   0.2571471655360120    0.4986917801109864    0.1223855570897410 Si
   0.8069235725609195    0.9555987158943354    0.2469488029433941 Si
   0.9274493205308245    0.4523273583040185    0.2431544540360752 Si
   0.9272397684443148    0.1260921803868766    0.7518383091910669 Si
   0.9361349994987397    0.7878275520313989    0.7543967010394467 Si
   0.2599169776683445    0.1689553736431253    0.1226794634393847 Si
   0.9335074412015060    0.1289957052118745    0.2474126984435121 Si
   0.0019772712007192    0.3354920537442320    0.8778230685829933 Si
   0.4366104600124651    0.7836066910730691    0.7436927384361033 Si
   0.4379888100000406    0.7938264445975032    0.2490593159570068 Si
   0.0046618240736935    0.6622042638467919    0.3723513638213654 Si
   0.4325669321118633    0.4574194059220797    0.7568688788515271 Si
   0.4385399396145262    0.4553127568595633    0.2482487488043848 Si
   0.4345998081598559    0.1173276994426940    0.7521092104638876 Si
   0.2463421523419566    0.1622450501021123    0.6264166151785525 Si
   0.4328076093892795    0.1205653298463004    0.2483279732120827 Si
   0.8145869808880120    0.9547057739386746    0.7516430371724362 Si
   0.9366268139661611    0.8705622968652665   -0.0043825727193461 Si
   0.9383302069874350    0.5402693835041155    0.4906517082127930 Si
   0.9304245997920040    0.5428616601779430   -0.0056878753312869 Si
   0.9420984827452102    0.2107154587310291    0.4978924714946061 Si
   0.8165126260944109    0.0445489847388229    0.5009741804561587 Si
   0.4951132720847141    0.6614259050744242    0.8747401694431056 Si
   0.8147160361000071    0.0467447925013059   -0.0014042138069607 Si
   0.3185452770828067    0.7032022359061639    0.4952956761688989 Si
   0.3183385806803701    0.7208312640857413    0.0054568910019224 Si
   0.3155348742396152    0.3721124999452504    0.4908557013871048 Si
   0.7492345118451388    0.4946877249984854    0.1279359816749982 Si
   0.0042519311119203    0.0021549489870204    0.3652650380806488 Si
   0.3212977310186331    0.3820272156675645    0.0049681346795020 Si
   0.3178786303980757    0.0411649366577005    0.5030236558814083 Si
   0.3169184111250694    0.0472318979420272   -0.0024935340148140 Si
   0.6929001410689829    0.9551443166927045    0.5017693341156086 Si
   0.6802852997333914    0.9534955028694404   -0.0002718620760469 Si
   0.6852766413181738    0.6240596547960489    0.5029010557090760 Si
   0.9388629868634155    0.7847908314989088    0.2464503876199161 Si
   0.5014972545719942    0.6660304560409563    0.3711949885317767 Si
   0.4983642605276156    0.6625030634906288    0.6250370409547632 Si
   0.7448306289905389    0.1663149733934010    0.6282315457606833 Si
   0.8280240787563280    0.3777092750332941    0.4917788652209987 Si
   0.9288089593755898    0.2100685518875505   -0.0031653401854998 Si
   0.2478892369848849    0.8347654762421237    0.6257763767556606 Si
   0.4330736407988116    0.8850124136432230    0.5097245991811036 Si
   0.4231133462310753    0.8673109013951712   -0.0033078918217204 Si
   0.4997895529860357    0.0053274431457528    0.3803501496434992 Si
   0.4893526336954807    0.0006169704400698    0.8739210497096723 Si
   0.4328829054841722    0.5504120581905753    0.5014910766429763 Si
   0.4298478733412019    0.5418883922762670    0.0111586855580518 Si
   0.4365972030564504    0.2065986272940222    0.4977699306002323 Si
   0.5039176498359200    0.3406906945795273    0.3794824853628645 Si
   0.4367211127142533    0.2159526213956309   -0.0023407295466858 Si
   0.8191777604118543    0.7166028353077118    0.4978604178223028 Si
   0.7441895753627628    0.1728551722181210    0.1202025638440786 Si
   0.5004872567258253    0.3343730109889301    0.1238550079480934 Si
   0.4995531086986040    0.3353324748618706    0.8860432395044084 Si
   0.8067050811095700    0.3838548272742013    0.0014219051534520 Si
   0.8219740233313956    0.7107614490865792   -0.0008668401626545 Si
   0.7508333024697461    0.8273429341099652    0.8792119180792273 Si
   0.7568975906237214    0.8372790567610312    0.3727565848824470 Si
   0.6683607300496271    0.7218822302255208    0.4227311057815512 Ta
   0.8279332478889885    0.3931699955017161    0.8323241814489395 Ta
   0.8271243592254734    0.0538548843887720    0.3228869593650955 Ta
   0.3301071249076792    0.7211288090263757    0.3278575619345501 Ta
   0.9209377780941372    0.8851490012214792    0.8287441870471534 Ta
   0.5725703238067806    0.5518096380146253    0.9312310084527931 Ta
   0.3265133580046219    0.2756317055867019    0.5742748536696829 Ta
   0.6715866814025090    0.6082623976893381    0.8309431551392654 Ta
   0.8382058727211859    0.2777142064327855    0.5742224305343899 Ta
   0.4222036183212209    0.2218466708648210    0.8302815246972378 Ta
   0.5761206132010604    0.7774378001088076    0.8299058257967676 Ta
   0.5798208588594412    0.7856864865908144    0.3260430491934778 Ta
   0.8342519433133621    0.6102143665438596    0.0760450019999654 Ta
   0.1682535954464160    0.7176219924296623    0.5729252552566024 Ta
   0.0814734798233789    0.7809006602497157    0.3297087569634011 Ta
   0.0841244443016040    0.4491893791900695    0.8333982410827983 Ta
   0.0802838977299813    0.4434552189978588    0.3239799439346806 Ta
   0.0780755602053328    0.1134042942229928    0.8258836052412518 Ta
   0.1699181600646482    0.0530694561147230    0.4195519193165038 Ta
   0.3324956713084577    0.6154743222150912    0.9305490196946834 Ta
   0.6705918355364641    0.3860931994625824    0.5734401151814560 Ta
   0.0807926841712977    0.2204163207570229    0.0744033159846137 Ta
   0.9176323353274264    0.1143335703997216    0.0756399518415013 Ta
   0.0770893897929711    0.5553471918401309    0.0742029855072006 Ta
   0.4198711562151923    0.1116700200539003    0.5794791121419751 Ta
   0.4215636152105932    0.2175525096263420    0.6746384680489228 Ta
   0.7447978348444044    0.1705624626184555    0.2461405695580740 Ta
   0.5838683789459823    0.5578197895778471    0.4194478516719979 Ta
   0.2512169036258198    0.4992080762335851    0.2485264238670092 Ta
   0.2492798457004921    0.1635162836313573    0.7506331009886195 Ta
   0.4983796598848503    0.6593704082992181    0.7505454475513085 Ta
   0.4996924272635284    0.3324501839528192    0.7520688356341263 Ta
   0.4210965814167903    0.8868904478604611    0.6702332432798569 Ta
   0.4233610662478056    0.7824707058569601    0.4260770473261680 Ta
   0.9179695994944015    0.8855457163781368    0.1721015222124583 Ta
  -0.0050794822233802    0.3354368881443626    0.7546554198991577 Ta
   0.4192998578450521    0.4439493444800669    0.5723806502136386 Ta
   0.9258245247642134    0.1109545590708076    0.4227674573885534 Ta
   0.0006182001267816    0.0023069802639581    0.2457390627980032 Ta
   0.8252828310103948    0.0559886944914440    0.1712852665626172 Ta
   0.5036959668794307    0.3316754166341476    0.4980111726393660 Ta
   0.8352605099186078    0.7190608195979703    0.6774957916496985 Ta
   0.5856987222267600    0.2192046071020566    0.4217155055196228 Ta
   0.6661542905617481    0.2787084560637046    0.6748012265793436 Ta
   0.6683511890731234    0.6063205882527641    0.6749790419388516 Ta
   0.0795135897208249    0.8942010239300701    0.4214461660719755 Ta
   0.6617122897400918    0.7151611571864270    0.9282071774725210 Ta
   0.3346912000770075    0.7211346756404377    0.1721499201544886 Ta
   0.1715846943487158    0.7201285948957148    0.4214623855287949 V
   0.1777125414939117    0.3864188685175903    0.9275980072650665 V
   0.6746675504041754    0.0541119246364721    0.4239268103538205 V
   0.6583119757283701    0.3902403926440333    0.9302743213537271 V
   0.7539684842537707    0.8323565890956028    0.7519686096046845 V
   0.3408338323254699    0.2797883389499749    0.0759579831468705 V
   0.6682959756053973    0.3869486754394513    0.0791450251086063 V
   0.6681565890849014    0.0574804440526051    0.0713555060163152 V
   0.1669563371684009    0.3942511748480042    0.0750680302939014 V
   0.3266558854553099    0.6193299134280816    0.0757861686371614 V
   0.5788242965800675    0.4456279040262492    0.1717132828796544 V
   0.5874246394342729    0.1106537962466575    0.6751348802769556 V
   0.0847618668965412    0.4457763645620283    0.1713485520185354 V
   0.9128516091152642    0.4491961226017544    0.0755805391643231 V
   0.4172943834006570    0.1165743807824709    0.0735284676629420 V
   0.6616452184356648    0.9462377302125846    0.1669721364316319 V
   0.1745213649843237    0.9502419400227040    0.1746856611421270 V
   0.3389878399099754    0.3905346749680755    0.1692638436885300 V
   0.9174932455390015    0.2265027141821896    0.1705496333649097 V
   0.4204706558872747    0.5519585973111619    0.1709502178373670 V
   0.5891712746042693    0.2208488858801075    0.5720164519403894 V
   0.4116067649213027    0.1095634310810739    0.4248770798989314 V
   0.5753188071904820    0.8818264709761477    0.9258644008906428 V
   0.9228151955595546    0.5451836538005256    0.3254786969912201 V
   0.7501127569538251    0.1675692312288617    0.7530006388803744 V
   0.2490970922184456    0.4973620855526730    0.7602794331917753 V
   0.5065024895509718    0.3377720588464150    0.2435374624876073 V
  -0.0031839868871045    0.6667728205598904    0.7567422023899517 V
   0.0022363486241838    0.3297065277755368    0.4867901730542089 V
  -0.0024113622657822   -0.0029634764413543   -0.0038236514456276 V
   0.7563641941110280    0.1665446921857612    0.4935419895569984 V
   0.4199362143628542    0.1159923892461812    0.9222175179949604 V
   0.4187391042124255    0.5524918172436108    0.3287654374512228 V
   0.5809539490810857    0.4453541328548667    0.8371587831009214 V
   0.5824835218276240    0.4431042238344716    0.3249460034789086 V
   0.0839426519639072    0.7749058170203167    0.8289015331436861 V
   0.0770857091655580    0.1175824004787987    0.3240038348747246 V
   0.8362272728284034    0.7219511341569762    0.8297180717158407 V
   0.1737193098410147    0.2800667251039629    0.3240115514994248 V
   0.6614674886728288    0.9498777280640649    0.3267354832535731 V
   0.1704082831505439    0.2798862309707741    0.8296357445198954 V
   0.9137555630515752    0.7771721497895659    0.4184550260567300 V
   0.1673196240298688    0.9438538325672290    0.8280965464967215 V
   0.1737879158366495    0.9472444982220780    0.3239399972311770 V
   0.9114058266571542    0.1125778683002892    0.9220667760254394 V
   0.3306591996270937    0.2823931793684853    0.9281383678187360 V
   0.4193323061169882    0.4470416485791529    0.9311215830719672 V
   0.4183445031503764    0.4541853324993722    0.4226742599383815 V
   0.0799644259514683    0.2174627720241461    0.4136757921415115 W
   0.0002638137196234   -0.0001365968926656    0.5083183506586784 W
   0.6673970786719363    0.2838406799117785    0.1696257635733453 W
   0.0021514754945302    0.6662644808574198    0.4904745660368757 W
   0.5049171775441131    0.0024786602558038    0.5029786893212780 W
   0.8256003419680127    0.7159827736156297    0.1732932488500724 W
   0.6687137798615881    0.9511773468365948    0.6763187615736774 W
   0.6734358075333694    0.6097141660083923    0.1749103373917911 W
   0.5966543377261737    0.8887631578113746    0.5791901014608468 W
   0.5043461082824783    0.6691135078584959    0.5036239225061068 W
   0.3176394807150796    0.7104650580645446    0.6751936832826138 W
  -0.0023494595341716    0.0002033922679611    0.7512406329021060 W
   0.0012932443706042    0.3354577404606243    0.2444703316423463 W
   0.3343120325677643    0.0548144662745824    0.1679462785023894 W
   0.0008307672678217    0.6641033288662129    0.2529937301930230 W
   0.9176802625070108    0.5545540755468658    0.1728869149859317 W
   0.9098823666119770    0.2241853480385963    0.6769779503425043 W
   0.0816431234565873    0.8848390655850572    0.9213359225797365 W
   0.4208672652780985    0.8902649088667537    0.1715082495020627 W
   0.7437998076021698    0.8296676212172686   -0.0008753168209856 W
   0.8294966109889076    0.0548905288104172    0.6766505863308356 W
   0.2532010684604870    0.1635816202536852    0.4965120282043146 W
   0.2468894066626406    0.5046715466182670    0.0023582074572071 W
   0.5733147258745237    0.8835633658402413    0.0757410915305168 W
   0.5809389984376774    0.5471390084317818    0.0818983268506830 W
   0.3317995977127680    0.9480133254539727    0.4224404126358743 W
   0.0810499672302562    0.8863388394250666    0.5785916164393455 W
   0.3284449896632816    0.9408524998249506    0.9217857319042260 W
   0.0832364603898902    0.2275547886619576    0.5803602362887825 W
   0.8365083389004332    0.2763993224541570    0.4176974202456799 W
   0.6668922082785151    0.7199722348845576    0.0758739485632382 W
   0.8235390462397975    0.6135893311894646    0.9271795891790516 W
   0.8330619964009539    0.9503573526339835    0.4180121125191161 W
   0.6693975064639989    0.0551980121027050    0.5797116427424639 W
   0.1668858828912781    0.3827012226735173    0.4189994433828444 W
   0.6578089687461124    0.2813724887755359    0.8314613207392382 W
   0.8354880865380419    0.9431592361069387    0.5835686277918405 W
   0.8297797786184671    0.2827844105469962    0.0758386121391583 W
   0.4216171812028709    0.8952618772628670    0.3266720937734273 W
   0.4182078419933170    0.8816592624967718    0.8259082112098295 W
   0.5805960963265161    0.7775623043069820    0.1735757302047746 W
   0.5813420741068127    0.4454016480808460    0.6710630444913249 W
   0.9214789262009675    0.8892237853406397    0.3223462421974737 W
   0.8342949247707807    0.0551537507158337    0.8285670017030852 W
   0.2541549959724136    0.1699126686315666   -0.0009543861408099 W
   0.0845308010696246    0.1165091145631801    0.1733828426156889 W
   0.7432855741641434    0.1701408586547074    0.0009970203767229 W
   0.7511071070976505    0.5014139474257681    0.2519984795146725 W
