K16 Na16 Sr16 La16 Ti76 Nb4 Bi16 O240
1.0
  15.8057224040287050    0.0017010093680756   -0.0048169167807080
   0.0017003055908990   15.7933140089864406    0.0042741898334316
  -0.0060226398016297    0.0053428923927696   19.7718783167829883
Bi K La Na Nb O Sr Ti
16 16 16 16 4 240 16 76
direct
   0.0269771538939131    0.7715055114721456   -0.0012445241151880 Bi
   0.7556845692671614    0.2376121610676370    0.0220261994712867 Bi
  -0.0242334549646473    0.7465081740732381    0.4192502740272483 Bi
   0.2728292122655803    0.0198242247985712    0.1917584835734141 Bi
   0.5021615153993894    0.7707611581303596    0.2119230377990473 Bi
   0.7265701952806561    0.2477837715638256    0.7830652800159107 Bi
   0.2498835964571126    0.7759411412228328    0.1964254867771860 Bi
   0.2461072986007593    0.2808285766060823    0.4036364709742963 Bi
   0.2546069727558388    0.2728609230177500    0.1892178783466681 Bi
  -0.0059129990505916    0.2480502913135255    0.4260453211247227 Bi
   0.7776203139945763    0.4923508362630269    0.1955481927092790 Bi
   0.7376532431803661    0.7670664999268989    0.0082176879529196 Bi
   0.7704495477041953    0.7414639647333009    0.2156483403509874 Bi
   0.7334599150595508    0.7564619588764773    0.6231022355779254 Bi
  -0.0153178079490348    0.2531334565221104    0.6268012085801206 Bi
   0.7499780804823305    0.0230110067313841    0.2157911927191358 Bi
   0.2492040181826201    0.2511453533178351    0.5996522376078036 K
   0.4998440460740584    0.2523214241851295    0.6008577213366655 K
   0.5008330822753889    0.2484998136052321    0.1979781723084643 K
   0.4999175560461077    0.2479815252689712   -0.0011922904405290 K
   0.2539858016996810    0.0004704869166957    0.3990898487322916 K
   0.2484777011455494    0.7506029398041258    0.8030611268015531 K
   0.4998017267743672    0.5049997459438440    0.5999644583387046 K
   0.7498565376585099    0.2508107241937059    0.4009287674101858 K
   0.7488639696797950    0.2503554435819321    0.6002881903695549 K
   0.0018917999366847    0.5012639836436048    0.4032540882448333 K
   0.0012710560452695    0.5007578959335712    0.0022139109285805 K
   0.4969442396014749    0.0016781049848236    0.8001910369639058 K
  -0.0003930485710556    0.2506553558313283    0.1995866074255560 K
   0.0013606982784121    0.2515348681672172   -0.0013385281972252 K
   0.0041705945894126    0.7487750360324035    0.1984876726955373 K
   0.4966487771066025    0.2463661949908873    0.7992779219457504 K
   0.0065299887104044    0.0078373749984732   -0.0034697810448203 La
   0.4901909712285951    0.5029094892350264    0.8025367039982075 La
   0.5040353919547481    0.7515544921320808    0.4099792002704428 La
   0.7487332205067895    0.0032071469476981   -0.0022366242171036 La
   0.5015781506488621    0.0049922137395132    0.4068138886393932 La
   0.7529615803449112    0.5000141085869449    0.0030060797558615 La
   0.5051811655519193    0.5038515621620706    0.1981971890961805 La
   0.7461956801390405    0.0018350090815198    0.8011452002274647 La
   0.5048958814437221    0.5030293968119682    0.4044785750837478 La
   0.2510141900541483    0.5091681174096568    0.4012107477948963 La
   0.2515483360558120    0.2483673371866658    0.7996533105166299 La
   0.2465610732105153    0.5051340003718893   -0.0040467937870121 La
   0.2492661211556152    0.5045408181695918    0.8004149073811414 La
   0.0033796166936560    0.5019856507735353    0.8037991844091993 La
   0.2527916772460533    0.0054099175466430    0.7985908312354515 La
   0.2500687090440840    0.5107321211381877    0.1960404818353953 La
   0.7419079808524884    0.0021567499948002    0.6052861184770395 Na
   0.0029672404847145    0.7647784422479098    0.8033393907349123 Na
  -0.0092382428045871    0.7572666394377235    0.6092084613137982 Na
   0.5018288310859857    0.0095015218047271    0.2018066347578598 Na
   0.0073282148856131    0.5005339213422947    0.1997211635520904 Na
  -0.0053389724706653    0.2571480050773286    0.8052743827701323 Na
   0.0023265007875445    0.0065767403319708    0.8039617812462602 Na
   0.4962131035075100    0.0025688032871679   -0.0063244379402060 Na
   0.7502608256525947    0.7485700199222138    0.4078975852910102 Na
   0.7560626503935441    0.2534273311199993    0.2066661374270747 Na
   0.2544833892955476    0.0060709347746535   -0.0095369348598678 Na
   0.7412446204902884    0.5101698579328714    0.6049632774496504 Na
   0.4935992740883864    0.7566167792446118    0.6117332341783565 Na
   0.4913184316719130    0.7515585211182390    0.8027674056289849 Na
   0.5043050931998619    0.7525205023552229    0.0012315560502663 Na
   0.2543784925462036    0.7609042423540435   -0.0023914705061322 Na
   0.6243083765249717    0.3722955160241145    0.9006148990770347 Nb
   0.1287170895558175    0.1293834088884625    0.3027461399988275 Nb
   0.8758197409848120    0.6293064516190793    0.9002498296798105 Nb
   0.1267718361397185    0.8741424023583969    0.5021011946761882 Nb
   0.6155379569376318    0.6196639528004841    0.3959769508817093 O
   0.6115666969273640    0.6296213344698867    0.1969922986300099 O
   0.6289326891742720    0.6045229903862679   -0.0042910482758737 O
   0.6292467741262120    0.3672252596713242    0.7979248126083303 O
   0.6254533712103886    0.3788061841974641    0.5994662633098028 O
   0.6223798922514306    0.3816927545463353    0.3969860162256628 O
   0.6357913198554115    0.1271214342208039    0.8002248262993964 O
   0.6309193479976957    0.3918161443964722   -0.0011036192681126 O
   0.6295447383146675    0.6280017853375446    0.5990146658809939 O
   0.6247824459441822    0.1163570524273850    0.6006767328136219 O
   0.6243525007146967    0.1153297992403215    0.3967974411337339 O
   0.6307611114351541    0.1179341681949631    0.1972666753260572 O
   0.6336504337141901    0.1174694661894102   -0.0024148983587910 O
   0.3799600730809917    0.8713295367514701    0.8011212490979513 O
   0.3704495535068945    0.8731743656125188    0.5994339436814315 O
   0.6141116680555526    0.3776739110221823    0.1993076732597298 O
   0.6249618595994825    0.6334163914603089    0.7983424207496426 O
   0.8685696813448691    0.6313814266131297    0.0003206336661709 O
   0.6244808251561770    0.8570109337649353    0.1960193049303764 O
   0.8735180456023209    0.1169583793035282    0.3979770306761763 O
   0.8825197703707003    0.3959943479483797    0.7988412762686475 O
   0.3935762478738395    0.8772629864726774    0.3944147441285414 O
   0.8868693865170680    0.1355112001750051    0.6000560329132858 O
   0.8858838335537892    0.3602905438961815    0.5991079124546556 O
   0.8760149258773801    0.1008211575193097    0.8008321364900316 O
   0.8741812839722936    0.3797184073282380    0.3983869955701450 O
   0.8726475379655015    0.1096330419237895    0.1961211516754326 O
   0.8634384360301421    0.3641970244867310   -0.0006664933156116 O
   0.8667228253042076    0.1395138618092028   -0.0028578752880496 O
   0.8594523281469624    0.6169866051837002    0.1983018088509049 O
   0.8805662681681183    0.6292879462538347    0.3960604528411432 O
   0.8723946067945975    0.3851783005484676    0.1976916409125376 O
   0.8800446327004375    0.6359434150767518    0.6005277374391169 O
   0.6220205551406532    0.8675878038089487    0.7998956243981526 O
   0.6375410177744647    0.8736751733884511    0.5999791598743754 O
   0.6089492787721594    0.8769006402926619    0.3950391642263456 O
   0.6443712940378432    0.8778735795118311   -0.0033400998958433 O
   0.3734894494682324    0.8489768280558220    0.1986293077789310 O
   0.1216296433694005    0.3833938949202102    0.7994426074377901 O
   0.3748876154019665    0.6212489478905420    0.8006863899744189 O
   0.1369948465671626    0.6246187228386991    0.1975338380726336 O
   0.1290809579893396    0.6166677917004044   -0.0019787435848427 O
   0.8757673868617674    0.6029420064507021    0.7978273756196139 O
   0.1256441387753324    0.3716473863102876    0.5991887039303142 O
   0.1437667828407769    0.3823184417463626    0.3969327141405247 O
   0.1328533443702739    0.3684514574035935    0.1996904179020856 O
   0.1378953976608985    0.3741266236393704   -0.0001670017131628 O
   0.1351188334325530    0.1163372850427766    0.7995525220044564 O
   0.1223425275228487    0.1265800670203786    0.5979557375374993 O
   0.1211272407328380    0.1088471684917589    0.3994166553136351 O
   0.1229586789277035    0.1228907390079473    0.1985766166384084 O
   0.1246095234286896    0.1215128164496335   -0.0010272454623439 O
   0.8731564530089655    0.7495455419147488    0.8840910023309384 O
   0.8919047312223605    0.7491476501562884    0.7134708261909398 O
   0.8696209986989347    0.7485228126913624    0.4903223703411710 O
   0.8805713207371112    0.7473452335602649    0.2862797755401804 O
   0.8616136981854503    0.7468973227322891    0.1081021933902443 O
   0.1340571367841585    0.6154262698569848    0.3975524692222274 O
   0.1269092406312868    0.6247782266612187    0.5993572537406360 O
   0.1277729381306225    0.6111604514802413    0.7992986512741396 O
   0.1296673961713229    0.8716858778687622    0.0004623648200172 O
   0.3722259387457766    0.6251762129418511    0.5989854903900842 O
   0.3772656008685445    0.6143699584559680    0.3964372861628473 O
   0.3735139107765464    0.6243411150347521    0.1973278850696810 O
   0.3686120558470227    0.6056979405537538   -0.0016519430748998 O
   0.3753832570449158    0.3734382064374605    0.7998223247643432 O
   0.3723140809507221    0.3799597318968224    0.5997884294125979 O
   0.3622279256708100    0.3781933052688148    0.3973155181588326 O
   0.3701502669723726    0.3646071234300814    0.2001043581102967 O
   0.3665164838876680    0.8889097021951554    0.0007112445031601 O
   0.3613101920520399    0.3859416953572828   -0.0001623362478655 O
   0.3769445889314947    0.1181101093949978    0.5989904313137532 O
   0.3847743077045211    0.1139015214202301    0.3987615287392515 O
   0.3629095655259325    0.1290104652874486    0.2012044340083434 O
   0.3717378261935328    0.1175307789242298    0.0006075584374407 O
   0.1165193990979483    0.8802363548242720    0.8006872790266141 O
   0.1303588982207402    0.8698612062024267    0.6005814648114476 O
   0.1249784762301155    0.8782123814641344    0.3976503215299353 O
   0.1256810712289018    0.8613748863801820    0.1977729301031954 O
   0.3633853391032057    0.1268053517380724    0.8001417022582014 O
   0.8559096941711839    0.8571676136153167   -0.0035502430607439 O
   0.2506525337211913    0.3769053944760680    0.4958202976672382 O
   0.8822266062603518    0.8709336065034010    0.3962217742786426 O
   0.5005385259281849    0.8863435229864089    0.2820424927587828 O
   0.4997260922881615    0.8631243591513489    0.0964407458096329 O
   0.4986623366288157    0.6278513878219834    0.8995704432120648 O
   0.4996633087912695    0.6120455893706220    0.7056214361817313 O
   0.5007347918794538    0.6294873675337116    0.4933494319693891 O
   0.4952311066306471    0.5930290275496556    0.2975227944424696 O
   0.4955177695831386    0.6290523310909746    0.0923678656342541 O
   0.4984348279912175    0.3742927913653287    0.9011180319712837 O
   0.5012345256332614    0.3874739294276623    0.7049240038665729 O
   0.4991850396551359    0.3736481034664464    0.4921112085101352 O
   0.4948065031297841    0.3992725792827707    0.3015983421323082 O
   0.4972064814969929    0.3686931603135256    0.0947440424684976 O
   0.5002848364127026    0.1249273861913644    0.9003492960839549 O
   0.5013792382111771    0.1151924528723522    0.6993260322775563 O
   0.5027337831801046    0.1235745924169539    0.4959322610269700 O
   0.5021115971479483    0.1048137861938898    0.2997929001659511 O
   0.4996477529059659    0.1279053478940558    0.0990912999808284 O
   0.5025426545046843    0.8623904421823170    0.5027898786330713 O
   0.2488280774053873    0.8849550340240102    0.8918177778087070 O
   0.5011027867050821    0.8854980986924994    0.6926949388760334 O
   0.7498430740866170    0.1163863738229662    0.0902632437715529 O
   0.7501363526977416    0.8826577611245011    0.4915855890409723 O
   0.7471857563051318    0.8476345940963034    0.2988976356776587 O
   0.7486295396787225    0.8759165131513790    0.0951426294725258 O
   0.7494444293386793    0.6143448974852195    0.8961930232987405 O
   0.7532190116308107    0.6446848265992744    0.6998771547445993 O
   0.7514198647541612    0.6144307850092906    0.4966062810984032 O
   0.7430606868942199    0.6450393684965509    0.2984124258961474 O
   0.7437495883643001    0.6084188290144826    0.0971927680041813 O
   0.7509464723210826    0.3897263540416143    0.8969442906955981 O
   0.7524528168394836    0.3619681093010929    0.7062759783475411 O
   0.7517825191597020    0.3835264320435198    0.4997068452079826 O
   0.7491708215259392    0.3672308098836595    0.2941288707953201 O
   0.7453106665310153    0.3895401463525838    0.1003180965088459 O
   0.7545605353554489    0.1039716021319961    0.8969519518556778 O
   0.7548829473882646    0.1358381087987839    0.7064300507679241 O
   0.7519185613926157    0.1135902019748454    0.5020879696008674 O
   0.7499227712765233    0.1286941756957564    0.2910069316198015 O
   0.4997991669693613    0.8700225226508885    0.9083833550129492 O
   0.8767622250561268    0.8842715504942340    0.1943488393328386 O
   0.2500717759205394    0.8700707192856656    0.7037163274213435 O
   0.2536020959087435    0.8513521134509475    0.2952468066225475 O
   0.0014380197481170    0.6190453078736015    0.8938736848190066 O
   0.0014584909141707    0.6045672912868769    0.7030061908982861 O
   0.0025551784185452    0.6395830493239932    0.4961113165008227 O
   0.0020750615852144    0.6090862068265108    0.2923251919670781 O
  -0.0017337008058996    0.6259166741831805    0.1014589150363295 O
   0.0002106939593122    0.3729369230878571    0.8985909790449974 O
   0.0011744399808729    0.3825835497242330    0.6964861448127259 O
   0.0035388927959891    0.3647203549981528    0.4935321122810717 O
   0.0009900178105093    0.3893284768479058    0.2971973330816010 O
  -0.0007648132328505    0.3690047327996539    0.0984485468019692 O
   0.0001489186024947    0.1240559081690330    0.9018520469573640 O
   0.0021477116170781    0.1145919817856425    0.6988320364407946 O
   0.0009198553717940    0.1319190777369287    0.4925532287421793 O
  -0.0046202252109295    0.1047355811310669    0.2986180387472341 O
  -0.0027224921193409    0.1238080111411549    0.0948149212063938 O
   0.8812618860021167    0.8953308046569783    0.7999777593190127 O
   0.8691199185041688    0.8618555218492555    0.5997998086919659 O
  -0.0034714067017102    0.8673594614908028    0.0833844377645399 O
   0.2535476280583425    0.8785736581428863    0.4971559507924155 O
  -0.0012361016949773    0.8885625409340286    0.2967641800935355 O
   0.0000927189184751    0.8873269428888121    0.6929061237124798 O
   0.2494675861072302    0.8814768186113062    0.1119242605887478 O
   0.2496126657170037    0.6110141212991599    0.8980201567561947 O
   0.2503647153030915    0.6279472199633483    0.6990062422611770 O
   0.2526582168195324    0.6129105683483891    0.4968200606130330 O
   0.2529759558715792    0.6375597385472052    0.3000091148815701 O
   0.2493529238053012    0.6056350544197672    0.0958158965906879 O
   0.2493491637337934    0.3819768249514756    0.8912118750360082 O
   0.2499737056093096    0.3651889708863144    0.7086234811336631 O
   0.8767556405918211    0.4972966945371900    0.9098345993417046 O
   0.2498119683929050    0.3449308031691894    0.2955514320280824 O
   0.2497798251949196    0.3816903717588446    0.1084879081525650 O
   0.2490213120598359    0.1187090280170620    0.8979244820518757 O
   0.2502680043054894    0.1284269796686713    0.7013318267619201 O
   0.2513053950352652    0.1168373446701810    0.5011303543190717 O
   0.2517842902165038    0.1363123267314777    0.3031698215782049 O
   0.2480499404279020    0.1059046134053741    0.0994494203223182 O
  -0.0002839281104840    0.8705750337113939    0.9169815344459031 O
  -0.0001507315882651    0.8574493730372903    0.4978036854748606 O
   0.8627358851422079    0.4988934346994582    0.6872843863407490 O
   0.3676300751229399    0.7501633881628388    0.9087784518144224 O
   0.8553120348118718    0.5017460531294154    0.2980090770246697 O
   0.1158123265935867    0.7486553042072721    0.7023314187359032 O
   0.1237808559696283    0.7485860435883634    0.9040559209028739 O
   0.3797292964764810   -0.0030443313380717    0.1172990193232457 O
   0.3628131761451560   -0.0038980156521490    0.2891342048605137 O
   0.3898694076930699   -0.0047640430754466    0.4993608662959827 O
   0.3631592621700523   -0.0017522134993682    0.7027615005245968 O
   0.3731134393287499   -0.0005394954549080    0.8936662243040733 O
   0.3580836234840006    0.2463093576086340    0.0962591727987431 O
   0.3952602782043972    0.2480134116840293    0.3078397033721970 O
   0.3736277690847913    0.2481071277978760    0.4932672000641879 O
   0.3764990442344925    0.2488580787601080    0.7011181687713508 O
   0.3615094669687584    0.2500633030802001    0.9005705253629561 O
   0.3829842801709227    0.4953721239215622    0.1105695207978966 O
   0.3477104252710693    0.4949225749681247    0.2937958601666689 O
   0.3802231656312775    0.4982905409369390    0.4934731714742740 O
   0.1419504224564161    0.7464931170987259    0.4963702985188271 O
   0.3627628194771235    0.4975411787407508    0.7069148389741091 O
   0.1148320894693556    0.7474099915712880    0.3059772148834660 O
   0.1253788611207196    0.4966897984895797    0.8987678937907115 O
   0.8844796684478030    0.5002076614980713    0.5071798370841688 O
   0.1083315379580406   -0.0039507315016266    0.0999506631583895 O
   0.1351643806665344   -0.0062686797359317    0.2904709183908944 O
   0.1142482177931767   -0.0018076556727470    0.5059847271992257 O
   0.1373938477254322   -0.0018541468040407    0.6971351593502925 O
   0.1182358501038839   -0.0011588366442260    0.9023674935061661 O
   0.1401325273991220    0.2466062223420923    0.0990561105360552 O
   0.1089169022984758    0.2487691663034900    0.3088034547590692 O
   0.1285175908538971    0.2483200537269138    0.4848228701522431 O
   0.1167251664997056    0.2478745420893411    0.7068123599423678 O
   0.1361646003079236    0.2490806599096198    0.8928585207671286 O
   0.1236723926189208    0.4960107415411732    0.1017461694587606 O
   0.1505079341368602    0.4960630225068707    0.2947324658572424 O
   0.1219847270107200    0.4987844173591193    0.5046113669464729 O
   0.1366237985604282    0.4964795303184005    0.6979514831470028 O
   0.1294143348406600    0.7472348163894831    0.0907306307954591 O
   0.3789857120578392    0.4976647806494957    0.8914545671116566 O
   0.7528258826547070    0.8863787890251275    0.8883219713515157 O
   0.4035730582637210    0.7443566192173401    0.3051830680705619 O
   0.5926315661036790    0.7463766002918087    0.3024121521142329 O
   0.8693960411559137    0.4984063156205537    0.0959692374859368 O
   0.6194125803554555    0.7505237197326078    0.6918285248990871 O
   0.6371804720323120    0.7488441248269810    0.9088645281164099 O
   0.8796064987369357   -0.0017369708379421    0.0805688642118578 O
   0.8511870794467988   -0.0063161747902912    0.2991076863515533 O
   0.8872996605712369   -0.0029534718301950    0.5040669884673976 O
   0.8603877600773930   -0.0014402606016640    0.6893827900203220 O
   0.8824486189843564   -0.0029732844162967    0.9202598707228941 O
   0.8563526048606503    0.2494175058225112    0.1040620353528351 O
   0.8838740247444182    0.2495380773703317    0.3002981944274762 O
   0.8775564967419623    0.2485339724631676    0.4915303786092834 O
   0.8929084354287514    0.2466623026386975    0.7083832065542049 O
   0.8668736389387562    0.2499473112523792    0.8845030686107682 O
   0.3597345763027024    0.7493224101871390    0.0893449020709358 O
   0.6315290257019790    0.7464277516408027    0.0845814049158474 O
   0.6129618216478779    0.5012914383862656    0.8843714822224158 O
   0.6316518653598381    0.7484278126811525    0.4914524298598465 O
   0.6192823940329145    0.4997910724220245    0.4939707749248811 O
   0.3706800112979396    0.7476192214459664    0.4904533155764476 O
   0.3819213766963979    0.7487114603258979    0.6982175716711972 O
   0.7535894389228207    0.8548992272458967    0.7051302641932549 O
   0.6203099570391105   -0.0033391864702363    0.0978665702393687 O
   0.6359835500885368    0.5010768542839216    0.7046631123399963 O
   0.6143289850907968   -0.0051283122686072    0.4956873112896144 O
   0.6412756468972594   -0.0023088479722121    0.7052621694241170 O
   0.6468560266745338   -0.0071490434140144    0.2961307277089054 O
   0.6382192240430828    0.2491768154785441    0.0948129400469914 O
   0.6118656092684435    0.2490593871218718    0.3026914692765162 O
   0.6268742633935485    0.2477650615853978    0.4975682503567526 O
   0.6258599649015142    0.2477449829017648    0.7024865361167241 O
   0.6350735835218102    0.2481948242679389    0.9032136453572995 O
   0.6065067043588472    0.4991475722994481    0.1040199472332953 O
   0.6374193668885955    0.5009581981717431    0.2954775864226180 O
   0.6257043666334909   -0.0029558456115133    0.8963677223240269 O
   0.7435611330311811    0.7522963655681616    0.8044978437052236 Sr
   0.7474247377095848    0.5014772682147477    0.7984020581113349 Sr
   0.7500587047804872    0.5022566063015467    0.4008459108473017 Sr
   0.7485533962937322    0.0037824087833202    0.4052089661730080 Sr
   0.4988645167036969    0.5028405477653038    0.0006753830517050 Sr
   0.5051130669968663    0.2537008918312740    0.4053834670438300 Sr
   0.4968344965250340    0.0025212193157769    0.5997335862707779 Sr
   0.2503507726408925    0.5053475066512160    0.6035790551887316 Sr
   0.2501576160855858    0.7506753536528505    0.3993609245817661 Sr
   0.2493974976416171    0.7518177402569155    0.6071974939704547 Sr
   0.2490461981219717    0.2455119277199291   -0.0032424579128959 Sr
   0.2517312380426439    0.0034828718053499    0.6030265686850825 Sr
  -0.0018586759890332    0.5033080740749255    0.6030799989434432 Sr
  -0.0014031942150763    0.0047428858907633    0.6036234698712194 Sr
  -0.0016542696229348    0.0011522031529939    0.4050631146128478 Sr
   0.0023707438018770    0.0016279033776390    0.2007480928315698 Sr
   0.1205276013561127    0.8782762067938867    0.3016047895637167 Ti
   0.1202979182610581    0.8784060849539489    0.7039471079726699 Ti
   0.1320531410764688    0.8820820623390845    0.8960301045786474 Ti
   0.3804250793045726    0.1269657922354859    0.0933554855069053 Ti
   0.3799108856836768    0.1337163607089748    0.3025842529908958 Ti
   0.3743305864212393    0.1205945149455783    0.8988784245862885 Ti
   0.3731594817594237    0.1301293825109960    0.6965790288837643 Ti
   0.3804461955812975    0.3775589801877208    0.0956685557656803 Ti
   0.3787311142479545    0.3770295097554848    0.2988388108684153 Ti
   0.3796172879634497    0.3790289546775392    0.5053654424388648 Ti
   0.3734873609980321    0.3758941567463777    0.6996689669293449 Ti
   0.3735791263094394    0.1301185867974654    0.4993519029529678 Ti
   0.1303836425141584    0.8824249680210944    0.1009300651819033 Ti
   0.1232625711268294    0.6274116747954782    0.5037000169400910 Ti
   0.1210293653406652    0.6325395682559369    0.7023929003712054 Ti
   0.1260872841685771    0.6329233548472237    0.3016047993691349 Ti
   0.1278738832010782    0.6292099112327346    0.1008618959017962 Ti
   0.1198097849399935    0.3758089481295580    0.9006174209932696 Ti
   0.1247346261460363    0.3777209954603866    0.7023640958957202 Ti
   0.1239355162149219    0.3803215583843163    0.5058865133526423 Ti
   0.1205176334826984    0.3812537441880279    0.2969747098466253 Ti
   0.1225473417016759    0.3798891067353135    0.0978697851574701 Ti
   0.1220495335982332    0.1283272471709124    0.8998750398010458 Ti
   0.1215226857800659    0.1267941364959704    0.7028901256267074 Ti
   0.1300197796208333    0.1263080469734677    0.5033356061851353 Ti
   0.1288044996569187    0.1293828123474547    0.0998356950902768 Ti
   0.3716070658013917    0.3727032193784396    0.8980698081417138 Ti
   0.1266628821052932    0.6298539182042481    0.9024160342430358 Ti
   0.3774605059456438    0.6344188989613766    0.0966733923684228 Ti
   0.6188359531235854    0.3811373531605778    0.6953570269662275 Ti
   0.3756073647585857    0.6282830628609145    0.5048298980224667 Ti
   0.6164189614671147    0.8761634187939916    0.8993268830110318 Ti
   0.8795858578185172    0.1215827659145381    0.1017576800402676 Ti
   0.8788978563214390    0.1311706262759798    0.3059612886059469 Ti
   0.8693861212241613    0.1238222591652326    0.5072667153318160 Ti
   0.8734491671935942    0.1186095608069360    0.7073452308752611 Ti
   0.8734128549762354    0.1335781953035040    0.8979644241680299 Ti
   0.8822362610462232    0.3732512146536148    0.1006300816897573 Ti
   0.8814705152109161    0.3730253156323027    0.3057333950027413 Ti
   0.8693431834498400    0.3794068751720325    0.5046408888944797 Ti
   0.8736019749542834    0.3742986568993721    0.9016427168502456 Ti
   0.8825444999255653    0.6286082993073914    0.0989693993755888 Ti
   0.8877972469599936    0.6196713082177370    0.3023671858714535 Ti
   0.8672871999168223    0.6236989284721510    0.5088479403502905 Ti
   0.8774405335362025    0.6342437574558113    0.7023030795437660 Ti
   0.8729095418854084    0.8742080279050524    0.1018139905916576 Ti
   0.8781944266674628    0.8755513659870461    0.3030596324224333 Ti
   0.8661137883101329    0.8759687130936109    0.5090690369980054 Ti
   0.8799368236436517    0.8789705230483489    0.7062769341752043 Ti
   0.8743786866454397    0.8803652034383218    0.9014076534971227 Ti
   0.6150063652975367    0.8783843023149990    0.7044697173154790 Ti
   0.6272583621502832    0.8760692177862613    0.5057177296417863 Ti
   0.6299542886517000    0.8748956644248433    0.3023045239606000 Ti
   0.6224719517635215    0.8796220764416999    0.1031436215546103 Ti
   0.3721699337291158    0.6325601571155151    0.7030252878051341 Ti
   0.3750674286695094    0.6341537657687235    0.9033039322527142 Ti
   0.3812758187477199    0.8771561992193647    0.0919474608230696 Ti
   0.3777346501046970    0.8820646817572886    0.3006455607507267 Ti
   0.3778155013245281    0.8763634786474985    0.5068900348232740 Ti
   0.3714805111886979    0.8760087963969357    0.7068812030301441 Ti
   0.3769013043036029    0.8770558723987826    0.9014712063152117 Ti
   0.6197435262639667    0.1224428984594928    0.1024049369796138 Ti
   0.6212732600596844    0.1334669320266962    0.3018844998375182 Ti
   0.3768828967048484    0.6283715265481208    0.2987707637075302 Ti
   0.6253705086535122    0.1308077733847755    0.5047225179434538 Ti
   0.6179150248907950    0.1221647956989713    0.9018195901638143 Ti
   0.6255889677544632    0.3756208624634232    0.1054653069471843 Ti
   0.6342050760918776    0.3771466694224052    0.3003360975984942 Ti
   0.6278341478596967    0.3803449300025998    0.5033721060235123 Ti
   0.6254930131599912    0.6264546108010991    0.1013913030765211 Ti
   0.6258174858404065    0.6246865184747735    0.3010691060171494 Ti
   0.6266192105656503    0.6292839995217278    0.5060528253363679 Ti
   0.6164253296012091    0.6252986772554237    0.7045995085189244 Ti
   0.6206862976160252    0.6281361070971041    0.9025867806481052 Ti
   0.6175187915893344    0.1227007686498685    0.6973623458448992 Ti
   0.8695331942075263    0.3853104648616244    0.7038047516145610 Ti
