Ba40 Sr40 Hf27 Zr26 Ti27 O240
1.0
  16.5312056547499608   -0.0013387474692307   -0.0004549545575931
  -0.0013387076696104   16.5284317437904598   -0.0011051721754757
  -0.0005686209824531   -0.0013811373308363   20.6530403681492878
Ba Hf O Sr Ti Zr
40 27 240 40 27 26
direct
  -0.0067588753225224   -0.0054943596803725    0.0027107070633743 Ba
   0.2505567350753423    0.2540124134902780    0.7969190645971305 Ba
   0.7505008500526472   -0.0025627558758029    0.8025074230089385 Ba
   0.2451057599158830    0.7507250649951506    0.0033930034570581 Ba
   0.2485230411526578    0.7498443573538557    0.7985842148231576 Ba
   0.4999610219337997    0.0068380435101897    0.4001343504566822 Ba
   0.5025523585552434    0.2493756706355556    0.0000204050129758 Ba
   0.4971562198699090    0.2496866894082693    0.5956987905739684 Ba
   0.5023583501994218    0.2514884230945097    0.8014533311954449 Ba
   0.7507727870469523    0.7468515716378032    0.6031607816057862 Ba
   0.5031315324952236    0.5062328531031902    0.1983688991974716 Ba
   0.2549856584137053    0.2553536098700418    0.6003118431961723 Ba
   0.4999250387420884    0.5027869726879617    0.3999057840139044 Ba
   0.7547295269622545    0.5040032735571233    0.7966177388133071 Ba
   0.7463427475650992    0.5036164377092781    0.3975574924674712 Ba
   0.7496960002664995    0.5074797401707245    0.1956278776642634 Ba
   0.5007749893204446    0.7514378147062946    0.3983130318549634 Ba
   0.7504184725836911    0.2473726134645308    0.6010784577370718 Ba
   0.5028327345698804    0.7463423588670821    0.8011311585367856 Ba
   0.7521644387723851   -0.0029092291367331    0.0009811742835562 Ba
   0.7455035507514519    0.2452607426802498    0.3999954288958257 Ba
   0.7512145159524118    0.2497244748920929    0.1975890451138479 Ba
   0.7487338076120378    0.0020616726861729    0.5997548506715499 Ba
   0.7478334066474184    0.7506966396950155    0.1963499347230935 Ba
   0.2519903061420828    0.2519518979156956    0.1981995687320898 Ba
   0.2483239713925617    0.5014961305209384    0.3983980967875183 Ba
   0.2497921917553126   -0.0017052980019361    0.7985818253627881 Ba
  -0.0023793729390661   -0.0033765933924957    0.8011686819096353 Ba
  -0.0002783907165936    0.2538257372024682    0.0031118728209252 Ba
  -0.0010012626967419    0.2518077500177055    0.1974144694164104 Ba
  -0.0008786663451501    0.2507273537906700    0.6016696367917934 Ba
  -0.0034420713653066    0.5031181278510072    0.0016180871221984 Ba
  -0.0000737761274274    0.5042856906677174    0.1989367191819971 Ba
   0.0009751856175516    0.5038426457733548    0.3982940435428428 Ba
  -0.0024058452009132    0.7537833703062217    0.1992160215495237 Ba
   0.2475272227156675    0.2530867231853271    0.0038065172498784 Ba
  -0.0006514742055693    0.7524927493302690    0.3949497070800478 Ba
   0.7523616834592507    0.2517738562112092   -0.0002199787856811 Ba
   0.2496430024228374   -0.0004898368786531    0.5994995950239126 Ba
   0.2453457609934262   -0.0032066136031986    0.0036212768316203 Ba
   0.8757307856592497    0.8695257138628187    0.7034221405878399 Hf
   0.8749021267769952    0.3768078168760270    0.8989056451120226 Hf
   0.6262028193106154    0.8773862871053885    0.4994398910367751 Hf
   0.3779713846898757    0.6220566181714939    0.6988048600455532 Hf
   0.3734623455378843    0.8745908852806287    0.2965648322003432 Hf
   0.6241531725582696    0.8765604159419915    0.2968973280421912 Hf
   0.3734148237464556    0.6262164119222033    0.5010344191785729 Hf
   0.6255421448480066    0.6260734321146320    0.4998819126756420 Hf
   0.3733462101953294    0.6285974586992137    0.2992425538478917 Hf
   0.3747548473467645    0.8738300274785525    0.6979948827511373 Hf
   0.3760737977863399    0.6269231543101677    0.1010068080096635 Hf
   0.1267839168196395    0.6249693136573123    0.5007340144025272 Hf
   0.6224993425935946    0.3753571866747577    0.5013580878663554 Hf
   0.6237273207046707    0.3751643405220109    0.3002354199618344 Hf
   0.3768514157402280    0.1239346846523546    0.9002837366193743 Hf
   0.1207914599414638    0.1223429237304066    0.1014126895715410 Hf
   0.1234782227354829    0.1251996703127873    0.4971373165028528 Hf
   0.1251966849113653    0.1265586583831545    0.9002077940241996 Hf
   0.1265982029844687    0.3764904254713294    0.2992630114803122 Hf
   0.6269703514667030    0.3800285113677599    0.0987556732257625 Hf
   0.1272199256894104    0.3754412328461447    0.5014715460727930 Hf
   0.1233431212286073    0.3765608256667129    0.8985015882229564 Hf
   0.6263536100937490    0.1252991452095592    0.6997317221428965 Hf
   0.1224394018223778    0.6274317678067232    0.1021002598731336 Hf
   0.3767379812987363    0.1269279730614137    0.6984684301781189 Hf
   0.6274273542819293    0.3778891478834448    0.9003882270461800 Hf
   0.3734353158132332    0.8729576819591608    0.1019805519712687 Hf
   0.5015605072690653    0.3893611848573300    0.0906563064822828 O
   0.6329627561751987    0.6254971394442203    0.4011696917544374 O
   0.6229986830198213    0.6280231486649404    0.2044068045472769 O
   0.6301931528070726    0.6324676373750709    0.0040668074350101 O
   0.6192740848605310    0.3926536112975578    0.8013017398048822 O
   0.6198456780991634    0.3700708173822267    0.6011754429202357 O
   0.6262101746393610    0.3754827610593759    0.4010849452815135 O
   0.6172789877015621    0.3767925792375223    0.1994294561977239 O
   0.6126727784155697    0.6365171478435590    0.6049101290956717 O
   0.6304719973232294    0.3726311661004613    0.0000936117977709 O
   0.6233924771897119    0.1295594060465036    0.6000612770891645 O
   0.6305135189745923    0.1216550273882218    0.4039932637898429 O
   0.6136811092747011    0.1236462051891639    0.2035173937739479 O
   0.6295124355965779    0.1285722300382591   -0.0023268636451399 O
   0.3808880586761935    0.8711802393402117    0.7988701844729581 O
   0.3585925012776053    0.8670178850039434    0.5990555503828600 O
   0.3833237477174597    0.8845926919913001    0.3969299774399719 O
   0.6221993244749536    0.1178369139908095    0.8035336281253936 O
   0.6291026229252128    0.6187610639428648    0.8063052583606265 O
   0.6275503795847133    0.8690593116842713    0.0065300819945271 O
   0.6351531750375599    0.8752606724310316    0.1966460745788220 O
   0.8675908133406267    0.6209225176140011    0.4007433995504462 O
   0.8744249543551974    0.6286717111844216    0.1951861201065404 O
   0.8721279297859476    0.6268119650879813    0.0023559283000047 O
   0.8773851047334214    0.3838719834508931    0.7979284607699907 O
   0.8759976530620145    0.3736254824075028    0.6060631011695213 O
   0.8716753577863691    0.3805609563894655    0.4004207430944323 O
   0.8783463069130014    0.3733004049949071    0.1940629385173065 O
   0.7502075241505444    0.8976046650599623    0.4897377310678883 O
   0.8761016288454231    0.3746862236928031    0.0016932456074663 O
   0.8726377272692062    0.1242230098944064    0.7965175157964756 O
   0.8772536347559160    0.1291142853976003    0.6052837205560400 O
   0.8609268396808084    0.1038768313493034    0.3993105983347299 O
   0.8804821508381916    0.1187957906379801    0.1959173917934697 O
   0.8720974735648351    0.1227798892078292    0.0030370282320843 O
   0.6107360768657026    0.8832202646017868    0.8019720769080944 O
   0.6370017702237518    0.8703225933046219    0.5989349044526452 O
   0.6211539062332095    0.8800686010520883    0.3977198396196447 O
   0.3724458171315427    0.8474458453261589    0.1993264260824997 O
   0.3785092897319923    0.8952914841185117    0.0031739010988436 O
   0.3686990873957310    0.6222366851656169    0.7990647089711999 O
   0.3947665345665509    0.6251678076468171    0.6001653199638854 O
   0.1235721065736003    0.6218298095142203    0.2025044881754930 O
   0.1251553284643862    0.6209582047112049    0.0017671866956142 O
   0.1212300388422899    0.3683925108789872    0.7957517882754275 O
   0.1214919081349449    0.3873684400766390    0.6023227162712510 O
   0.1337925045677010    0.3616591150380047    0.3995024294762776 O
   0.1202394029479684    0.3794779601611571    0.1960141662644423 O
   0.1270266658186699    0.3801688871307093    0.0005317419495079 O
   0.1230723661198421    0.1300000248337475    0.7996376648413909 O
   0.1122716712557307    0.1103111202992331    0.5970398411789355 O
   0.1479527238063403    0.1353059196964443    0.3994481675816651 O
   0.1113175480870862    0.1098607801368089    0.2001828441492241 O
   0.1249117118796362    0.1238846809631754    0.0008814285008811 O
   0.8638025840940603    0.7502491657164925    0.9004568559238642 O
   0.8726496015846454    0.7470691012320392    0.7103231658236631 O
   0.8522027735473926    0.7513818354158442    0.4915939402697505 O
   0.8686830030701538    0.7577851041657859    0.3027086574790914 O
   0.8784128126493530    0.7475429382538350    0.0949940755389108 O
   0.1371407796442927    0.6336696697114896    0.3973837905953106 O
   0.8869497779967023    0.6382473038579144    0.6068498908160811 O
   0.1044822163288364    0.6116474790698899    0.5987552465899220 O
   0.1199330547272074    0.8702142470561576    0.0044239987172753 O
   0.3688243266568040    0.6165351345430117    0.4011392403270707 O
   0.3847199367954027    0.6445385741786521    0.2002910656976069 O
   0.3748132860181746    0.6022502433801321    0.0025004880457109 O
   0.3708261878376138    0.3771958934217101    0.7937466993215523 O
   0.3751202074942220    0.3750006605417393    0.6013519064836508 O
   0.3711459012610090    0.3785846904985242    0.4066802382343302 O
   0.3887491580991719    0.3595343518603921    0.2014557241686425 O
   0.3649413873026692    0.3917411138117988   -0.0008303812184937 O
   0.3782665861656300    0.1275393803710191    0.7990435322476396 O
   0.3800887292347145    0.1271703608291283    0.5977253820576499 O
   0.3682562091694832    0.1156295361733453    0.4044721420546166 O
   0.3938000440278493    0.1452265749755922    0.2019072887898270 O
   0.3756302552183775    0.1109455638486370    0.0004214915350579 O
   0.1179378005942353    0.8663443365151389    0.7951691581095913 O
   0.1245636651961208    0.8853487694433588    0.5998978113711110 O
   0.1232452557096513    0.8622695916804634    0.3934418105123340 O
   0.1263591835516857    0.8785289545075746    0.2011094896481871 O
   0.1326342769698177    0.6292573817219644    0.7986150034153759 O
   0.5052781578790581    0.1332987011967381    0.9024478707301157 O
   0.7553978293015960    0.8872524117796432    0.3012588029333280 O
   0.8758311920250597    0.8676848201793503   -0.0014543994791078 O
   0.5015613661683496    0.8640236623224719    0.5084307380871689 O
   0.4978788319478297    0.8686620673219708    0.6857147350108698 O
   0.2505986633168391    0.6203088997334676    0.6872102450556566 O
   0.5023560723018800    0.8573906063260172    0.9115596311872601 O
   0.2509754439891853    0.6099456284693052    0.5166206624824584 O
   0.2485698474284171    0.6156729940541479    0.2911326966320958 O
   0.2502082860086617    0.6328399873640640    0.1040498574933501 O
   0.2494287801836514    0.6007284526936734    0.9036592660828017 O
   0.2475711680620848    0.3984028592354146    0.8941542361646031 O
   0.2549532301509093    0.3788467317035640    0.5051425738569003 O
   0.2503972002388727    0.3891749021354016    0.2909097631022045 O
   0.2436985773194173    0.3748054313141462    0.1027988457676501 O
   0.2514545345283562    0.1134194439947614    0.8990061251804309 O
   0.2496991036700254    0.1251050823146477    0.6971492685220562 O
   0.7550212261247555    0.1204704205287590    0.1054488237106086 O
   0.7440610624448184    0.1111849768751955    0.2943382254213207 O
   0.2421114751658182    0.3803355653674158    0.6990038519958606 O
   0.5022757270662807    0.8621889791659305    0.2880800795529268 O
   0.5069283796210446    0.8785200798636078    0.1054153711048965 O
   0.2493658573058913    0.8690485325382050    0.1017611106591052 O
   0.5010633635449959    0.3553480086420934    0.3072266916377902 O
   0.5014055296283234    0.1270196762165092    0.7001931139719787 O
   0.5037382408064484    0.1309515834404011    0.4971336122520623 O
   0.4944382539786283    0.3683743044535249    0.4999652036835369 O
   0.4954965890202881    0.3816525513011620    0.7005130391899677 O
   0.5060096870763411    0.1380510627625690    0.3101891123469853 O
   0.5023121858529088    0.3642494118010935    0.9027254407297715 O
   0.5025161994309864    0.1053953391732488    0.0941049552047800 O
   0.5064786681367858    0.6207551411090846    0.0963709141289383 O
   0.2489398478993439    0.8831818998124282    0.9005627717948369 O
   0.5040437555055851    0.6365604537646312    0.3021442635489093 O
   0.2443655792895354    0.8737531488066556    0.7020858740361537 O
   0.5000273430014687    0.6369648883494522    0.4961714472700446 O
   0.2490976309501425    0.8922810527054080    0.4872399656449483 O
   0.5050263878603682    0.6186651247819123    0.7095362309197868 O
   0.2488881571616327    0.8879264968177025    0.2983925151644788 O
   0.5086625388319320    0.6373378624972003    0.9058207721236415 O
   0.2542671816144206    0.1194420727820131    0.5053044000192252 O
   0.2515217879387765    0.1013367004082956    0.2885692880582802 O
   0.2476790217475787    0.1212334716479113    0.1070436287108741 O
  -0.0062697608830943    0.8605746127172627    0.9023241518180753 O
  -0.0012945811775252    0.3601661962358207    0.8968405721900335 O
  -0.0059157556628627    0.3761824810588533    0.7017656428832598 O
   0.7485790147617291    0.6242551984904308    0.6975795313241983 O
   0.0025394859733798    0.3657965011883440    0.4968355265632807 O
   0.0014450241387479    0.3646517405214155    0.3042412037506174 O
   0.0002786116377484    0.3776948686294264    0.0977353069822969 O
   0.7516039127491819    0.6186116554124306    0.9052965905576988 O
   0.7548375948159595    0.8675126536755272    0.0978418220399116 O
  -0.0002907992709567    0.1384323592793766    0.8979831381006617 O
  -0.0068315463969326    0.1289618902444283    0.7029282438357429 O
   0.0014787169107451    0.1387933398419844    0.4832438081484143 O
  -0.0005842100717038    0.1317340146182498    0.3151457584918079 O
  -0.0055359218389217    0.1179125863498091    0.0975813457659560 O
   0.8803160575090775    0.8730581643821609    0.8040876751901621 O
   0.8716980387073336    0.8672790611797619    0.6015603713562415 O
   0.8832156231409800    0.8867311552811830    0.3934563762715439 O
   0.8728012256733622    0.8710717524497016    0.1958099762378101 O
   0.7489028313169342    0.6090531562430735    0.5151073601696526 O
   0.8696057902183603    0.6269113695234179    0.8057663126734802 O
  -0.0041237465902653    0.6245237780912483    0.0984561176518197 O
   0.7520015653752539    0.6297962720331131    0.0982342130817595 O
   0.0020315650611354    0.8709346110993400    0.6951400706920772 O
   0.7468405798146529    0.1176742898235773    0.5028920965195475 O
   0.7539127647419781    0.1250938660653387    0.7017702168800929 O
   0.7447507728053413    0.1201487824833802    0.8970232095160262 O
   0.7548345672306763    0.3731827431678403    0.1006217768502605 O
  -0.0004773021349852    0.8533742882796282    0.5027368088593607 O
   0.8836210211903984    0.5061285456716591    0.9012992133334662 O
   0.7480677806863771    0.3806537820101905    0.2962005213823106 O
   0.0041337088283483    0.8692765568222690    0.2943266672975686 O
   0.7474055081471560    0.3861299637973381    0.5060554093127647 O
   0.0027720547865629    0.8731252825696625    0.1024872901610182 O
  -0.0079204305476202    0.6409218628455129    0.9010716486117013 O
  -0.0054301885044759    0.6297273448762765    0.7121773620953851 O
   0.0018088128397603    0.6422407815990049    0.4935824867736983 O
   0.7543257246346076    0.3818837387607772    0.7002960870427966 O
   0.0048277545410030    0.6317323733475604    0.3019243394752996 O
   0.7511742318664401    0.3903549581183364    0.9006253374698856 O
   0.7463534405644494    0.6227913276752881    0.2981910466326632 O
   0.8783882562710373    0.5099054349377979    0.6971070859613997 O
   0.3659296407164067    0.7472841024059264    0.9077100802929521 O
   0.8805999923487359    0.5016564597910923    0.2951294765116170 O
   0.1259516671466880    0.7525613772679419    0.6868800911480378 O
   0.1333898547127534    0.7475507893351681    0.9006168359500406 O
   0.3710411917641521   -0.0041091537886373    0.1224634934216116 O
   0.3935241046606517   -0.0021790702011468    0.2868996385465818 O
   0.3869925454936511    0.0047777991932920    0.5079504175092725 O
   0.3783255244494569   -0.0001713952768463    0.6986265565940236 O
   0.3955528567622199    0.0002983989740402    0.8916700709782920 O
   0.3788870192808383    0.2498246305485184    0.0917809910409194 O
   0.3556526673207999    0.2483893949195102    0.3137650078763282 O
   0.3721931152409523    0.2442253772856653    0.4966460438582561 O
   0.3745911048489425    0.2553515236698261    0.6989734354573266 O
   0.3670856637298383    0.2503599051267261    0.9032492697913772 O
   0.3641867200426204    0.5030949011441972    0.1177537933064571 O
   0.3860769271845713    0.5015678517901779    0.2958791354034079 O
   0.3830229422817708    0.4954512149729341    0.5066009046814278 O
   0.1460769033236668    0.7486350521404987    0.5081216987578260 O
   0.3706608581969218    0.4955939281110290    0.6960386654254735 O
   0.1358385118301784    0.7455348840383104    0.2948179180864477 O
   0.0990295350697612    0.4984222121914548    0.8905418007387372 O
   0.8903515131930444    0.5021841544958822    0.5132683571058778 O
   0.1242108874105004   -0.0069901688117285    0.0997099653186524 O
   0.1136146519150575   -0.0062169191848038    0.3090167434493434 O
   0.1114610296170812    0.0007315912328700    0.4847889066487904 O
   0.1206093021135665   -0.0051359142235509    0.7036759848310242 O
   0.1138987311615701   -0.0000189983313122    0.8986147693631753 O
   0.1214302426753030    0.2497103654915157    0.1022833701646882 O
   0.1352149482012452    0.2493051038559200    0.2905652583290896 O
   0.1336984501924174    0.2496581357593473    0.5082220310853490 O
   0.1221460649059156    0.2542571520370706    0.6937239265963011 O
   0.1383063826145879    0.2515866044732178    0.9018202710598898 O
   0.1282315966135563    0.4979670115624249    0.1012289003389152 O
   0.1189080042141328    0.5013034005453210    0.3030401399233096 O
   0.1201243085930887    0.4994917694335795    0.4903851719542302 O
   0.1169763952913764    0.4958249846847117    0.7068432540669446 O
   0.1221267431185421    0.7524422330399185    0.1047940427018474 O
   0.4053906504485563    0.5001368158174104    0.8909808618016084 O
   0.7544904278067184    0.8778108610919814    0.8999290207810318 O
   0.3604246002434652    0.7503583276618288    0.3133338757930501 O
   0.6356588261446882    0.7492624112524204    0.3019545655708772 O
   0.6403382283818196    0.7518994193825497    0.4954584661286937 O
   0.6274428552250980    0.7439559364175589    0.7092890670030091 O
   0.6404713276535430    0.7452384836579756    0.8987122132416031 O
   0.8731739712043189   -0.0102968547174535    0.1004361538420352 O
   0.8887241817979102   -0.0072754288313498    0.2887995960339169 O
   0.6213525715959386    0.7479211482573840    0.1028858348251338 O
   0.8993579422075458   -0.0006820991361803    0.5110223628065409 O
   0.8793954371347048   -0.0040003149301125    0.9012984100666990 O
   0.8767630110538510    0.2421156877388637    0.0997098770459409 O
   0.8669761744920129    0.2466344704037199    0.3008310229654528 O
   0.8727982930609767    0.2552743684427102    0.7079051918289245 O
   0.8606553391510563    0.2524929522457848    0.8946203829826540 O
   0.8715827910621864    0.4967138525270855    0.0974805747951843 O
   0.8789230789439836    0.0023713928262810    0.6981804937670049 O
   0.6177865496305323    0.5060460598557476    0.9095315098137373 O
   0.8696087243265265    0.2495125016853304    0.4977445630172334 O
   0.6099417416205278    0.5008630691613415    0.5069167233404529 O
   0.3586704008408060    0.7489349258402158    0.4962539014963741 O
   0.6276302793653895    0.5070328254196796    0.6924762231133231 O
   0.3744929446678033    0.7469749934085016    0.6977667140895167 O
   0.7509969249288156    0.8751416396552866    0.7073373686474543 O
   0.6348118809373678   -0.0077981343597201    0.1020034161736316 O
   0.6157403584796279    0.0027995679124939    0.2973070817335108 O
   0.6134613192777800    0.0041790315607817    0.5044807930904407 O
   0.6213740743855887    0.0004722998507527    0.6979098933257064 O
   0.3880586467110468    0.7495334057727783    0.0827918354426928 O
   0.6196087180601620    0.2504096163898626    0.1041643800763091 O
   0.6172460444273067    0.0028818937889976    0.9056308586865894 O
   0.6338996280686618    0.5062212398072993    0.0967648451554253 O
   0.6364965790451934    0.2495180379084972    0.8930929566893820 O
   0.6171660608496657    0.5028042258337172    0.3005547979547913 O
   0.6259905960874346    0.2477988539735366    0.4975213848782735 O
   0.6348735160726832    0.2450393422109476    0.2974876651158703 O
   0.6314202368951990    0.2514469918892698    0.7107969300457688 O
   0.2443697834158527   -0.0004261250030085    0.3953797235901076 Sr
   0.2563864354206008    0.2515625671679818    0.4090966682481172 Sr
   0.2468353107219785    0.4981573002223145    0.0051167253172947 Sr
   0.2416198103998023    0.5042091850938717    0.2010912157072052 Sr
   0.2549134658351535    0.4931235496873650    0.6023302632133735 Sr
   0.2514967305035293    0.4974287480513119    0.7948582078731009 Sr
   0.2404794443863797    0.7562668118025614    0.2018575359220503 Sr
   0.2437126295257715    0.7583504361205290    0.3954159986410333 Sr
   0.2504540076747958    0.7515433614146394    0.6015255443060739 Sr
   0.5021097936365636    0.0020260976320250   -0.0040276359117895 Sr
   0.5041612580789760   -0.0010770338411905    0.1976663431781366 Sr
   0.5007852471088804    0.0119499532483468    0.5942271272147521 Sr
   0.5043401476925411    0.0066812771282543    0.8011385851455307 Sr
   0.7449677437135455    0.7471187858958722    0.3954765026004490 Sr
   0.7523306116951147    0.7465322548720243   -0.0039105228061445 Sr
   0.7587173791342531    0.4984244268826426    0.6069870700251094 Sr
   0.7508688816695862    0.5111588717770117   -0.0024015595935496 Sr
   0.7549350581265875    0.2405833951912800    0.7990423331786868 Sr
   0.7374722904000551    0.0057725374634325    0.3962548512165403 Sr
   0.4971792029272187    0.7499797144372482    0.5988746653138287 Sr
   0.5041665221914542    0.7491290828684652    0.1967840823739692 Sr
   0.5088959345352870    0.7472955026475178    0.0009464386566543 Sr
   0.5080969942757406    0.5051963893923445    0.7995413326056747 Sr
   0.4992623618214497    0.4993006809760840    0.6004149077032340 Sr
   0.5059850705660591    0.5069569190454851   -0.0029076960901152 Sr
   0.7529328979402516    0.7374904621736870    0.7998518334981634 Sr
   0.7531233362711255   -0.0035281642006366    0.1953710302980690 Sr
   0.5059328048124183    0.2511345629452517    0.2044338042830999 Sr
  -0.0028757099540379    0.4947384658269858    0.7926622328411141 Sr
   0.2379779693632296   -0.0093121982951911    0.1984273457147193 Sr
  -0.0071964438339139   -0.0081355146934174    0.1951475675580931 Sr
  -0.0105425692884548    0.7458270307618153    0.8030879957729319 Sr
   0.4970502464765545    0.2470110557981657    0.4058179760740893 Sr
  -0.0122004408101867    0.7512808453957068   -0.0006668793529762 Sr
  -0.0006204362699493    0.2528378347766465    0.7959256162926899 Sr
  -0.0052786993225747    0.0020202743259118    0.3962159429077641 Sr
   0.0018302038488276   -0.0069308597035572    0.6055907479482027 Sr
  -0.0002471301905376    0.4922286438030214    0.6080045234583104 Sr
   0.0012719076565979    0.2548919005643541    0.4003002291252958 Sr
   0.0048113655526644    0.7528103212469560    0.6028946026079683 Sr
   0.8761135953139042    0.1178223372188779    0.7007564265672105 Ti
   0.8746432319739281    0.3856783827288744    0.0984432882013346 Ti
   0.6221416087277800    0.1257277113414624    0.2950230407111457 Ti
   0.8790891718212112    0.6238492256968886    0.6977730096039382 Ti
   0.8740002955437337    0.6230518599621698    0.8966352517591105 Ti
   0.8663720389674454    0.8767468302127097    0.1020878006309212 Ti
   0.8700905805059086    0.8784327022561809    0.3012674580765398 Ti
   0.8729948913106661    0.8662985684770694    0.9027641667752117 Ti
   0.8791335569684717    0.3669813004859720    0.7023956316730038 Ti
   0.8725405358365651    0.6356213235926244    0.0949588291927632 Ti
   0.1294146049125517    0.3772589720109269    0.7006691214746762 Ti
   0.1279689104469454    0.6315611255836501    0.2994716202758808 Ti
   0.1160547223366834    0.8736683089546600    0.1008229459902741 Ti
   0.1172682369728612    0.8805559846187540    0.2989065728982327 Ti
   0.1239868576436402    0.8740703381678570    0.7002884356265812 Ti
   0.6211877472249629    0.8747206977442202    0.1003241096106588 Ti
   0.6281590767878209    0.6251811378302141    0.8960413181633528 Ti
   0.6255573019180380    0.6249529132470250    0.6946193207849531 Ti
   0.3696517492877792    0.1264428885290195    0.4998362462619494 Ti
   0.6237325038225829    0.6285624754829222    0.2953031403891566 Ti
   0.6262195298979412    0.6299365721613014    0.0925732937458213 Ti
   0.3763931023305908    0.3814122676785475    0.5012958333206022 Ti
   0.3826761953209600    0.3773158852787779    0.6989077974044109 Ti
   0.6267093735826885    0.1262686174315944    0.8983162986235042 Ti
   0.6202905650028789    0.1257593440474274    0.4964808948150165 Ti
   0.1230123283108809    0.3799510963711802    0.1019524054808669 Ti
   0.8762802820469544    0.1305807343893846    0.1001288268324287 Ti
   0.3775594171233498    0.8752510989636659    0.9021454067845125 Zr
   0.1220214959394191    0.1253033609202298    0.6988265437749187 Zr
   0.8738350101441735    0.8756725630354310    0.4987211518640169 Zr
   0.8763014079864947    0.6272662861596948    0.5019376733637315 Zr
   0.8738375144847953    0.6288338704657715    0.2970874739152350 Zr
   0.8749574810971791    0.3766581877673396    0.5022751892225834 Zr
   0.8743425101794534    0.1231385481105884    0.8998920422718494 Zr
   0.8740165853136956    0.1218919680949396    0.4997942324680180 Zr
   0.8725549463032320    0.1196260806776051    0.2981273029378688 Zr
   0.6266529909143517    0.8734259318818509    0.9021814297278000 Zr
   0.6234361764094895    0.8730028502983312    0.6998948791093956 Zr
   0.6299549905548383    0.3780754483610965    0.7011269728570172 Zr
   0.1254101953449434    0.1254129872635494    0.3002117813229115 Zr
   0.6270976614994629    0.1224711422228712    0.0983582598661323 Zr
   0.3752667774399969    0.6207657833637990    0.9022251797859184 Zr
   0.3755311259276482    0.3797329796698090    0.8984689581847806 Zr
   0.3756666667237222    0.3737284307947854    0.3017469790992629 Zr
   0.3755561053410185    0.3787935098032916    0.1008932492046055 Zr
   0.3751572727176108    0.1235976012761054    0.2999692634510687 Zr
   0.3764394767791900    0.1210205161465061    0.1029855037370691 Zr
   0.1200772819972266    0.8720162096622393    0.9004706103503605 Zr
   0.1240178898636204    0.8749251303537300    0.4980999699749546 Zr
   0.1220377664774037    0.6212305928616950    0.8994959292728080 Zr
   0.1234969183549546    0.6247627674230888    0.6977971712009974 Zr
   0.3742864967857223    0.8789145012666199    0.4984666521485864 Zr
   0.8742726265489379    0.3750571982739160    0.2980799093788605 Zr
