Li100 Mn20 Cr20 Fe20 Co20 Ni20 O200
1.0
   7.2724925822348006  -12.6027130577998676    0.0002124931673719
   7.2924218765185369   12.6142199182842063   -0.0020199046437298
  -0.0026735044037421   -0.0019074477760303   20.2169973206720428
Co Cr Fe Li Mn Ni O
20 20 20 100 20 20 200
direct
   0.3971513016127521    0.3985879102846748    0.4971907146643619 Co
  -0.0108998962474083    0.7869767807831833    0.0023175023347980 Co
   0.6013083808500765    0.8018109380310470    0.2493603880694783 Co
   0.2004742615583955   -0.0023416297862235    0.5019574938627797 Co
   0.6017141168518569    0.6040626540773184    0.2495723160100465 Co
   0.6005050776719788    0.4073695181837018    0.2495875154028845 Co
   0.1991905233996650    0.5976435461647386    0.4991654758039012 Co
   0.4044453336785168    0.4069507071246131    0.2493898943072876 Co
   0.4118547866935083    0.2140920855523106    0.7504185967677385 Co
   0.2143245730453062    0.6132879707716918    0.7467580809508706 Co
   0.7972970787837856    0.6017506994133799    0.2504466027926899 Co
   0.3970190848303152    0.5968934316413878    0.4974296510942984 Co
   0.2011714451862915    0.6023600779294950    0.2508484452574766 Co
   0.8124140518585918    0.8126696715903454    0.7505446657690916 Co
   0.5986642941498488    0.1977165012746668    0.5008084501423847 Co
   0.2137801341888666    0.2135210005718953    0.7492311931000647 Co
   0.2006190767490901    0.0056860931331762    0.2515405437334371 Co
   0.0009047091101458    0.0020116798539935    0.2520630344555564 Co
   0.7900053055260334    0.3876127301575493    0.0005071889681430 Co
   0.7899639219921406    0.1893661332027494   -0.0018130238156876 Co
   0.2039299308823498    0.4040040613701449    0.2491410779943229 Cr
   0.8001193122577925    0.0012584499986299    0.2495406818106847 Cr
   0.0009206432973329    0.2003186036014010    0.2492692990636183 Cr
   0.6120486969311798    0.0111450242145648    0.7499053008731646 Cr
   0.2140614887856505    0.4132179350942295    0.7476886191920677 Cr
   0.4014813535337738    0.8021258884945272    0.2499319101235512 Cr
  -0.0020256873854899    0.6005093957666631    0.2503678988849198 Cr
  -0.0010517497318390    0.8020632970300522    0.2519651407065379 Cr
   0.4001216930069126    0.2072748532344409    0.2501566348871038 Cr
   0.0139639065993375    0.4147472048324802    0.7497367538819358 Cr
   0.7969959568929338    0.7973938173252206    0.4992644952479724 Cr
   0.6005384419896700    0.0025656332155161    0.2493928620663953 Cr
  -0.0136353737955295    0.3871396575811629   -0.0005808197717164 Cr
  -0.0001481398617955    0.7996172063242293    0.5011858343171267 Cr
   0.7972497960351528    0.5980432714897214    0.5003156186044587 Cr
   0.2014927168840176    0.1974443576847992    0.5004027264194385 Cr
   0.1892926339705545    0.3889875548940304   -0.0013909143661518 Cr
   0.0014385442150019   -0.0003281774645955    0.5008549999636562 Cr
   0.5927147209480804    0.1889403196909481    0.0007719131978353 Cr
   0.3898261791519860    0.7877897662473737   -0.0001817739128055 Cr
   0.0087314644512157    0.0119660223542541    0.7518254869820156 Fe
   0.7929865991921778    0.3965141479811090    0.4990474164696978 Fe
  -0.0031683508356087    0.3999386750280606    0.2480987219713053 Fe
   0.7974126546263445   -0.0080935543827045    0.0012037314952592 Fe
   0.5954897981898686    0.7889147593438356    0.0000198988923704 Fe
   0.0132758165521172    0.8160989479934593    0.7521517279082439 Fe
   0.5954702799926400    0.5900525074869826   -0.0010047067470935 Fe
   0.5920369020909745    0.3951875303816523    0.4974783071355888 Fe
   0.7994660541022294    0.0004985298768714    0.4991471068246006 Fe
   0.3891887543734775    0.1900397568028451    0.0016263284798398 Fe
   0.3998398856296289    0.7977225210566091    0.4988013062165227 Fe
   0.1864221423108787    0.1885197190930897    0.0025680575407569 Fe
   0.6020251848307594    0.2056155749519224    0.2501368743360289 Fe
   0.2010829745667847    0.3978246523087882    0.4961185559459321 Fe
   0.6132907362518273    0.2192748444557445    0.7503056974089631 Fe
   0.1847398195151189    0.7811067740972024    0.0023752661389752 Fe
   0.3884612138763466   -0.0127964449071119   -0.0002499685951269 Fe
   0.4020135939102192    0.0033001971391310    0.5008507507246323 Fe
   0.2158302057710151    0.8119742197480135    0.7490934300155933 Fe
   0.4138715483837638    0.4082837687736597    0.7479284125627548 Fe
   0.6614957472272411    0.3354345949790062    0.3686354768358261 Li
   0.6653897878070208    0.9236618454847757    0.8753271212364044 Li
   0.6608184112640260    0.3272083565324184    0.8808120204960954 Li
   0.6637576207592508    0.5311618203203252    0.3746302259295169 Li
   0.6625402743744898    0.5257289719809959    0.8786559700982851 Li
   0.6667509584584592    0.7319196480791228    0.3753669524090557 Li
   0.6772856621295852    0.7382376918107352    0.8767358296789877 Li
   0.6629491906494116    0.9309500825477327    0.3719127774323727 Li
   0.8627642942463873    0.1330440936203980    0.3705051058007138 Li
   0.8627869991327249    0.5263667585047405    0.8830845831866659 Li
   0.8624687095364294    0.3301050930700982    0.3637938567664825 Li
   0.8547840825655048    0.3237670464580470    0.8837171166326421 Li
   0.8583552933320455    0.5318442256802576    0.3672541597367653 Li
   0.8620574057476689    0.7325991954499833    0.3746638178159125 Li
   0.8583948346620414    0.7236568934614671    0.8904784887054809 Li
   0.8755821537230023    0.9415509588153290    0.3738340698894771 Li
   0.8604565750152896    0.9195708067819764    0.8826969079694490 Li
   0.6726021597162766    0.1314718826903320    0.8759715909707945 Li
   0.8664508383254594    0.1251296599253520    0.8778025001538234 Li
   0.6688324122398394    0.1380693361779345    0.3720441633022230 Li
   0.1309799467217625    0.0690309023630190    0.1308748228942875 Li
   0.4761515338706728    0.9464207521770465    0.3720201507218427 Li
   0.3321358387581839    0.0707810138445105    0.1280542695259027 Li
   0.7306342669064121    0.2703233286986044    0.6268359079516328 Li
   0.7338504053999931    0.4624374804925100    0.1265233128510667 Li
   0.1400047640781020    0.8811904903530990    0.6239443557189719 Li
   0.7219583467653452    0.4636668364302822    0.6262321191117948 Li
   0.7348215659162038    0.6678044238533508    0.1241024684906354 Li
   0.7342723723447953    0.6680243706104034    0.6239764652028655 Li
   0.7389023480835295    0.2665587247875341    0.1314031877040091 Li
   0.7285018366946432    0.8603296590971337    0.1240989493867390 Li
   0.1289545448199382    0.8591015329605243    0.1241289598760558 Li
   0.9337599572768619    0.0616491078202159    0.1237459000169759 Li
   0.1449500157438815    0.6763470726888650    0.6279107365004648 Li
   0.1247621045957938    0.6511269650395257    0.1210656628941234 Li
   0.9378448500193725    0.0651372942658048    0.6226408496379930 Li
   0.9248019596341971    0.2561989644262199    0.1235614946074514 Li
   0.9383104915000329    0.2702288669896968    0.6242824171507145 Li
   0.7348863356631027    0.8734349921177507    0.6260203691754014 Li
   0.5396039804732574    0.2724616142583297    0.6252753120596487 Li
   0.3451230864271541    0.0853177525929330    0.6247733768805310 Li
   0.3423589930600425    0.2782008855964097    0.6227092418167109 Li
   0.5323402813013706    0.4578290092283539    0.1256128304950991 Li
   0.5292025320813222    0.4678842877069940    0.6127024711971005 Li
   0.5327652071961625    0.0655784522388506    0.6186546710787234 Li
   0.5242893561034161    0.6577468275469431    0.1202590332595146 Li
   0.5338972366974070    0.6705533465200697    0.6199111138704586 Li
   0.5263005566640140    0.0673978387874159    0.1318466676291045 Li
   0.3438492747277172    0.8717779100671138    0.6250635611209933 Li
   0.3248982151638736    0.2717800296698351    0.1311191102703341 Li
   0.5353871622864657    0.8740953540042217    0.1274000173377795 Li
   0.3410799870766147    0.6724435222207423    0.6261780228943614 Li
   0.5455925806298650    0.8753967447480416    0.6241530305072395 Li
   0.3204229143006920    0.6528871786745214    0.1182557124158668 Li
   0.7344137560860481    0.0700867641508487    0.1258681374134441 Li
   0.3313726321203850    0.4668459002858960    0.6136026524327747 Li
   0.7379733198854002    0.0747710182157062    0.6272159528019534 Li
   0.3241798303134866    0.4548960027374952    0.1180284275679997 Li
   0.3285276853122227    0.8597931238359845    0.1289417667957704 Li
   0.1403702200007986    0.4708511406742407    0.6189026933000842 Li
   0.9236565164866045    0.4563010538962781    0.1192692955174891 Li
   0.9328984802330483    0.4710414909927751    0.6273768156772386 Li
   0.2576307844311288    0.1242832877797512    0.8813289034871571 Li
   0.2613259944666802    0.3209381599090709    0.3730873219761442 Li
   0.2597501548375359    0.3173450193896461    0.8802722828868380 Li
   0.2710766979073655    0.5380835990129809    0.3726316118492589 Li
   0.2592423124774038    0.5268551213241828    0.8772727394180552 Li
   0.2682355739198986    0.7352194115890961    0.3739378810872666 Li
   0.2528364991504001    0.7188214989661893    0.8827173666168592 Li
   0.2671604011462108    0.9360564691730021    0.3749119535766355 Li
   0.2643987351072528    0.9245323698681114    0.8777887116254427 Li
   0.4757365742786923    0.1365855923106229    0.3768001217142029 Li
   0.4719735252245075    0.1387351318121331    0.8702776520707062 Li
   0.4593597087328462    0.3293970795235882    0.3755671910069761 Li
   0.4581255115523867    0.3224350482366367    0.8800603065645735 Li
   0.4614510385898012    0.5226102113413176    0.3770559715324627 Li
   0.4659857342184463    0.5365381239325908    0.8710141592054337 Li
   0.4727524744590868    0.7360029099657057    0.3737396718589389 Li
   0.4633293896178877    0.7342166568453991    0.8730405927626501 Li
   0.2644133907678500    0.1252928421951448    0.3798001764837146 Li
   0.1139010265117474    0.4529519065440910    0.1223517777292971 Li
   0.5324183982373885    0.2661107185099209    0.1291417097063184 Li
   0.0686379576711139    0.9414751695112390    0.3771149779196888 Li
   0.9255415285837942    0.6529976142555726    0.1160080913075276 Li
   0.9349885932102974    0.6725966776409751    0.6272613630669848 Li
   0.9275788692103925    0.8627955709442308    0.1186986650303893 Li
   0.9231709958666456    0.8651755079920929    0.6239095069706490 Li
   0.0647575880108837    0.1368514808695201    0.3726964034774086 Li
   0.1414482695747414    0.2645899711622671    0.6236913904222841 Li
   0.1198265719902413    0.2599215719408930    0.1192284723437202 Li
   0.0536943632217907    0.9200468100201488    0.8856607264201880 Li
   0.0676962771221010    0.3289980013658632    0.3708134997346986 Li
   0.0529064500975075    0.1232207855460202    0.8853012900369900 Li
   0.1366787190236850    0.0678193299970696    0.6206102475756302 Li
   0.0642105512600399    0.5252364458276018    0.3709267359599938 Li
   0.0617261822077695    0.5258192362767586    0.8823015895249405 Li
   0.0631669679614798    0.7319040263648376    0.3741357893731760 Li
   0.4686403049985252    0.9300300550987874    0.8721239951103178 Li
   0.0534301253215046    0.7185677151468916    0.8875213005331081 Li
   0.0572384223946804    0.3203254209788909    0.8834596849194535 Li
   0.2000422724993946    0.7982626065520659    0.5006035258713551 Mn
   0.3899047247967359    0.5878277103278245   -0.0024902099558143 Mn
   0.5934485446317889    0.3892407096004303    0.0016274966388498 Mn
   0.7977909319230849    0.1987138515118940    0.5014893836866836 Mn
   0.5925026886918789   -0.0100956556943704   -0.0009139530345964 Mn
   0.5965287082502102    0.7956807563958108    0.4978886872200435 Mn
   0.2001951654764811    0.8013170319295289    0.2519153943320286 Mn
   0.4131435797314287    0.6142536137491856    0.7457421619172997 Mn
   0.4040873206389231    0.6039410062708567    0.2488988790643910 Mn
   0.4133383422238431    0.0153392375484446    0.7495338108161516 Mn
   0.8131389410818634    0.2126375453499252    0.7509404972211070 Mn
   0.8127580551195747    0.6127810564027792    0.7526264620680903 Mn
   0.6142135510548943    0.6148364077927874    0.7485747301801089 Mn
   0.2146465582898616    0.0175826298043242    0.7508951597796550 Mn
   0.7988962776972665    0.8010193965746093    0.2511624934663110 Mn
   0.0142882695345748    0.6130457464200469    0.7506957475980949 Mn
   0.0144406619404630    0.2129781358845677    0.7496603288860768 Mn
  -0.0000181940375813    0.3984913006765036    0.5002597013210579 Mn
   0.1864928943807526   -0.0146199894765772    0.0010805843602946 Mn
  -0.0002388445798941    0.5977114180329177    0.5008070626364740 Mn
   0.7943644024939821    0.7893292660616680    0.0028487019030582 Ni
   0.2015032431035735    0.2026786089179410    0.2506698207290318 Ni
   0.3988133212366069    0.0038708399397252    0.2500281544145002 Ni
   0.5940747289430836    0.5944081942844510    0.4973331986377275 Ni
   0.7943196376784085    0.5895864908773120    0.0020364078339678 Ni
   0.4143755805529060    0.8123191775667220    0.7485343202348526 Ni
   0.1862804805734468    0.5863900311053639   -0.0001199982904314 Ni
   0.6145136649452954    0.8151221508491157    0.7485472919447382 Ni
   0.6114585750143436    0.4114296285718054    0.7518003417605714 Ni
  -0.0002991908008956    0.1983378751142754    0.5005577035900660 Ni
  -0.0119405544831918    0.1878309797831434    0.0000002483477888 Ni
  -0.0133335181951769    0.5858919701090839    0.0012331951738754 Ni
   0.3994555460077183    0.1983976625275599    0.4999731917990719 Ni
   0.3916018673793676    0.3889117066647665   -0.0005074428505590 Ni
  -0.0114086057634622   -0.0127721444561248    0.0028589712363512 Ni
   0.7977425312459573    0.4037828638852680    0.2484949012123267 Ni
   0.7999907049423642    0.2035042460100049    0.2491241939759569 Ni
   0.5984284281959822   -0.0007487160934119    0.4998463815723073 Ni
   0.8094237865254847    0.0070655346424021    0.7502815315109906 Ni
   0.8105454143775763    0.4129786250657445    0.7521767941334386 Ni
   0.5326690133506912    0.8594206236358024    0.4430024340607487 O
   0.5260921689390998    0.8606826371845592    0.9459139200395732 O
   0.7407736665706288    0.0768484637316783    0.4458570721000443 O
   0.7187191555398947    0.0565369488926429    0.9457304548603884 O
   0.7317676247386626    0.2602653000882352    0.4491665924824135 O
   0.5188082250069502    0.6530644986445397    0.9434355167459862 O
   0.7249136692912937    0.2562135713657616    0.9465981355208212 O
   0.7348844753484324    0.4670229062577785    0.4426996209714659 O
   0.7193248220460139    0.4462728640656332    0.9474719777721931 O
   0.9205254595087421    0.0525693163865543    0.9404973441417065 O
   0.7204512143733003    0.6538759903375189    0.9408591539698685 O
   0.7246155672954352    0.8604100391670002    0.4443001972801734 O
   0.7223514375465835    0.8570399866967681    0.9433179982745605 O
   0.9308766904443575    0.0607617030196640    0.4438260600988590 O
   0.9290067031864004    0.2717923052494277    0.4487441885101395 O
   0.9147821576835908    0.2530027404721080    0.9424750335905776 O
   0.9382089944091853    0.4689438352426788    0.4490357217387691 O
   0.9138818378499683    0.4491793803970682    0.9438079414052691 O
   0.5271742793125828    0.6688984872819802    0.4437173838443157 O
   0.9372234807427802    0.6622542920433196    0.4479141990556731 O
   0.7366140814143856    0.6662692657439307    0.4426369220025690 O
   0.5315575488577416    0.4510781369473998    0.9455017235859324 O
   0.1212774904534763    0.8571526515283667    0.9482668522678481 O
   0.5273116053175754    0.2589744627045223    0.9465981824402342 O
   0.1280505030359427    0.0513204331094137    0.9453596987272251 O
   0.1343447746905944    0.2650554375189351    0.4431343812046695 O
   0.1271203357476072    0.2563807259372984    0.9412661015677712 O
   0.1260835204618025    0.4662996314652250    0.4462410472640451 O
   0.1194446694621104    0.4510463900950961    0.9414811209699835 O
   0.1310966064274055    0.6652806754310896    0.4489252751949466 O
   0.1245588186749960    0.6577704260891843    0.9406364796465837 O
   0.1356464512954484    0.8630479043911835    0.4490288337529691 O
   0.9277880924970815    0.6630626807237411    0.9448707318846203 O
   0.3240181154236421    0.0568382856723324    0.4463005626939203 O
   0.5241294332168809    0.4577908595538826    0.4403895604401135 O
   0.3167140971794165    0.0498484150712266    0.9448161648415686 O
   0.3237242863212796    0.2516087478052564    0.9429164834701736 O
   0.3357422594585324    0.4690816766605752    0.4440212963646661 O
   0.3250743867548186    0.4626869538754668    0.9426562814428530 O
   0.3254637014434139    0.6584101676014763    0.4458127741635918 O
   0.3298931488960292    0.6564970966775848    0.9431059482189337 O
   0.3237581732996676    0.8588480015744594    0.4458537371920135 O
   0.3226849735703147    0.8536347605013813    0.9439889964396860 O
   0.5321781170031649    0.0696600345475381    0.4455131095613962 O
   0.5272121364782533    0.0539397800254190    0.9450690786952078 O
   0.5393045760880237    0.2618523018664032    0.4445586234133254 O
   0.3318927979984690    0.2692344897092745    0.4444825036593316 O
   0.9339649454257988    0.8644126885006284    0.4454390201513159 O
   0.2647361300522352    0.5238344453289105    0.0530362246932984 O
   0.0602545685926424    0.1246623610652026    0.0593916310213912 O
   0.4629479931137928    0.9242637276485423    0.0526349848379608 O
   0.4612624794762956    0.9266444367121334    0.5577183689318601 O
   0.6578265173117254    0.1181148098243736    0.0508606696126630 O
   0.6719810068252001    0.1406527997754914    0.5552006272834844 O
   0.6582871305206753    0.3233748302754013    0.0530323207519831 O
   0.6638388370517995    0.3283900370232388    0.5545468426659083 O
   0.6516371665152481    0.5131921255087974    0.0566334311009343 O
   0.6666739129450845    0.5293723238108696    0.5570302631716425 O
   0.6543977050666800    0.7200242454487362    0.0592505670648590 O
   0.6616689940733155    0.7352735725975165    0.5529574526904815 O
   0.6518168236861815    0.9246148224711888    0.0539597917334778 O
   0.6620338183670954    0.9223314805322549    0.5523137776402590 O
   0.8499695747470531    0.1260818364381067    0.0538378565691477 O
   0.8583344333709292    0.1335893127406579    0.5569608677642310 O
   0.8490122392619689    0.3166056959220376    0.0507569948725438 O
   0.8695020531246714    0.3324244880884727    0.5535253206283802 O
   0.8505379981460468    0.5089252030055074    0.0575747321447002 O
   0.8731252802933807    0.5348918687968063    0.5555946819246648 O
   0.8667823362213282    0.7260603271130427    0.0593182109152674 O
   0.8651754394317448    0.7321711349024076    0.5567554185897948 O
   0.1362908116788249    0.0608823904196704    0.4475171528579918 O
   0.4675303166824280    0.7279448150446579    0.5506114198388726 O
   0.4534572638571273    0.7155087364133559    0.0523178237977185 O
   0.4552325787128901    0.5279795888678240    0.5506375298121446 O
   0.4554310768238030    0.5281021920137848    0.0530326524331533 O
   0.0673147083016049    0.1302255996669253    0.5585447816238051 O
   0.0577625504808562    0.3259798032871031    0.0551393088040123 O
   0.0652456376793076    0.3411186878285236    0.5552423126160232 O
   0.0531854524991735    0.5165978378232612    0.0582719900112561 O
   0.0653271661204865    0.5310609005897596    0.5521391690985631 O
   0.0560522155427592    0.7249377034536310    0.0576765933687288 O
   0.0681056268772960    0.7276387276840465    0.5534802391961282 O
   0.0627096847191044    0.9183118317867561    0.0550718011605820 O
   0.0690664555098439    0.9313775634839302    0.5560081018566008 O
   0.2537375758316145    0.1134837909202980    0.0541010582178938 O
   0.9286348402630610    0.8509030968260358    0.9467532610685925 O
   0.2615703800874243    0.1235196408676865    0.5570944784711557 O
   0.2680590739358059    0.3340774714631721    0.5540192323021672 O
   0.2669949693307647    0.5372886505582045    0.5512778927761885 O
   0.2602981039280795    0.7257171629907572    0.0585080839912203 O
   0.2593576381108834    0.7275373923777516    0.5520562514569645 O
   0.2546836112298280    0.9243859442427454    0.0543223964737886 O
   0.2590789406409212    0.9223997578907180    0.5554131229228221 O
   0.4576789623599229    0.1203400811468097    0.0547532713933990 O
   0.4727848144815884    0.1330215784172992    0.5578538285031615 O
   0.4659723671383010    0.3230914298360967    0.0567400545441560 O
   0.4625294767356973    0.3390985947833132    0.5540926835280696 O
   0.2553532119091943    0.3218321276403611    0.0566812250924081 O
   0.9431427447091350    0.8786854364820738    0.8060001202103333 O
   0.8680490675952970    0.1303936431547627    0.1928148391104114 O
   0.9473304803996038    0.6766522783268122    0.8034254907203342 O
   0.4712330607717689    0.5416960448540276    0.1977001753103856 O
   0.4863533790717286    0.5520732750843179    0.6938957028028877 O
   0.4703967539734416    0.7331975913518377    0.1969836248490140 O
   0.4744220842050934    0.7363259353810454    0.6899088625285846 O
   0.4664377402592489    0.9313441370870830    0.1929614973419459 O
   0.4769011921532744    0.9550918019965804    0.6947621834455968 O
   0.6629095396135338    0.1338572852857451    0.1918149402021310 O
   0.6871559549833977    0.1500938382747345    0.6968608550841583 O
   0.6601166407636389    0.3412275900206461    0.1938722010701096 O
   0.6767172232719706    0.3434387085519239    0.6919692692942249 O
   0.6668125306327319    0.5402467030135100    0.1991342952481213 O
   0.6865845695242941    0.5543652361657905    0.6983908031838831 O
   0.6699447440634708    0.7372938451024345    0.1992604171969049 O
   0.6848750394389655    0.7418292236840063    0.6957925953740645 O
   0.6648991877095852    0.9290339076464189    0.1952733498146261 O
   0.6752919169782402    0.9482408137389614    0.6900305055263615 O
   0.8846769005247157    0.1536916154603106    0.6975198931206188 O
   0.8708899706307109    0.3387063963794129    0.1892081525454351 O
   0.8790194544411325    0.3407706905432314    0.6960594392160298 O
   0.8661992656797965    0.5460677715547806    0.1958383389990929 O
   0.8837474709457630    0.5551395611875674    0.6982069614778749 O
   0.4735781103945115    0.3381638161589784    0.6933904936722219 O
   0.8615574930808452    0.7362226407106398    0.1996496361490903 O
   0.4695478413576463    0.3446037011779958    0.1976871676509601 O
   0.4659940430899692    0.1402087214614695    0.1938668717679349 O
   0.8550628845072604    0.9266582134310070    0.0621087119615325 O
   0.0613134173132294    0.1254843780411322    0.1974418991517662 O
   0.0802795105459781    0.1508336387277306    0.6975037041972720 O
   0.0708066917917144    0.3351747194465283    0.1940985393277365 O
   0.0777530204473051    0.3425466162245616    0.6952532148396854 O
   0.0741842065260370    0.5403983838241087    0.1974548448375654 O
   0.0780714221546243    0.5498688127972878    0.6952610211525702 O
   0.0708953384345167    0.7381232765786336    0.1995433775377454 O
   0.0768876511627196    0.7428021477912874    0.6957566049441696 O
   0.0671029380575176    0.9377051651476241    0.1999378687854065 O
   0.0893468819066701    0.9518656629189267    0.6963055168666362 O
   0.2689930848547612    0.1372088430122508    0.1922308003464263 O
   0.2793674251353315    0.1463614019210526    0.6991834631207620 O
   0.2793849209934415    0.3468872746624010    0.1953802200623577 O
   0.2767667450851051    0.3411552663193809    0.6935742869473754 O
   0.2746313435494697    0.5440630233748116    0.1973166145911804 O
   0.2818177741043927    0.5488329824856956    0.6932859389447338 O
   0.2626209674754527    0.7337870642919122    0.1997144502876708 O
   0.2744760344758115    0.7417770560307664    0.6915943772567670 O
   0.2586553940872249    0.9242354556380621    0.1964403820032399 O
   0.2824951514002806    0.9547401600601197    0.6967566731273162 O
   0.4730927899661085    0.1444173950978576    0.6976200304218667 O
   0.8775664935022476    0.7439462292885911    0.6988100013299728 O
   0.8672632405694676    0.9285419814719953    0.1996439884001451 O
   0.8804460838208625    0.9394286893072863    0.6943124100061188 O
   0.5346606448673901    0.6700494137632311    0.3007135139200249 O
   0.5409460780588465    0.6715198558132164    0.8001808701939837 O
   0.5359818156594218    0.8654264620235499    0.3037462118464964 O
   0.5473500276892886    0.8822850147751712    0.8074151466695211 O
   0.7318299319297064    0.0631141594498005    0.3065361573519625 O
   0.7474031369310945    0.0861970579136113    0.8044252729500897 O
   0.7300401530802734    0.2698642888468397    0.3085493687429988 O
   0.7479942113349052    0.2733244150126828    0.8066171178784103 O
   0.7277663181013463    0.4763882270945904    0.3030849510803905 O
   0.7515824181912385    0.4917667585628582    0.8080195852746450 O
   0.7321488075890791    0.6705420304295271    0.3021771327884646 O
   0.7455452335100277    0.6794634433953169    0.8008344297493767 O
   0.7308749381073669    0.8625292881137283    0.3032346630531006 O
   0.7496311430047266    0.8717913910651331    0.8061513185731893 O
   0.9343649668133909    0.0659152578024828    0.3045549062431484 O
   0.9536220259572415    0.0905228870997918    0.8043792057124650 O
   0.9372217568048469    0.2698262412942460    0.3071573716894251 O
   0.9475771259477294    0.2776096996787279    0.8017682469660088 O
   0.9359118892350331    0.4705157169920442    0.3075543710821319 O
   0.9546788461186444    0.4891334893197149    0.8038448790573191 O
   0.9272689695088718    0.6662473743291408    0.3057947547013997 O
   0.5479433623371789    0.4896132318172212    0.8036586797576366 O
   0.5362047753695599    0.4758853885630321    0.2993840288167010 O
   0.5377105507682545    0.2733750546240445    0.8078937181007644 O
   0.5351810691323261    0.2787443865231924    0.3040322782769184 O
   0.1243242011725782    0.0607776454283374    0.3078208459356177 O
   0.1531077739904196    0.0835531910623307    0.8021590436391181 O
   0.1348304771327599    0.2729269793553844    0.3056401141749816 O
   0.1452789278114607    0.2779929543633759    0.8002426410791665 O
   0.1398647124997643    0.4752745789995105    0.3041356625519345 O
   0.1506357428068149    0.4859542201899300    0.7996984945857133 O
   0.1374237810044910    0.6695101266348502    0.3045691465928376 O
   0.1461347430661596    0.6764772746836062    0.8005168175906592 O
   0.1332913103133015    0.8609161027180113    0.3072522277743269 O
   0.1510662266970263    0.8889979967360940    0.8042262105892294 O
   0.9272912219229421    0.8666585390314071    0.3051006601069665 O
   0.3252447513911857    0.0710067701291314    0.3053278000647875 O
   0.3418006776145021    0.2824603614913732    0.3041981880750789 O
   0.3428200962191836    0.2760447363143030    0.8021976270096493 O
   0.3426240913940398    0.4775367713194005    0.3020632000910143 O
   0.3494993691267815    0.4853953774992573    0.7991711692572137 O
   0.3363101371099921    0.6651201535616936    0.3029886576707905 O
   0.3446847065059991    0.6714133058552284    0.7991784954406215 O
   0.3274539532932524    0.8614552064496295    0.3058925632957459 O
   0.3474558887284081    0.8895177684905883    0.8036993400016033 O
   0.5350614941303280    0.0692173075111645    0.3071044988973825 O
   0.5390205822296248    0.0775322629150255    0.8034535553691605 O
   0.3460189040569910    0.0810545909652581    0.8015716951217058 O
   0.8651282283045232    0.9319711152362599    0.5557557333060351 O
