K80 Mg16 Mn16 Fe16 Co16 Ni16 F240
1.0
  16.4571008687356937    0.0003113023314406    0.0006585552333088
   0.0003113003877118   16.4567849182287631   -0.0000201511625324
   0.0008232633199346   -0.0000250864427606   20.5755556301688998
Co F Fe K Mg Mn Ni
16 240 16 80 16 16 16
direct
   0.3735776694569750    0.3745982991417669    0.5017582574332555 Co
   0.1240149038021676    0.1267006205017092    0.3009305139879399 Co
   0.6263670991518006    0.1252828221371311    0.2990251310220151 Co
   0.6271282007530097    0.1268107938986002    0.1000029762953247 Co
   0.6246342426974696    0.8770394962928123    0.1009226150707425 Co
   0.1230255319331645    0.1232186084255293    0.0985300851595575 Co
   0.3750910001705920    0.8756258989438535    0.5023518808637532 Co
   0.6262361008922803    0.1285762333969748    0.7001304484807714 Co
   0.1272864499164475    0.6266672304982711    0.8996167186009567 Co
   0.8764126960278014    0.1262420196334725    0.5001001243397071 Co
   0.1243032592041020    0.8772261108042408    0.2981869974576010 Co
   0.3769210871187978    0.6237806005084754    0.5013819021373952 Co
   0.3763429469300527    0.6242845449364856    0.3000856967218669 Co
   0.8777650785590342    0.6241355458017362    0.0995714559995848 Co
   0.8733855421397341    0.8780704047026130    0.2997973067107910 Co
   0.1248429469390418    0.8735642620808940    0.0986456089456720 Co
   0.3774793604988206    0.6270716728784749    0.4009076798125144 F
   0.3743094385601175    0.6199840163689424    0.1989170017533622 F
   0.3761707662264122    0.6238198313296445    0.8001013384629079 F
   0.3849403844490318    0.8732980527416730   -0.0053976098904341 F
   0.3740636382378570    0.6205416302802435    0.6022881866908018 F
   0.3767075639350201    0.3768781362423404    0.6018687644015045 F
   0.3768826719753263    0.3742139826189412    0.8011895428846295 F
   0.3749255949461872    0.3721027024455128    0.4015109289716390 F
   0.3770452993359449    0.3789652990588060    0.1969639724517515 F
   0.3776493998524869    0.3749157449463419   -0.0012955708491718 F
   0.3747991903663274    0.1272831580954373    0.8016752728555091 F
   0.3741616483907761    0.1246652115626833    0.5993104214701308 F
   0.3746571497788284    0.1310160131518973    0.4022414718392204 F
   0.3735538381914731    0.6235858654928844   -0.0014922169745405 F
   0.3742757007832291    0.8769198550518462    0.1996345687662739 F
   0.3754706537368320    0.7493288062032166    0.8983888570276169 F
   0.3904905242056817    0.8773911386443017    0.6005404746047022 F
   0.6261339703825954    0.8785492151491295    0.2013098057478574 F
   0.6160067170737581    0.8733964083866904    0.0007269647360127 F
   0.6227792906831374    0.6219706381440413    0.7970482718926690 F
   0.6261387283442197    0.6215704348943913    0.6022935109649751 F
   0.6220160005237531    0.6251432654924934    0.4029397506256314 F
   0.6232139328909220    0.6222597992961024    0.2019377379624915 F
   0.6235075922623166    0.6251061254081324   -0.0027268044025135 F
   0.6253031016742413    0.3750952593662343    0.8003737366528071 F
   0.3649204480389150    0.8708560173409667    0.4043655730754267 F
   0.6243534915147736    0.3762547484432483    0.6038556729211008 F
   0.6231790826619736    0.3756804013619233    0.1977016901467716 F
   0.6240643031873624    0.3726111100706888   -0.0011216602129910 F
   0.6240687732067829    0.1262434497117959    0.7991455243499938 F
   0.6260026863241335    0.1270031128658123    0.6010817515855608 F
   0.3753545218794932    0.1242192413241249    0.2014607308686132 F
   0.6255714529073082    0.1245427350990525    0.1997089302878636 F
   0.6269491732247332    0.1284114130910450    0.0002541084064068 F
   0.3607912201804230    0.8742645355096917    0.8008581955199024 F
   0.6241745923069211    0.3739895353950087    0.3987510866313200 F
   0.6251384387573790    0.1289173972215825    0.3986751798820309 F
   0.3729009377153628    0.1275100753878153   -0.0050278256083292 F
   0.1091381733771489    0.8753462479104980    0.6003949086577505 F
   0.8634029944938685    0.5000425415907748    0.3039078718446992 F
   0.8783326673787585    0.4994889266480679    0.0942933930171274 F
   0.8744949329681704    0.2516453975721444    0.8967763370443523 F
   0.8736735202435022    0.2500203474466440    0.7013698324403222 F
   0.8877797501810504    0.2487699046692691    0.5027129051522482 F
   0.8818585356481342    0.2453177464088979    0.2969288152267103 F
   0.8705619344836287    0.2479971099681473    0.1021139209456529 F
   0.8752224690896301   -0.0001095266882011    0.9002691707365006 F
   0.8757414248037001   -0.0004583195555649    0.7006339041989180 F
   0.8603603826276751    0.0047542122406616    0.5006261187437081 F
   0.8618423757989426    0.4988555506113998    0.5012689332729292 F
   0.8676519055927081    0.0022523722177740    0.3018896205728632 F
   0.6224075000337960    0.7496610011352558    0.8980929700483060 F
   0.6259176259906643    0.7429482245033390    0.7003098454200340 F
   0.6091253030369049    0.7449486966806321    0.5012446865346081 F
   0.6158017306291009    0.7533910225949225    0.2987041387516544 F
   0.6300100146825294    0.7529784792029649    0.1017497454043981 F
   0.6249153613307832    0.4955379995330096    0.9000014710347934 F
   0.6251777596894829    0.4986226968811122    0.7008690649719068 F
   0.6370661993851618    0.5012733173939223    0.5002206589084943 F
   0.6325656262321384    0.4975031024521340    0.3012588917865092 F
   0.6213690747665258    0.4940914589938759    0.0982466394912329 F
   0.8782544833947550    0.0049422559613023    0.0958349134448499 F
   0.1379794336665909    0.8758993587179386    0.8039333002026613 F
   0.8749180150908182    0.4993516757305520    0.7001068857132875 F
   0.8715811286954214    0.7473739788595473    0.1032468807990327 F
   0.1333717500077194    0.8759087384192388    0.3967890576184290 F
   0.1255544817634497    0.8762669644318328    0.1986887676472711 F
   0.1176204639198171    0.8753057434922299   -0.0014667451317508 F
   0.1244942672709612    0.6229254728995891    0.7984662949975049 F
   0.1269691798283940    0.6231603412305385    0.6034632426153718 F
   0.1243625820151403    0.6236055323510687    0.4023039295263830 F
   0.1281891561597509    0.6245818609832741    0.1957047556510640 F
   0.1267813487842986    0.6263981014848397    0.0006926251145399 F
   0.1252612434156913    0.3755795589724022    0.7960696291886540 F
   0.1249969895002167    0.3741554704654813    0.5972461287250288 F
   0.8717726489400421    0.4941903112018143    0.9017108669376454 F
   0.1264397450773938    0.3730834465221884    0.4012678054031252 F
   0.1249282930178878    0.3724781567543615    0.0000999681643043 F
   0.1246969390991555    0.1237277470526900    0.8000129636644973 F
   0.1248554172498087    0.1279599366687289    0.5993034023381993 F
   0.1247442286936188    0.1275045394368368    0.4024033502410813 F
   0.1235881846120009    0.1244589942773038    0.2003712773304736 F
   0.1260206008286706    0.1250749403468253   -0.0030558949166690 F
   0.8755175072735586    0.7537851240035680    0.8957518186024968 F
   0.8740939514166812    0.7496081608872638    0.7016681885159595 F
   0.8899334024490555    0.7479900958124740    0.5030372933384619 F
   0.8831928421687123    0.7549627286996630    0.2958799595255637 F
   0.1268649663929975    0.3755050011604190    0.2055083614145914 F
   0.6313132875739597    0.8734785495873100    0.3956932315287667 F
   0.8742321778208317    0.1297585079503643    0.0006521763071474 F
   0.6385766549779598    0.8767030131374726    0.8030444482839925 F
   0.4982244158471769    0.6137172666107705    0.3004321033471798 F
   0.4953554825871603    0.6263986645665988    0.0989616740858136 F
   0.5006069892247709    0.3746265058058231    0.8991047221105510 F
   0.5021649875534109    0.3748112583590230    0.7018495213567373 F
   0.4982649857029429    0.3853523753752844    0.5005415512672552 F
   0.5010018484968894    0.3825250514957207    0.2995358026414836 F
   0.5003400510537508    0.3724733023617466    0.0986277850437718 F
   0.4959241045897999    0.1246499135268083    0.8995044824096392 F
   0.5009686552654071    0.1286395672600419    0.6992546158095538 F
   0.4974232051027163    0.1157566858517550    0.5002544600018954 F
   0.5021432124552865    0.1199214314317427    0.3005763208785948 F
   0.5039536465779190    0.1301377717940033    0.0986316433702535 F
   0.2506253007256369    0.8754004704651633    0.9080411611158122 F
   0.2519608632497261    0.8746598516382508    0.6893680732270028 F
   0.2543844569117279    0.8647672365500058    0.5117209254054651 F
   0.2470022273456645    0.8675345320634991    0.2960958600064681 F
   0.2463744600623752    0.8766262846416344    0.0940211762940314 F
   0.2517251743832945    0.6253354869203362    0.8985754237669847 F
   0.2492723248651636    0.6208200720195236    0.7017038454134796 F
   0.2526797608878777    0.6326178752590960    0.5009612882702500 F
   0.2551113219033004    0.6346360788870973    0.3006765864925757 F
   0.5007440744530296    0.6106700172604278    0.5032096130832188 F
   0.5014549132774059    0.6222772223144825    0.6995981626294757 F
   0.4969214377556080    0.6233487637119509    0.8995320711698073 F
   0.5033070673191178    0.8698148161717698    0.1033384804715199 F
   0.7487117144627221    0.8585923232391478    0.5087795261037326 F
   0.7480847766420041    0.8692231894403575    0.2968963327545033 F
   0.7466336332077431    0.8805028379861654    0.0947201134940357 F
   0.7475121717971277    0.6255149205562091    0.8984637946114693 F
   0.7485257266426658    0.6221313692774048    0.7009436615791526 F
   0.7467631216178843    0.6368299126856046    0.5005441033338577 F
   0.7459554535685443    0.6361772832816837    0.3021365614080280 F
   0.7533819069273937    0.6193548140722970    0.0991940955813259 F
   0.7482886811946446    0.3724070143143435    0.8993025513340330 F
   0.7480854256142687    0.3757657992109972    0.7011488468041336 F
   0.2490690794581403    0.6204612298920018    0.0986894634374769 F
   0.7492276221992676    0.3633119402131163    0.5016424967770339 F
   0.7454250446154648    0.3766891349923294    0.0984905592580024 F
   0.7500564997058582    0.1258443040417809    0.8986011373403204 F
   0.7516911601167703    0.1257043309725560    0.7009852186911651 F
   0.7515752340092626    0.1403693871431969    0.4998283024704022 F
   0.7510105408518277    0.1320354548767618    0.2992770633770465 F
   0.7512079425154817    0.1232872617464591    0.1001895111410789 F
   0.4973634519236455    0.8767881446976317    0.8902352952159476 F
   0.4981080022873339    0.8731357357187812    0.7140851502209519 F
   0.4950985866295860    0.8894306247067812    0.4903931356288985 F
   0.5051560311774077    0.8844749540825607    0.3024839196457040 F
   0.7453641647890137    0.3657793432576817    0.2990830866603378 F
   0.6098235702500266    0.8760159394117942    0.6007753250489768 F
   0.2559265189680057    0.3733122929389186    0.8991461750868325 F
   0.2484517874993693    0.3651624449941331    0.5010269739095372 F
  -0.0013952521786070    0.1290295231268355    0.0984010317314674 F
   0.8643554049236136    0.8774434248251478    0.7989320217420791 F
   0.8870718975676063    0.8755142448875037    0.6055219783073421 F
   0.8669875159106195    0.8733937845620043    0.3980048770351366 F
   0.8734617268209359    0.8819449111436172    0.2015770342294902 F
   0.8836326832356305    0.8733141177963768   -0.0045759745055309 F
   0.8761736135088849    0.6218227818096324    0.7970699306246956 F
   0.8723416050274320    0.6232713181517667    0.6023632058707663 F
   0.8759002997383093    0.6282213368660272    0.4024764479593143 F
   0.8740447623235762    0.6187876305930907    0.1974687868091021 F
   0.8764146906919725    0.6289410155763119    0.0019766254331068 F
   0.8721657261069429    0.3754958914245080    0.8006297573277710 F
   0.8739900090459768    0.3750886278172399    0.6030740239534244 F
   0.8743932472455084    0.3715460240709543    0.4026797865720015 F
   0.8727687393008031    0.3778894620445356    0.1975740043947013 F
   0.8718046121610388    0.3690979974020921   -0.0035053577457231 F
   0.8767430649272258    0.1242485779472259    0.7984323201683223 F
   0.8749511967512840    0.1251499388767564    0.6012690841024123 F
   0.8756708097978158    0.1276144178293499    0.3989944900893818 F
   0.8753082440168265    0.1218880473401424    0.1995005770539996 F
   0.6230147555088017    0.2527728540656319    0.8987215453684549 F
  -0.0007893895411151    0.1199685612695783    0.2995253172690400 F
   0.0023366942212328    0.1173983570813109    0.5004753508893520 F
  -0.0001837673058780    0.1266586533088630    0.6994730150364087 F
   0.0041118570462055    0.1238038256363018    0.8996144912505180 F
   0.2487384215765734    0.3654766067714808    0.3010745650519666 F
   0.2561679344156285    0.3793198506428838    0.0998749707776938 F
   0.2500025602928497    0.1255263823585587    0.8975077908747763 F
   0.2481001276850728    0.1265987023237873    0.6997279454676593 F
   0.2486974553717338    0.1372514990050560    0.5010085430032639 F
   0.2484722652274005    0.1333804505340811    0.3014930511478995 F
   0.2463908364333244    0.1225588458931671    0.1001147520458324 F
   0.0008902094022592    0.8770592550726463    0.8917321219289441 F
  -0.0049179778272490    0.8731456875587054    0.7123839312228198 F
   0.0006135648989315    0.8914068511109451    0.4900218807030446 F
   0.2529861151813801    0.3759572434841780    0.6992229395623319 F
  -0.0005799934926825    0.8847676423281969    0.3021472763112172 F
   0.0037782464798140    0.6239035587558218    0.9002100203853001 F
   0.0007723819653897    0.6238960599308281    0.6989879363713584 F
  -0.0004061733675508    0.6089582611428465    0.5040350898467318 F
   0.0002693455232224    0.6144122495878732    0.2983741648024555 F
   0.0029874019720661    0.6275308584947646    0.1000164481133227 F
  -0.0060455023744486    0.3742750669479096    0.8983943269172385 F
  -0.0030010903470335    0.3740148904361496    0.6998352990175167 F
   0.0037332296839458    0.3842389650254107    0.5007274952259609 F
   0.0051630646302779    0.3811706026171084    0.3016765075011600 F
  -0.0020921544713907    0.3710914638594364    0.1001680905325809 F
   0.0035321456406860    0.8709162668834215    0.1021434341763902 F
   0.6265596525054867    0.2534793280746340    0.7008036081935168 F
   0.7520659236235142    0.8760396676402754    0.9081606601587412 F
   0.6172230709558145    0.2507189139750669    0.2978851020789037 F
   0.3791346288355706    0.0001915078311121    0.0960291039113628 F
   0.1251391359646931    0.7518866051550028    0.8995297841838475 F
   0.1260038836385704    0.7434725055000011    0.7011994915479015 F
   0.1150729949922565    0.7474616919319951    0.5001189452336402 F
   0.1158680171015734    0.7535043084027711    0.2989845495344134 F
   0.1286611628561564    0.7478240328675395    0.0993704501784509 F
   0.1264568841930712    0.5028457733590461    0.9003180000823617 F
   0.1232153945847387    0.5018181268570400    0.6983172401777545 F
   0.1355000092503472    0.4953511668635852    0.5003005646167696 F
   0.1357885754168430    0.4947641244960622    0.3023777837432230 F
   0.1224670168545824    0.5048459631628548    0.0995939787381293 F
   0.1250613071746479    0.2442158094001635    0.8973517890869250 F
   0.1250449073562470    0.2488798195991284    0.6997130943600198 F
   0.1171710935099909    0.2504682142088394    0.5004696317536311 F
   0.1188357439456443    0.2514907963596095    0.3011160073381256 F
   0.1276173262619092    0.2464665728805565    0.1012471052878914 F
   0.1270354408355364    0.0016117806739210    0.8997644178668869 F
   0.1243695159696430    0.0041979998202695    0.6996709535467538 F
   0.1380717118082358    0.0075563702869341    0.5008806080920141 F
   0.1210601782027881   -0.0007823407496946    0.0983453801892443 F
   0.6119851396782628    0.2512100593586477    0.5011343592029729 F
   0.3694449335118237    0.0028799695089524    0.3050198127582040 F
   0.3625850244184565    0.0035151090811118    0.4994229620011444 F
   0.1316311761128645    0.0024634896863003    0.3002681415884336 F
   0.3734905445774087    0.0023723750805178    0.8980080638979617 F
   0.6278924097603217    0.2521462569243311    0.1003694740667868 F
   0.6239746220899718    0.0016051299634590    0.9017963444898959 F
   0.6247630733309228    0.0048784397300946    0.7006450745900512 F
   0.6372585792443793    0.0033443037303368    0.4986844874228082 F
   0.3760622521841642    0.0011687100589465    0.7019238843864838 F
   0.6220340181719588    0.0021429734881822    0.0979746294059246 F
   0.7549982641957995    0.8746423256263001    0.6926996401949520 F
   0.3745745709325053    0.7454491553004571    0.6999689494559377 F
   0.3869223738993529    0.7478520901385417    0.5043958346729240 F
   0.3876681509750942    0.7463405899870397    0.2980576246265489 F
   0.6323512399661703    0.0000966728465873    0.3008302430032638 F
   0.3755845351856464    0.4973423344143801    0.8993626693399079 F
   0.3702599616522387    0.7438064304401303    0.0993713514393375 F
   0.3831275239815477    0.2510684350846276    0.2971522923772864 F
   0.3844558588986101    0.2498663370586654    0.5032408783330593 F
   0.3751950429098143    0.2527970407431608    0.6998124348516409 F
   0.3733316548398485    0.2563533246804045    0.0997806328359335 F
   0.3787375517487067    0.4981662953103029    0.0971836005434544 F
   0.3663397641612550    0.5008074348016365    0.3023743688533354 F
   0.3654355453461204    0.4990519224345978    0.4991830515233899 F
   0.3765654233789907    0.4989287843002269    0.7026010054542463 F
   0.3763097896232726    0.2502865090901798    0.8989268057492351 F
   0.6248864356146617    0.8753440015860705    0.9015230685549288 Fe
   0.6225146933287667    0.6228335628592399    0.8973148732988331 Fe
   0.6224123565729344    0.6258422997328313    0.3021302225948114 Fe
   0.1252682716902287    0.3755048348474749    0.6969102353863265 Fe
   0.6240790695658809    0.3758559563609178    0.5014400294437940 Fe
   0.6250622898036049    0.1271595046808385    0.4999855560058369 Fe
   0.3749820410585060    0.8735191005663026    0.7008788360583490 Fe
   0.1258721473598260    0.6220419882442265    0.5027411355819326 Fe
   0.3752017056919733    0.1266655459659793    0.3011416878661500 Fe
   0.3743863967789554    0.3756399329768624    0.2989035879963838 Fe
   0.6230989644976270    0.1270820360445549    0.8998375322876901 Fe
   0.8773865227814570    0.1259953644485667    0.8996962456123190 Fe
   0.3744834662238368    0.1266782250680908    0.7007132092542211 Fe
   0.8764002571638576    0.3737275373897569    0.5026860960874528 Fe
   0.8735674053440660    0.6242572181181699    0.5018929540056822 Fe
   0.8723716397202881    0.3735483475392239    0.0971889579969214 Fe
   0.4991130175894402    0.4990161865831002    0.1986014361181031 K
   0.2519908703756629    0.4998408880713256    0.8004266742712601 K
   0.7502260952152497    0.0024664077901980    0.1998186666967286 K
   0.7509291435375721    0.0025976072271870   -0.0008082713610104 K
   0.2497475213857462    0.7484738129719618   -0.0023228005789348 K
   0.2500456492877521    0.7493683818230708    0.1976994847707165 K
   0.2497940598034379    0.7492379678995487    0.4017130591780805 K
   0.2523159706192609    0.7443403799102224    0.6027013279465269 K
   0.4973059318500680    0.7459334886833293    0.8009947486654427 K
   0.4989688727004623    0.7445005904928498    0.6032186102878306 K
   0.2504772914690191    0.7469619147770367    0.8018188955736057 K
   0.4987363121160289    0.7496323187895796    0.4008055567653427 K
   0.4997325841293609    0.7484261287232495    0.1983069619043197 K
   0.5017702020894771    0.0008605287983780    0.1988051304976331 K
   0.4975096199370327    0.7476687466022990   -0.0020698311102557 K
   0.5005014320046198    0.0049232721779595    0.3985224026901513 K
   0.4991909717837504    0.0038435266620589    0.6006342691471919 K
   0.4986228888352394    0.4986894853568353    0.8002821469020137 K
   0.4990529995028796    0.0026473262778137    0.8007252910550817 K
   0.4996843710155535    0.2513556054558244   -0.0014744817430453 K
   0.4988056298735560    0.4984951016314600    0.6026467064887270 K
   0.5013296873562508    0.2513375069075679    0.1989891514594900 K
   0.4995933555622263    0.2517291427574547    0.3997820889057010 K
   0.4992467166789978    0.2518865866260547    0.6019160911531589 K
   0.4996665640154947    0.2516225665523475    0.8000346102845030 K
   0.4981675612308361    0.4992403502336024   -0.0016828858655433 K
   0.4996219507055443    0.0006959174342729   -0.0019003667779247 K
   0.4985670665614326    0.4987810280833598    0.4007695845637662 K
  -0.0011676298401727    0.4984083650906893    0.6030083889184640 K
   0.2514370328223263    0.4994477110255502    0.4015513724756475 K
   0.0007090290568269    0.0017475148372483    0.1992605011532591 K
   0.0003149761944304    0.0049859840187815    0.3969528615727512 K
  -0.0003538235962457    0.0035889467295912    0.6016729283969552 K
   0.0003152446916107    0.0014668185155012    0.8003862763478631 K
   0.0007179546983305    0.2484483970426490   -0.0006815666107801 K
   0.0006537188882052    0.2467810366168735    0.1993984279556739 K
   0.0005037277077171    0.2476477253815045    0.4003065939830176 K
   0.0001051856621705    0.2487779714168835    0.6022184124537570 K
  -0.0004066892552094    0.2489908303648959    0.7982582010432446 K
   0.0014954085349058    0.5000737580578820   -0.0008342922759435 K
   0.0006633037122916    0.4995241893782030    0.1976861967739087 K
   0.0017113145585420    0.4990161040982972    0.4010501255865961 K
   0.7506068841305762    0.0037712313916869    0.3978215601451194 K
  -0.0000757626706241    0.4993418552279341    0.7992386622980217 K
   0.0027400510934487    0.7506764607103432   -0.0016733954138534 K
   0.0019237513032888    0.7511796049169660    0.1983405083835143 K
   0.0007158088406611    0.7542326254831941    0.3990366688683547 K
   0.2520993958319761    0.5004004615196158    0.1985898250209417 K
   0.2515659041617732    0.5007123931489441   -0.0017887914425280 K
   0.2505798759415135    0.2505934371281937    0.7991777619395687 K
   0.2512542463037677    0.2506428540217034    0.6011259082023861 K
   0.2495910980967528    0.2503053510413640    0.4012608749828760 K
   0.2495600924473692    0.2491764618825570    0.1999791624430597 K
   0.2522268595208513    0.4990564506893690    0.6015898944863673 K
   0.2500416595230425    0.2499222472620535   -0.0014536170971503 K
   0.2502761024579870    0.0034582038804185    0.6008009531895632 K
   0.2492473049559574    0.0040885306050886    0.3998421685097929 K
   0.2474403728027195    0.0001514134629680    0.1990843023057046 K
   0.2483556275096466    0.0002702939394884   -0.0017924919162508 K
   0.0009949574361023    0.7483193263215943    0.8014023741949812 K
   0.0000518468019216    0.7467592446122057    0.6036800582577162 K
   0.2492794484773180    0.0016521863891412    0.8007412944631288 K
   0.7507831371275014    0.0030285335381527    0.6026738218698088 K
   0.0013987447677298    0.0004257510481165   -0.0018828945839054 K
   0.7492914975548902    0.2495354213601660   -0.0006306016583175 K
   0.7518271144347678    0.0026929079640869    0.8002603117837064 K
   0.7512395517758581    0.7483800697249318    0.7998875969500935 K
   0.7502697930968987    0.7455182764159056    0.6042290749451354 K
   0.7480792356984509    0.7514349963797298    0.4004938241434873 K
   0.7501779795821537    0.7503560731150221   -0.0008564297494575 K
   0.7495565133640674    0.4984722789026296    0.7994086235263469 K
   0.7491263848571373    0.4988512771709266    0.6031876649593704 K
   0.7496620566875205    0.7519501756435665    0.1996400536690029 K
   0.7480492828954212    0.4976462922848179    0.1988461437522401 K
   0.7489736299856772    0.4979225044076679   -0.0009901024106523 K
   0.7503530984154542    0.2499169484736464    0.7993882324017456 K
   0.7514457635223180    0.2500439108167202    0.6027863407711255 K
   0.7495082369843400    0.2496774568746190    0.3989715188225025 K
   0.7490818716288067    0.2489043122963343    0.1992578596271519 K
   0.7472791828893687    0.4983028780215440    0.4008755999059532 K
   0.8720091342902426    0.3733351915172330    0.8985328473204799 Mg
   0.6244530309998220    0.3744080060756163    0.8995096504348531 Mg
   0.6247850784918504    0.6212111385068776    0.6999826221769455 Mg
   0.6261888204554634    0.8764736699472525    0.2989911593978193 Mg
   0.3774171207254841    0.3738759952253435    0.8999745288622381 Mg
   0.3774219993771803    0.3766890880078801    0.0976997146277797 Mg
   0.3728749853165839    0.1264792166278482    0.8987820936868466 Mg
   0.1252401269116326    0.6229783953264453    0.7013703147031980 Mg
   0.1265384263526402    0.3736898208780743    0.3025061355294974 Mg
   0.1262047519654711    0.6259030032761728    0.0983013000056473 Mg
   0.1258379172130563    0.3730499766712054    0.4994006652911266 Mg
   0.6249512679827582    0.3760839038490276    0.7022322906148871 Mg
   0.1270505911978131    0.1235431370130063    0.8984996307677938 Mg
   0.8754839467238148    0.8748800809229965    0.7019496039363086 Mg
   0.1255397372967112    0.1281035091305733    0.5010873606560357 Mg
   0.6227749218764875    0.3735935070856710    0.0980966202502657 Mg
   0.8735523066489547    0.6269832450383359    0.2999188974479836 Mn
   0.8755521338794859    0.3731675115402653    0.2999577573145557 Mn
   0.6260304545197795    0.8739121435199341    0.7016049683346690 Mn
   0.8755924728757314    0.8761342172373577    0.0984202075975839 Mn
   0.8752989339507332    0.8762679327435873    0.5021792597162950 Mn
   0.6224279178795118    0.8743247347233819    0.4986590043059541 Mn
   0.6245463401657776    0.6235743585819631    0.0994056293921230 Mn
   0.8757955822168849    0.6238651475702516    0.8997230792994588 Mn
   0.3750729719508802    0.1276752179885361    0.0983362649075053 Mn
   0.3757397078558156    0.8746582584348225    0.3017147858438742 Mn
   0.3749484255313146    0.8725260111930262    0.0972848427831350 Mn
   0.1272287327577466    0.3757154422929518    0.1025431987854997 Mn
   0.1249568555941199    0.3735703328220646    0.8983273834473363 Mn
   0.1274509815008218    0.6241698256728541    0.2989204364553250 Mn
   0.1268720135790652    0.8777445742170163    0.4995333779831406 Mn
   0.1237312708891211    0.8736385240948512    0.7019557753026455 Mn
   0.3735273510644560    0.8756202919103808    0.8981133422752261 Ni
   0.8759861706360523    0.8759265670133574    0.8977541155040498 Ni
   0.1240642484074495    0.1258817742733540    0.6999049626207847 Ni
   0.8750966291502253    0.6243099056360112    0.7002677496273706 Ni
   0.8728684688749734    0.3745350163987102    0.7017439359253105 Ni
   0.1258917400061234    0.8762720219585142    0.9006597327553355 Ni
   0.8757618951135427    0.1245624396803015    0.6998142446699422 Ni
   0.8750788022837146    0.1242865938505882    0.2992580826838948 Ni
   0.8750631954120628    0.1257063452751787    0.1001723215570882 Ni
   0.3733785034213629    0.1262502375581271    0.5007823603168183 Ni
   0.3726980094856926    0.6218457519034710    0.0987330802112865 Ni
   0.3749988670341879    0.6219397957255836    0.7011529926678103 Ni
   0.3742713271921491    0.6236245415429775    0.8994077787441471 Ni
   0.6234864996401270    0.6238148899217768    0.5023627634173470 Ni
   0.6238861369679478    0.3742905970493077    0.2983964559453786 Ni
   0.3770364160088023    0.3760871393035219    0.7015664422522219 Ni
