Sr25 Ca26 La26 Pr25 Nd26 Ni64 O256
1.0
  15.9541947980634795    0.0000177820165296    0.0000151863355443
   0.0000177818234776   15.9543324890145559   -0.0001247024655519
   0.0000239606604541   -0.0001968057384988   25.1667281083400880
Ca La Nd Ni O Pr Sr
26 26 26 64 256 25 25
direct
   0.1242623597533264    0.1253706894201961    0.0730562046500961 Ca
   0.6232779399196575    0.6241913024488817    0.4248462294795762 Ca
  -0.0006809787278838    0.0012886229070447    0.6743913821962161 Ca
   0.2494292913702632   -0.0045206625532380    0.3239840275656367 Ca
   0.6234488441592406    0.3726030779837368    0.4264870197554927 Ca
   0.3792291252379865    0.1267832247720496    0.4302043746648734 Ca
   0.2471818048430361    0.4979935651937469    0.1804277585568785 Ca
   0.8766533768757289    0.1305656252069898    0.9280604203323680 Ca
   0.5019907451904344    0.2505028796516859    0.3220949487839014 Ca
   0.8770495400756774    0.3708192475949865    0.9237139134335960 Ca
  -0.0007152817064599    0.2481862672187213    0.6727289109204383 Ca
   0.4996776174479201   -0.0001667202481568    0.6726665231036658 Ca
   0.0029203212642436   -0.0006768425336388    0.8195185100403597 Ca
   0.3746590388361833    0.8751265016809262    0.0759301332397571 Ca
   0.6228255520991223    0.3727977221438341    0.0748835204451454 Ca
   0.3758246687779243    0.6272072126750676    0.0711818041628525 Ca
   0.7416252476257216    0.2486461327431365    0.1809053554892574 Ca
   0.7464354904792516    0.7492726255684535    0.6733399739494312 Ca
   0.1244062325773370    0.1208500178088169    0.9314025821812308 Ca
   0.3739640211231532    0.8734501363735794    0.4251362233647739 Ca
   0.3717967603443604    0.6275758699341965    0.5730904903907812 Ca
   0.0004656425315831    0.5023285982074310    0.1789095234880627 Ca
   0.5041243631021164    0.4966790202854053    0.8159929609666415 Ca
   0.8753965883725042    0.8768455174980191    0.9258856414204492 Ca
   0.5001474913362598    0.4997301258525784    0.3215715749623673 Ca
   0.5030051459811903    0.4963620712499540    0.6763445339120736 Ca
   0.0006785915427767    0.7487060485536262    0.3253251388458112 La
   0.2535289544921957    0.7475043744505573    0.1733101613206728 La
   0.2529980346332337    0.5026785815676126    0.6748222996694859 La
   0.0007051227091141    0.0018517636373492    0.3258260676368632 La
   0.2485971747039520    0.2509706389532914    0.1744790834014867 La
   0.2514888659501010   -0.0000287141477231    0.6746421631553094 La
   0.2516349321938083    0.0018481430386599    0.1749527267758769 La
  -0.0007053565722233    0.7510123691101838    0.6751963155974017 La
   0.7512652033074424    0.0020048573966558    0.1743191145544267 La
   0.3770169260590052    0.6242763637527460    0.4262798382343623 La
   0.4974145652954720    0.7487120245892485    0.1730620760788556 La
   0.7511366676881356    0.7499597836802163    0.1736569671408297 La
   0.8734081154268177    0.8749747415217450    0.5775460393748869 La
   0.1216317824675872    0.1264985857564784    0.5776205035236881 La
   0.7510732792409489    0.4988460287744938    0.8248808314050340 La
   0.1237332814249965    0.6209794055524432    0.0735550444510221 La
   0.7544997319937449    0.0014355514377583    0.8247374699538553 La
   0.1262336001906679    0.8770689487506593    0.0747409401493124 La
   0.7469464114135022    0.0002425941112596    0.3259204931309196 La
   0.8745057200805554    0.6234847199179856    0.4250468097527745 La
   0.2464854724376042    0.0051417172925659    0.8264965031799644 La
   0.6233473002298130    0.1228356995921169    0.5757581034191068 La
   0.6252360070720874    0.8747460070198295    0.9240762856574356 La
   0.2508338367933478    0.7505876366088322    0.8250445012044700 La
   0.1207811498681626    0.8793906696423823    0.9250035142777588 La
   0.7512034195884110    0.2504885826739965    0.6749216211104596 La
  -0.0013412352228411    0.4993492980919099    0.8257155583800802 Nd
   0.4963397465995488    0.0034166357266097    0.3234605653224671 Nd
   0.1242569852910857    0.6245958046027469    0.9243503474037837 Nd
   0.5002303763457633    0.7502975357319089    0.3252295947741573 Nd
   0.3777964214501969    0.3762176335805113    0.4288233678199128 Nd
   0.1305936770623692    0.8760781306615177    0.4238758861676820 Nd
   0.2472976732508479    0.5023469992191490    0.8229957593991812 Nd
   0.4995349137770759   -0.0003768917729861    0.8226747083691454 Nd
   0.3768591150960513    0.1248994970059147    0.9251516687678268 Nd
   0.2547740062683020    0.7492608699756487    0.6729463802723887 Nd
   0.7510723933780250    0.4972415901597051    0.1785139042186631 Nd
   0.3745658185246986    0.1256202780737095    0.0741164369239926 Nd
   0.3768298161467196    0.1239960118071972    0.5743934669514081 Nd
   0.8729407729376604    0.8750763259531232    0.4256834311882353 Nd
   0.8719847259119937    0.3756338564997629    0.4263461358869950 Nd
   0.6242688289520419    0.8744056899206670    0.5765383179871334 Nd
   0.8767180788940895    0.1239336065048501    0.5768454826941053 Nd
   0.7472381279384073    0.5020640955232080    0.6745375067191812 Nd
   0.8755399025340010    0.3747149873342742    0.5763660999938797 Nd
   0.8754668741818354    0.6207233019491691    0.0750151463149263 Nd
   0.8770126184117614    0.8760785254486306    0.0732850348409548 Nd
   0.7515595680701496    0.7519745706135257    0.8238423191212954 Nd
   0.4990634643879092    0.2499036201766033    0.6750481147432698 Nd
   0.4993027191792710    0.0004684835814890    0.1734532872698361 Nd
   0.7499077132149099   -0.0014925955090419    0.6753205672709880 Nd
   0.0012167360325771    0.0026495293168992    0.1734536181258036 Nd
   0.2531892297074861    0.0011274553364531    0.4979959478300714 Ni
   0.2492296128870643    0.2475575588657672    0.0011970979733685 Ni
   0.7513656534847710    0.2508825174307799   -0.0017622956009785 Ni
   0.7479791422121757    0.0004092636432481    0.4995925348816764 Ni
   0.2513095694863414    0.2494559649341051    0.4998963513623539 Ni
   0.2502402828422257    0.4996995915345812    0.0017695298335759 Ni
   0.7516918103868738    0.0008784952923193   -0.0014437978351478 Ni
   0.4990024545209202   -0.0006409013939156    0.4993125994865178 Ni
   0.2506049283642837    0.5000465121260712    0.5006635998027709 Ni
   0.4989773360473967    0.7508791363921322    0.0036240927541006 Ni
   0.2496759444629711    0.7511863593898543    0.0027183381604003 Ni
   0.4994405491133217    0.5001318388386560    0.0027966202625227 Ni
   0.5000461552989339    0.7498995124509211    0.5000645946217743 Ni
   0.7487158843003160    0.2498979703361535    0.4999222136920810 Ni
   0.4999461997980950    0.2501266637043041    0.4987182740944454 Ni
   0.4999907052430253   -0.0001357544987985    0.0023681750711237 Ni
   0.5017682902580050    0.5011312848784590    0.4987834251806157 Ni
   0.2522296558111520    0.7501520109452243    0.5000348730260503 Ni
   0.3759485907500937    0.1249332637166847    0.7484267582888179 Ni
   0.7477048098143245    0.4991775948464125    0.4983668485466721 Ni
   0.6246886773486311    0.1238111188765306    0.7481406484427425 Ni
   0.6235668582301779    0.3740598335694021    0.2507861414690607 Ni
   0.6245864739055659    0.3747062418499418    0.7491124939748474 Ni
   0.6238540442072652    0.6255877922990164    0.2514142286911469 Ni
   0.6261782701143042    0.6249130755550961    0.7487430537606854 Ni
   0.6231808228097019    0.8752090050774943    0.2500437957047839 Ni
   0.6250561202572603    0.8751448720518578    0.7484809021692432 Ni
   0.8734945088373812    0.1269476094283859    0.2490579933773441 Ni
   0.8768390028605834    0.1237176200749028    0.7480330061359695 Ni
   0.8741540775010807    0.3737899801974326    0.2459987185498472 Ni
   0.8757206934004487    0.3749081259666503    0.7484997280782063 Ni
   0.8744526851072005    0.6238470897360873    0.2495563284149008 Ni
   0.8735967007668313    0.6259659217617219    0.7493191075922501 Ni
   0.8742648170099173    0.8753213848577789    0.2498432790362183 Ni
   0.8753982212162135    0.8750569770152239    0.7478934105639228 Ni
   0.6236226929585545    0.1252932067337014    0.2502741604201861 Ni
   0.7504523711636663    0.4986464778872818   -0.0002797513388320 Ni
   0.3764332442262672    0.8755784438503555    0.7491107967128472 Ni
   0.3782232520793987    0.6235009443839099    0.7512648709097021 Ni
   0.7517888278381846    0.7504225284376490    0.0008265619725532 Ni
   0.7470446908954066    0.7502141980776965    0.4985330255265547 Ni
   0.1260896532274016    0.1254795186423294    0.2499115914135225 Ni
   0.1223496406991674    0.1259325530972783    0.7469927068301262 Ni
   0.1254112739870565    0.3766684457084546    0.2466587475646990 Ni
   0.1241978505379374    0.3747470491000767    0.7487037886702769 Ni
   0.1260179448173995    0.6240480673192942    0.2482057012178163 Ni
   0.1235380776679743    0.6253299506873449    0.7498951352833226 Ni
   0.1267546187358637    0.8750800073125191    0.2500448821155981 Ni
   0.1241895167930357    0.8761827142364588    0.7488006364720383 Ni
   0.3753277752151571    0.1257017217463265    0.2510820191135330 Ni
   0.2500484141645876    0.0013725745762575    0.0014279514143902 Ni
   0.3765062055407434    0.3746859539761976    0.2498002752947957 Ni
   0.3755261729828603    0.3760956798163680    0.7507038675693402 Ni
   0.3762934896536445    0.6225755094077188    0.2489103848210188 Ni
   0.3761753061663511    0.8758908335728394    0.2514331057666852 Ni
   0.0002277126341360    0.7499243405876931    0.4983476389154951 Ni
   0.5003132428896501    0.2501677135776823    0.0016833528992779 Ni
   0.0005386642146366    0.4988555008122585    0.4989692467517193 Ni
  -0.0007590111709131    0.4985787957948271   -0.0008635494274331 Ni
  -0.0000683633275608    0.2498171992612422    0.4995317795100090 Ni
   0.0008885356101830    0.2486860341721473   -0.0042529020646388 Ni
  -0.0000848671758983    0.0003761062886237    0.4984231696314715 Ni
  -0.0017147851911450    0.0022529561159094   -0.0028069667974094 Ni
  -0.0013772532795243    0.7501126418770682   -0.0005802991226192 Ni
   0.7444992615226357    0.6237526239116361    0.6273611319882907 O
   0.7576904731341072    0.6195574853496199    0.1296939743397682 O
   0.7480786832435599    0.3757109620672385    0.6245327464681834 O
   0.7512221413375180    0.3696730121211605    0.1284506588861891 O
   0.7501169339485799    0.1240707123836910    0.6254710302890036 O
   0.7503560451501838    0.1290957993645742    0.1291227305632777 O
   0.5008467165744466    0.8791124516139488    0.6227515760671294 O
   0.5003549726053054    0.3734942834329566    0.6260623389218838 O
   0.4947438392943625    0.6129730701273648    0.6212995151707437 O
   0.4915776859985670    0.6176893119085393    0.1272878207752050 O
   0.7552676278809173    0.8760875220657455    0.1257432794640062 O
   0.4998900495267978    0.3767938745654414    0.1270572919754517 O
   0.4994634725372689    0.1257675234808708    0.6247235469024712 O
   0.5004802156017408    0.1262515533343275    0.1240647259086512 O
   0.2518210905395185    0.8752628118256229    0.6236889315279323 O
   0.4948269186705817    0.8752663270722560    0.1286120934992334 O
   0.7473922896466412    0.8762738957165437    0.6262298944052778 O
   0.1281055523827791    0.2506744792844395    0.1212756318740575 O
   0.1271651446388978    0.0006760733795502    0.6255450904252650 O
   0.6255349291069223    0.0058221042658697    0.1276882168463616 O
   0.3728304735042816    0.7499573978136755    0.6208609975670013 O
   0.3735756751501899    0.7482621052729725    0.1242014541662262 O
   0.3822732321622924    0.5053088122136116    0.6233980662348201 O
   0.3686894612110752    0.5121793676786123    0.1291669843627682 O
   0.3766573733420392    0.2490842272001905    0.6239051469160679 O
   0.3743077174574047    0.2470772917996261    0.1268624682272174 O
   0.3748154264595118    0.0009425463720322    0.6236934858235734 O
   0.3757005278169997    0.0032904496900981    0.1248167433396275 O
   0.1270216991195098    0.7551283329509877    0.6284482039770151 O
   0.1329195682415332    0.7460167066365433    0.1210352766623234 O
   0.1266876635687547    0.4986763335217814    0.6327673939193132 O
   0.1241611973533038    0.4961269074952027    0.1252455973676710 O
   0.1262527270613781    0.2452905645398998    0.6286505415527175 O
   0.2499298540259877    0.8757990434725932    0.1264687146319123 O
   0.1258608360640035    0.0010906944454683    0.1258209359950113 O
   0.2549132337432637    0.6250982338841417    0.6271683233215952 O
   0.2458969982444788    0.3796454541225756    0.1276860216096632 O
   0.2582993239727367    0.3772055750575823    0.6267630285047887 O
   0.6239171311272185    0.7499655787357749    0.2547210110393033 O
   0.6277318175793307    0.4985123324504916    0.7465715104675893 O
   0.6236010776965462    0.5001968374333667    0.2498111078148700 O
   0.6239777181463896    0.2490996857030386    0.7476587898313247 O
   0.6242886492543297    0.2490396527619544    0.2505530032934659 O
   0.6263309106515050    0.0006567722944393    0.7489803595787825 O
   0.6204334595265399    0.0009049520593016    0.2508356243886271 O
   0.3738453155876518    0.7490192036782435    0.7486399125011560 O
   0.3767432351201462    0.7500264838806044    0.2518164647177042 O
   0.3738988624356268    0.4998740288669544    0.7487965194765134 O
   0.3825667178507624    0.4984969455251044    0.2497710771078821 O
   0.3789609843696490    0.2502766124753378    0.7463450660491634 O
   0.3793575740165341    0.2498484185496248    0.2500970916600330 O
   0.3770101041659195    0.0012211020697439    0.7493735226263232 O
   0.3796970657613692    0.0007692070433175    0.2505492082395740 O
   0.6281601880401236    0.7503486692126965    0.7507654634066854 O
   0.8733611867193966    0.0008781265036024    0.2499758513005363 O
   0.8730694940283115   -0.0005544552167130    0.7484717451333937 O
   0.8684096775539866    0.2500331541736971    0.2524963591198384 O
   0.6260331404613255    0.0005574725326101    0.6257673910037400 O
   0.2531798959246603    0.1255739914602319    0.6240460376962883 O
   0.2495169659939175    0.1254360748442817    0.1230267914891016 O
   0.0002362185309286    0.8767118685501952    0.6239833781481079 O
   0.0011180194635370    0.8790133131260841    0.1221158827021650 O
  -0.0011385940319083    0.6259310806383277    0.6319195886012952 O
   0.0005469639490589    0.6170463227975781    0.1214699029130617 O
   0.2516729090851433    0.6146476320418502    0.1245249313217354 O
  -0.0057647423285153    0.3737001390935142    0.6275467555016053 O
  -0.0018831818614244    0.1241035809412574    0.6247498551499944 O
   0.0033230674002873    0.1238673024715490    0.1243836973112404 O
   0.8745801210205225    0.7507075498772695    0.7540950793885344 O
   0.8712393789263163    0.7501813059087554    0.2506543589764618 O
   0.8739820303590925    0.4992190808744194    0.7498182401924683 O
   0.8674895061916079    0.4990397576574930    0.2498137116912535 O
   0.8745951200624752    0.2501880390031301    0.7498589703320910 O
   0.0028717100557643    0.3862489808797812    0.1243149897085363 O
   0.6250077355539574    0.2526670762728796    0.1260851099629694 O
   0.6239507978536071    0.4998322799112844    0.6243976107549496 O
   0.6304549987707220    0.4897133492697569    0.1290294107602282 O
   0.8727638440419062    0.7518720988156561    0.3756900873877551 O
   0.8732405785280886    0.7559789357802176    0.8745695395897076 O
   0.0011530272995037    0.1212700216671014    0.3800985534284892 O
   0.0004074731316780    0.1216203637615352    0.8749613416035750 O
  -0.0008676789024915    0.3753117957991434    0.3841389600501246 O
  -0.0018430785198551    0.3732266041553713    0.8710065328134955 O
  -0.0043246531705074    0.6291622734528400    0.3745554049524273 O
   0.0027237087017039    0.6248396002125771    0.8733864332040834 O
  -0.0006769671671179    0.8765233677607283    0.3787954679205738 O
  -0.0025787091829594    0.8800664521043089    0.8748391760437967 O
   0.2644397927710059    0.1126065417895562    0.3777302411347053 O
   0.2484233300692651    0.1212920669128344    0.8822927615917697 O
   0.2571339975674342    0.3736566982268715    0.3808827555626412 O
   0.2525004102959481    0.3834566797960918    0.8716515715418846 O
   0.2576934983238738    0.6272680562198083    0.3738310084871949 O
   0.8748242145038667    0.4943345249584268    0.8733860788068748 O
   0.2456915957640756    0.6244535373735959    0.8731090074951062 O
   0.8683667096824909    0.4983744254113975    0.3770493103410882 O
   0.8694544598617445    0.2517125259952833    0.3780140991480611 O
   0.3865738669503287    0.4963664811205904    0.3780042098134325 O
   0.3815594115226867    0.5003437785855133    0.8667350931640783 O
   0.3790034251061353    0.7487092508147377    0.3764047529501006 O
   0.3756934087260660    0.7496009772724304    0.8701769984157636 O
   0.6196880579996575    0.0066702630472450    0.3721456604216231 O
   0.1245711610313826    0.7502636575413631    0.7520874760156644 O
   0.6266459390989862   -0.0029053359463179    0.8695319972262493 O
   0.6197157674558543    0.2518582020012100    0.3748026063485966 O
   0.6247255841702820    0.2539300626268524    0.8731093467630253 O
   0.6160140270954023    0.4954238268410723    0.3762447256920017 O
   0.6220873504326179    0.4948527475107113    0.8714991257366882 O
   0.6203934537668192    0.7462724858107509    0.3749704903898795 O
   0.6249866708551171    0.7530030715164940    0.8719547220572792 O
   0.8731061972099836    0.0011646533309153    0.3759156506684231 O
   0.8862302279900675    0.0083389363540912    0.8757448621656796 O
   0.8769656603409426    0.2479487910315044    0.8740229289224880 O
   0.2536325234508591    0.8753217753582734    0.3752981087396364 O
   0.2430325335280922    0.8782747955076152    0.8718991474641927 O
   0.4941484397335375    0.1271274193155792    0.3736876566927883 O
   0.1277157902460136    0.4922762534758185    0.3739794057687945 O
   0.1115616526376199    0.2344080904609361    0.8767951913795686 O
   0.1318769912562111    0.2464117794139685    0.3788109939709070 O
   0.1207936731234105    0.0036271539982139    0.8749542503410089 O
   0.1269364971439595   -0.0004360828183357    0.3733332234386726 O
   0.8736788964535775    0.7561897876215811    0.6287623340650988 O
   0.8718805253186079    0.7490029031653819    0.1199843238744268 O
   0.8726508861233276    0.4958355397751472    0.6272030883106076 O
   0.8749012209303970    0.4961318250467203    0.1285504097304425 O
   0.8722065616375124    0.2492650186483187    0.6230478447120209 O
   0.8594141811570218    0.2611352590949306    0.1303716322826629 O
   0.8726594598132573    0.0003100519582316    0.6255224445359647 O
   0.8761449565293044   -0.0009105120393920    0.1262065413348144 O
   0.6251693112122664    0.7490059057066003    0.6213418500641303 O
   0.6248047539209344    0.7459909481562896    0.1310123089758025 O
   0.1240089101059281    0.5022140745523808    0.8734643893483297 O
   0.1263976034612775    0.7558685585500206    0.3720390164540824 O
   0.1230881890904799    0.7511679376714694    0.8771559446827147 O
   0.3695569840930641    0.0062490681585703    0.3769665343150683 O
   0.4984408287900012    0.1231798353346968    0.8726622314250904 O
   0.5011047508681642    0.3748801856718818    0.3739133059850161 O
   0.5023845681209550    0.3793557475460749    0.8715594080268010 O
   0.5010207694681151    0.6222052273346895    0.3726086184813976 O
   0.4947058721265037    0.6148676607160497    0.8677586570806162 O
   0.4888143151117056    0.8803536329859299    0.3692149806582292 O
   0.5029935086413377    0.8766100400506923    0.8724826899670123 O
   0.6245243575476376    0.2497016155136617    0.6252542729549178 O
   0.7470143810024633    0.1264746394895515    0.3769845792867414 O
   0.7452981312212805    0.3760312639174412    0.3771983723934615 O
   0.7509253435686745    0.3735821864004751    0.8763207948537743 O
   0.7466219911188473    0.6239661307016369    0.3747019954861717 O
   0.7488839698610591    0.6249086147677639    0.8673087478639611 O
   0.3785248234026879    0.2464898017308821    0.8758263067931379 O
   0.3881494890570406    0.2520574864827858    0.3799451573185911 O
   0.3750048235425303    0.0040162080879611    0.8717122947409619 O
   0.7577590875957311    0.1232818140832014    0.8735336705228629 O
   0.1280894306678318    0.7495996391899852    0.2511439387257253 O
   0.8723504228787453    0.7540735608566383    0.4964766610787811 O
   0.1265612394324409    0.5013799002478687    0.2438772719574950 O
   0.8758747656886482    0.2507057877316289   -0.0055278977302793 O
   0.8743442016679729    0.2480504679056464    0.5005345229296636 O
   0.8760270581102227    0.5015825452071460    0.0031337148066755 O
   0.8726402491172343    0.4960318579012813    0.4987374836645013 O
   0.8772650982657741    0.7508717529152332    0.0028814343073840 O
   0.7509304569071491    0.8763849555068594    0.3746526992134325 O
  -0.0002687190508764    0.1254136591640168   -0.0048530337074449 O
  -0.0019815459815690    0.1252330024587904    0.5018855785699321 O
   0.0033610412924744    0.3733714708650157   -0.0002299632368212 O
  -0.0059364434454077    0.3720335416012364    0.5027578672501714 O
   0.8738630606465658    0.0016308489443917    0.4992223817865986 O
   0.0021914945205036    0.6243792084422281   -0.0004391844699696 O
  -0.0007476460313945    0.8762369466446653   -0.0000156650976056 O
  -0.0011167615000789    0.8767436220655873    0.4997802777923150 O
   0.2522720531394619    0.1241998941441833    0.0028597221369781 O
   0.2532027648664723    0.1260008727692217    0.5005983895930030 O
   0.2458933915550745    0.3730136502726222    0.0031696112198739 O
   0.2560360245618783    0.3722953606820854    0.5002829750357777 O
   0.2445546453710286    0.6253025176005101   -0.0007774446279859 O
   0.2561351262858891    0.6246566000315912    0.5007647061845235 O
   0.2459695589749256    0.8773998321356936    0.0014809926452766 O
   0.2508332252580733    0.8770322383952320    0.4983015766912324 O
  -0.0028427491742462    0.6247655265950612    0.4985935197588392 O
   0.4983906454213640    0.1261774943225221    0.0022371851731639 O
   0.1252496966377555    0.5002416581680807    0.7540590226359080 O
   0.6259493386083680    0.7533715869720157   -0.0026051959737940 O
   0.1232262214291333    0.0009022557356838    0.0002163276231203 O
   0.1265765279230316   -0.0011980097467072    0.4973620114632064 O
   0.1253295936304946    0.2457889177120688    0.0021316512906996 O
   0.1254379205644331    0.2458239428019079    0.5004023052404774 O
   0.1245286924997043    0.5020926981135586   -0.0002603217880966 O
   0.1262958333376673    0.4949510497082436    0.4993291030589408 O
   0.1223914714668781    0.7503064388897895   -0.0017420516818566 O
   0.1271638364216384    0.7572292057750761    0.4992434116283723 O
   0.3750935036402380    0.0057204123189603    0.0011989911709494 O
   0.3766923514400823    0.0027593173806999    0.5016718948858903 O
   0.6237952056038387    0.7516867559611249    0.5031547072487421 O
   0.3742927418754935    0.2441855618154387    0.0012884638675018 O
   0.3737944981864664    0.5017841933711201    0.0026863721988528 O
   0.3774324439919324    0.4960880985966202    0.4992774972975861 O
   0.3733373237458407    0.7502966550740267    0.0044304017226645 O
   0.3762558632432099    0.7527584997635776    0.4982189970196760 O
   0.6263130758177555    0.0005040928318485   -0.0008646568560309 O
   0.6227545422879283    0.0028389957887499    0.5018944428941188 O
   0.6259808457097099    0.2501423141569848    0.0027100230165083 O
   0.6226893869094057    0.2489877759134577    0.4997635946243804 O
   0.6254677629431243    0.4958929924437629   -0.0007580907413700 O
   0.6243331445922533    0.4960990743038212    0.5026708667550938 O
   0.3773350711177070    0.2498215531874755    0.5019095198988699 O
   0.4995570745138291    0.1253759010307075    0.4996635449324902 O
   0.8757274515078715   -0.0018811731030978    0.0006178287521665 O
   0.4999946539829058    0.3745850764625988    0.5009190967074686 O
   0.2514201242827737    0.8745657124454104    0.7466318818323286 O
   0.5000989115600578    0.1238593215788467    0.2487616125080619 O
   0.5002315648288609    0.1259028479410653    0.7501675277791502 O
   0.5014909236655941    0.3732509547113161    0.2488148041780284 O
   0.5009338927975978    0.3731537713680089    0.7485160936956758 O
   0.5015394032081243    0.6266366902862629    0.2522794116705819 O
   0.5026456372924953    0.6230173255514010    0.7496187963168712 O
   0.4997697728823224    0.8760202337742505    0.2500759733998114 O
   0.4996731701347979    0.8753940104163238    0.7529211951231901 O
   0.7469832811719003    0.1237617582656992    0.2531612230594432 O
   0.2531828966601040    0.8762687250682387    0.2499770106340425 O
   0.7512758421888057    0.1251334842498268    0.7483313868370942 O
   0.7506769588984840    0.3727640002698784    0.7490295820869867 O
   0.7463608607342120    0.6238289859151386    0.2513149686032990 O
   0.7507282743323695    0.6236849735502806    0.7478859173328660 O
   0.7470112838533608    0.8760000302009601    0.2509368389596923 O
   0.7508296556277870    0.8771846414520615    0.7493639509354686 O
   0.1248576918806571    0.0001735416207803    0.2490345791658828 O
   0.1253457363647507    0.0002361206976076    0.7502910786036605 O
   0.1277543627591858    0.2498425326929444    0.2470216093068119 O
   0.1223217005054099    0.2515635568654378    0.7487829618349060 O
   0.5037306100652875    0.3734128286056590   -0.0009159205997791 O
   0.7464323157946547    0.3757533789611028    0.2531788909157210 O
   0.2508374515535111    0.6264190438494378    0.7496705483250280 O
   0.7533468652465000    0.8779752108154762    0.8741073887571557 O
   0.2501943022905985    0.3756843977704895    0.7480576877733573 O
   0.2526919628023743    0.6265553970583423    0.2466836563164234 O
   0.4979531424582239    0.6246948001346955    0.0021442400450127 O
   0.5027673630404771    0.6252138187451965    0.4967103318690075 O
   0.4994780245470061    0.8763423132330108   -0.0006756363665279 O
   0.7496959806850846    0.1260953423425275    0.0022489849702330 O
   0.7495188189986647    0.1260933901164981    0.5002638403595820 O
   0.7482745418394069    0.3747620457197254   -0.0026660656395856 O
   0.7503016899658633    0.3726281230371036    0.5011016412429010 O
   0.7531015274967476    0.6233732579538886    0.0039128619910591 O
   0.7442083278707143    0.6243279554707223    0.4981928270060337 O
   0.7551472840993768    0.8761789560726105   -0.0019538173001063 O
   0.4990664186726515    0.8752317193804642    0.5016033280799911 O
  -0.0004746232589498    0.1204205154341294    0.2507371607324214 O
   0.7499820932770040    0.8765754039003059    0.5013235391307932 O
   0.2501402777755279    0.1250236451053034    0.7480859105707454 O
   0.2526321326726837    0.3752283148903529    0.2475555238178080 O
   0.2520147391639062    0.1227086353478924    0.2474701639325576 O
   0.0001650428391170    0.8782879853185570    0.2514524940961229 O
  -0.0008720776359082    0.8736634066029426    0.7511257545598842 O
  -0.0004163812330777    0.6262406183877254    0.2494826883817847 O
  -0.0014546358069876    0.3777256576547667    0.7524270941109283 O
  -0.0007912797677236    0.3778963752022508    0.2484081359593943 O
  -0.0013883023914076    0.1241981476779031    0.7522039395053416 O
  -0.0027061606720983    0.6246393300040167    0.7528504655225670 O
   0.2535735199402381    0.7509656291124981    0.3257901757164648 Pr
   0.5003064579341830    0.2522341436618596    0.1757678929743132 Pr
  -0.0040000185700465    0.7528612640357152    0.8265293353003226 Pr
  -0.0039204430287211    0.2497614331073776    0.8206610919638642 Pr
   0.5032022633178216    0.4959378149237798    0.1781086744798717 Pr
   0.2506159371074940    0.2512541378452248    0.6751837767500710 Pr
   0.3786325810636626    0.3764158915440146    0.5750670254286725 Pr
   0.6265036821571074    0.6250736796540581    0.5732058375675411 Pr
   0.6228848702027450    0.3763532999606022    0.5742014113712601 Pr
   0.6292398209178343    0.1303953923376444    0.0756875905654904 Pr
   0.3787335898471962    0.8750760066050390    0.5731614419522175 Pr
   0.1246230550469797    0.8759412723590376    0.5757609643585787 Pr
   0.1263263531343071    0.3719178393479098    0.0716168592417307 Pr
   0.4993469648262729    0.2499549887307304    0.8248998490378873 Pr
  -0.0015346191201546    0.4982349395960096    0.6754289736216105 Pr
   0.5000001078807145    0.7505781737398304    0.8230153135919405 Pr
   0.7454307947890432    0.7499242406634361    0.3268007826778553 Pr
   0.7525711669843671    0.2494256335220875    0.8266734011654074 Pr
   0.6250044309798820    0.3761857569455175    0.9270643706730378 Pr
   0.6189265051918968    0.1289939578758228    0.4241812363673205 Pr
   0.7469686150757753    0.2529216085575148    0.3259890103377752 Pr
   0.1279588781630528    0.3737683886693688    0.4260070426433458 Pr
   0.8739601801225692    0.1270911269804568    0.4259704316470417 Pr
   0.7451516728186612    0.4985845797004172    0.3268447642123945 Pr
   0.1301891388139121    0.1233219621151811    0.4248959728645831 Pr
  -0.0011650065092402    0.4980665117850293    0.3220481696080043 Sr
   0.8734928936706624    0.6248667891486974    0.9270345739355829 Sr
   0.1240214752691296    0.3741773655723998    0.5756371159966248 Sr
   0.1246074412942537    0.6243643216155614    0.5743196485347456 Sr
   0.6187579073903360    0.8756457373342800    0.4265618551911965 Sr
   0.3746257933082669    0.3771669033782316    0.0725247971006900 Sr
   0.6240797576819981    0.6244071529897837    0.9270417033358389 Sr
   0.6264537735650819    0.1241309906590128    0.9270939568484775 Sr
   0.2545496708389017    0.4981393885185790    0.3214420835053390 Sr
   0.6261883076599005    0.6194793604035166    0.0736641459725991 Sr
   0.3746936539068354    0.8753859271296534    0.9284266855034093 Sr
   0.6237875150359704    0.8751346026073670    0.0733731288075726 Sr
   0.8751577939580854    0.3750030777078782    0.0666672119559451 Sr
   0.2478774474064458    0.2486756188820636    0.8245887080843849 Sr
   0.0009440754337605    0.2514413969546521    0.1779555536243698 Sr
   0.3732519899940634    0.6253417322744559    0.9300381915456629 Sr
   0.0003252225384191    0.7477843555215903    0.1754190225448763 Sr
   0.3756715848922083    0.3751610091470204    0.9286674962030542 Sr
   0.1265505542949232    0.6231696189069732    0.4263223573190911 Sr
   0.1243345911903963    0.3723807772370284    0.9265486528883149 Sr
   0.4995357015603434    0.7491188809074278    0.6755794901575827 Sr
   0.0014324532425451    0.2521055456297775    0.3247789912816430 Sr
   0.2558800481940038    0.2489464354640011    0.3232201974903474 Sr
   0.8762880021544805    0.1277936376213049    0.0707058743812059 Sr
   0.8736935859574086    0.6260333510585608    0.5751589224601374 Sr
