La13 Nd13 Eu13 Gd13 Y12 Zr64 O224
1.0
  10.7283944402579987    0.0019804433911686   -0.0015353012429983
   0.0039609095925046   21.4569382316583521   -0.0028229938956780
  -0.0030707579544173   -0.0028231956393483   21.4585854553045010
Eu Gd La Nd O Y Zr
13 13 13 13 224 12 64
direct
   0.6199033293736387    0.5660978929728947    0.0616012664870970 Eu
   0.3721689640695972    0.4350438190644672    0.5602862052668565 Eu
   0.3748947416983122    0.5626644380739793    0.4376378727490749 Eu
   0.3768531603474635    0.5625938857036646    0.9351106174432280 Eu
   0.1263473321116543    0.1854490692101856    0.4386774352458772 Eu
   0.3755558817310813    0.3130954312472152    0.6872805835583943 Eu
   0.3761811735240501    0.8117979677900653    0.1887476646121712 Eu
   0.6237704838812849    0.0628499105115831    0.5593723439132606 Eu
   0.1207883777051026    0.4337562403682341    0.1861214229588156 Eu
   0.6258353617111825    0.9379363454906464    0.9375131688364381 Eu
   0.8751119131088814    0.1861478487130746    0.5608217132742485 Eu
   0.1204628343344068    0.0615905647752466    0.3145336027677833 Eu
   0.1267781768345648    0.3105983342067858    0.5625306329682288 Eu
   0.1226112982531419    0.1893759092399618    0.9394026022533380 Gd
   0.8773093162718049    0.4380401416162459    0.8143668636356364 Gd
   0.8711230398010988    0.9386141290606859    0.3115834586879572 Gd
   0.6261078452292714    0.8129248917967878    0.3111648536635556 Gd
   0.6260547161420700    0.3121094645226658    0.3091776338358744 Gd
   0.8710105708135881    0.6889361476110958    0.0632482043996208 Gd
   0.3725867433524586    0.0599401203421819    0.4379589340063952 Gd
   0.6234338959715198    0.9381747681231835    0.4354138907371283 Gd
   0.3840661280531429    0.6860332352671693    0.3113197445660699 Gd
   0.3843253277772793    0.9348593967384605    0.0650139266121958 Gd
   0.1292296085908368    0.8156432853508230    0.5588134409574200 Gd
   0.3800833705949219    0.9369771611856896    0.5620763179421514 Gd
   0.8763686786157771    0.0656033660279514    0.1883665060115569 Gd
   0.6248535689694100    0.4380515441796521    0.4351654363957440 La
   0.8761821466409542    0.3118445221494981    0.4362411054991156 La
   0.6247781490531300    0.5624259067419383    0.5649321682642140 La
   0.1229789758853481    0.4381632337756508    0.6878973195128812 La
   0.1251455532990598    0.9362105838394140    0.6878088328775556 La
   0.6209097291933947    0.1875787616472180    0.6872875885478533 La
   0.1260663122517226    0.6868499197026924    0.9369507732850826 La
   0.1260701788160725    0.6882958003440898    0.4372694539321966 La
   0.8723323172842258    0.5623048635384411    0.1864369646600695 La
   0.3762342587091196    0.1857801487383688    0.3114577446173518 La
   0.8729176135129414    0.0613383358522856    0.6872689378729124 La
   0.1268062494983634    0.5606364521120870    0.3117270472676317 La
   0.3754605671382750    0.0635084630344726    0.9380575257602086 La
   0.8765981671853873    0.6888271628240351    0.5663485089274455 Nd
   0.6285259003594432    0.0631663042389723    0.0637920421690665 Nd
   0.6242394421623157    0.8121265668704697    0.8126205334152822 Nd
   0.6268114437436421    0.3127154466204418    0.8138009572247892 Nd
   0.3700059991211269    0.4386895303322575    0.0614534715458257 Nd
   0.8749225820004598    0.8141418833839065    0.9383039518644118 Nd
   0.8722710912694641    0.8135165905589666    0.4368716793792525 Nd
   0.6293506651373775    0.4379298289633982    0.9384206475967051 Nd
   0.3750032097432301    0.3115717393629255    0.1853688583423284 Nd
   0.1238354761011730    0.0639701173256627    0.8138525072517121 Nd
   0.3762575936801126    0.8100657577755749    0.6866902874110025 Nd
   0.1266831586527728    0.9389575619306247    0.1884036064194910 Nd
   0.1268272738347036    0.8124978760678225    0.0639216421010777 Nd
   0.7928536121348009    0.4984438589814383   -0.0017471456505681 O
   0.7846530731229592   -0.0011889604587515    0.4992682978147049 O
   0.7910513067901819    0.0012823165452326    0.0013126490018792 O
   0.7505462703805738    0.7305582842952443    0.8744681513242913 O
   0.7476448105814772    0.7331024258822884    0.3741421824979537 O
   0.7511359647363801    0.6255673626286189    0.9799253907664788 O
   0.7473410922762197    0.2302340680850780    0.3733851448682199 O
   0.7899964859876885    0.5003511526361446    0.5001575269865259 O
   0.7494470240176182    0.6257083042531494    0.4802298780992090 O
   0.7510098514219138    0.1256038246807973    0.9820081776692675 O
   0.7502625421275821    0.1246588903792631    0.4787184216458335 O
   0.9628238901644286    0.6236741337749923    0.8733674590608576 O
   0.9573902384879621    0.6263350534553940    0.3750197718406510 O
   0.9633001076794651    0.1253022303174425    0.8757466549441322 O
   0.7519972646386425    0.2327042497228446    0.8762300572239593 O
   0.2042925647689089    0.0012957469059622   -0.0009037936128229 O
   0.2047174082124801    0.4995863610159311    0.5003537699103211 O
   0.2067122731235075    0.4987607948547503    0.0011949865601457 O
   0.7486796579483710    0.2712292802071631    0.6258831920604754 O
   0.7487889533004450    0.2663941262759507    0.1248796710752573 O
   0.5011234274555256    0.5000913350875551    0.8544532107453144 O
   0.4998318678980421    0.5000971559819051    0.3527615305023667 O
   0.5004658714789565   -0.0001534398126460    0.8553364775515654 O
   0.5017460842919210   -0.0003701122595770    0.3570958914158042 O
  -0.0002845259557881    0.4997630353448008    0.8931915533746754 O
  -0.0011265912151657    0.5000861960881511    0.3939565901957143 O
  -0.0011719629432441   -0.0003421932126308    0.8950893090239205 O
   0.0006087465882904   -0.0003375281660391    0.3939679196946719 O
  -0.0008228424695336    0.6059843924229331    0.5005264572352616 O
  -0.0006000983048616    0.6054446035421487   -0.0000447693714560 O
   0.0004045134567415    0.1025317143287867    0.4993937725085003 O
  -0.0002422462818940    0.1092134223155858    0.0001821282766689 O
   0.9538901959938190    0.1239835102673923    0.3738152299726591 O
   0.2177303969871049   -0.0003423666877188    0.4992533695181156 O
   0.5383957006064995    0.6258208441710008    0.8739297173056405 O
   0.7492850016990321    0.6250242337883407    0.7674493054446596 O
   0.5441811581591338    0.1250658497073510    0.8759539603076919 O
   0.4996702168008257    0.2495935521638047    0.3931881206094182 O
   0.4988003372970488    0.8577567967786394    0.5006648298725485 O
   0.7513425602183078    0.7676793888839355    0.1247759295508488 O
   0.4983056364001246    0.8544792856821748    0.0019176722264975 O
   0.4979329796602555    0.3544720873733233    0.5001563062936153 O
   0.2496406911185946    0.9803398476234430    0.8748002161678022 O
   0.5005645947829807    0.3544903735381855    0.0000086992003311 O
   0.7094735735993225    0.7504996135858913    0.4996864539480173 O
   0.2820726114533167    0.2504726356072945    0.0001829933489683 O
   0.2904778462573426    0.2497230585217028    0.4995385074243340 O
   0.2910300528971146    0.7508361656900813    0.0011366638088149 O
   0.2916782474112709    0.7515083680896240    0.5013447615489544 O
   0.7112497209107930    0.7499248287245548   -0.0000104152366172 O
   0.7190127943037254    0.2501994050130256    0.0001326879062950 O
   0.7090026208191331    0.2493036918712292    0.4999469114095364 O
   0.4988076149068588    0.2493653158044399    0.8953750509611152 O
   0.5394409623577225    0.6258651836113195    0.3739009562209097 O
   0.4984091462642709    0.7499473851531240    0.3923391245727433 O
  -0.0019679563101091    0.2497988855685583    0.3526239635139078 O
   0.5398845613598828    0.1238288284052135    0.3750123060772275 O
   0.7473922516154810    0.6263136166228500    0.2671924973592476 O
   0.7525718808951802    0.1249388858884732    0.7718513874291117 O
   0.7481858136551636    0.1249391625328459    0.2659602269645283 O
   0.0018354766558890    0.8941825501387622    0.5000437156975774 O
  -0.0005378147372856    0.8945541121042089    0.0003331461952401 O
  -0.0001738254474018    0.3947841341466126    0.4999072163652104 O
   0.0005767583411114    0.3900445252885389   -0.0005155969552050 O
   0.7499861350285613    0.5193244897484478    0.8747238229977593 O
   0.7499164917072260    0.5212533152164348    0.3739801973785120 O
   0.7533669523150319    0.0189136492821172    0.8747914679243768 O
   0.7510113534471975    0.0165258293295162    0.3743739176186419 O
  -0.0010460928811366    0.7497125998925230    0.8541159857444632 O
  -0.0023209289764435    0.7509997785824861    0.3543252539519108 O
   0.0007175650476856    0.2503532845106179    0.8605868635203556 O
   0.5000084573079705    0.7500805700938409    0.8941963321939820 O
   0.7491172822421840    0.7701862577763645    0.6249125039512161 O
   0.7894837664668577    0.2507210314543514    0.7516266792507881 O
   0.0023924645084424    0.1452608485480586    0.7514353614418736 O
   0.2567464993661821    0.6266236809396171    0.3731885054023193 O
   0.2486995514107122    0.1304156245352666    0.8757160934955195 O
   0.2496544904999422    0.1219213666495416    0.3763238172605065 O
  -0.0035228667978117    0.5031384412635356    0.7531544008180008 O
  -0.0032654486805450    0.4954815316702457    0.2499530602209838 O
  -0.0037753138919045   -0.0022610955257324    0.7537227247250017 O
  -0.0059952367472587    0.0013678069603760    0.2507249497061657 O
   0.2530131937521471    0.8743787492147999    0.6214870530727682 O
   0.2561423777983820    0.8762126615849624    0.1252547011024776 O
   0.2508676736902750    0.3734723470785928    0.6238573798083141 O
   0.2436823642547043    0.3727242113574710    0.1217543470817293 O
   0.5001049684018370    0.7503648651424630    0.6070923810902943 O
   0.5026135525937204    0.7495494499381747    0.1082718041474125 O
   0.4995999065121622    0.2498607760618761    0.6043415356264045 O
   0.5010023725628586    0.2499610228165904    0.1052723608900173 O
   0.2520688696511856    0.6238196951719982    0.8704551362627236 O
  -0.0032167886529832    0.7483565695926436    0.6484321599661118 O
  -0.0022149478595743    0.2504829457149168    0.0010067931646125 O
  -0.0033741811165222    0.7490973580292796    0.0022446125898222 O
   0.4922474610033271    0.2494794467162681    0.7530318086447010 O
   0.5080036449390281    0.2484351018243840    0.2472661803961156 O
   0.7515004289608663    0.6255911158198066    0.6313528625243012 O
   0.7452424414291601    0.6291454073922207    0.1242098746156788 O
   0.7483682826102839    0.1243176886325593    0.6225888874130875 O
   0.7551538980913020    0.1286200960083372    0.1256100751972435 O
   0.4958471509197588    0.4999649639353871    0.5003827975173262 O
   0.4994091789735766    0.5019576660436766   -0.0005623531510837 O
   0.4981846124318830   -0.0016842620602752    0.4982286665202193 O
   0.4991382078527032   -0.0016506838805058    0.0022003103506944 O
   0.7518086637092928    0.8774126051645106    0.8741952348524029 O
   0.7464965696434852    0.8767737118465865    0.3725838472083763 O
   0.7590913436709313    0.3746309846713449    0.8767039822892762 O
   0.7508239172469768    0.3747884162692908    0.3687662584471043 O
   0.0018651122956943    0.7528035168022558    0.5026292770481238 O
   0.0026731908127846    0.2477987266124725    0.5007202565785829 O
  -0.0032006094872275    0.1448756407279558    0.2480850944620777 O
   0.0004029992738537    0.7506128560417897    0.1449438986877456 O
  -0.0012501432840770    0.2498454261399361    0.1400647527670724 O
   0.7517535871684599    0.3745591541820100    0.2305342021521392 O
   0.9604872113630222    0.8730374957148157    0.6236401790688020 O
   0.9615531746173044    0.8753578576764058    0.1254792244947755 O
   0.9585245893840709    0.3754100046057700    0.6258490147691909 O
   0.9615268517359136    0.3728390125213162    0.1232815169389805 O
   0.5385784757019199    0.8752087390805717    0.6250523652734913 O
   0.5422892740522675    0.8763383856565268    0.1242530769139150 O
   0.5419136111743688    0.3755829693727757    0.6254016031538546 O
   0.5394396499754193    0.3744472179086842    0.1243716166044504 O
   0.7490305042462061    0.8747048708166760    0.5170743121196160 O
   0.7508874895272490    0.8748136596004994    0.0207388812908382 O
   0.7498036259831806    0.3751757093689161    0.5193983790608749 O
   0.7513801719057678    0.3741108587827658    0.0179627772918152 O
  -0.0005767060037369    0.6411963791988289    0.7502056992871402 O
  -0.0011868944317661    0.6457397668001350    0.2497588331252765 O
   0.7506666578466463    0.3755139516146725    0.7341032010818209 O
   0.0008012530103399    0.2500645961622650    0.6480752636261965 O
   0.7503415496395307    0.8753116964112747    0.2310213772379109 O
   0.7525613650005912    0.4769122813533185    0.1250701359258635 O
  -0.0012864177307804    0.8543983153577596    0.7506414471490644 O
  -0.0007613257879305    0.8565473638362554    0.2500474795725282 O
  -0.0012342977192501    0.3563249266394963    0.7513473555452277 O
  -0.0034760020028936    0.3544740551050393    0.2496757140602671 O
   0.2133655464603706    0.7488456089641711    0.7513052778157946 O
   0.2131288990842398    0.7498301938694851    0.2508270565382627 O
   0.2100935606854481    0.2489358180320125    0.7520474036406711 O
   0.2080869103190716    0.2503894953141693    0.2484198303111019 O
   0.7843998754165102    0.7483591005766906    0.7487760192534431 O
   0.7827858779620498    0.7506579453948429    0.2492987726707180 O
   0.2527685454054726    0.9800107949503838    0.3756261203730480 O
   0.7846290613986716    0.2492430235782456    0.2481474045466628 O
   0.7522652229724975    0.9768649799626891    0.6263082062431268 O
   0.7505024120625887    0.9828324722057640    0.1257317720410748 O
   0.7515570453641999    0.4807166100563430    0.6260681012489392 O
   0.7503189094004121    0.8752137709654683    0.7330059069485712 O
   0.2475617662394826    0.4810838564411375    0.8749495364427022 O
  -0.0016689010723190    0.5008061749720348    0.6074763173378913 O
   0.2511901435779986    0.8756036627462856    0.9809366689849534 O
   0.4652047500174296    0.6262106556328058    0.1255966316326573 O
   0.4617246611249081    0.6265052737864707    0.6272272233621498 O
   0.2500960987031883    0.1257797681587870    0.2264141591994689 O
   0.2532101168823144    0.1259217967168990    0.7334473391481322 O
   0.2511804139496300    0.6255046119494539    0.2297043306459680 O
   0.2501053738174763    0.6251930764928191    0.7344465596062280 O
   0.2480928172677550    0.2318639011917633    0.1241719926525865 O
   0.2509162397669799    0.2291524443948804    0.6250263964618993 O
   0.2496185537900767    0.7309551875361928    0.1248913544331289 O
   0.2477143132266549    0.7306318999118815    0.6255138447890853 O
   0.2915708046752394   -0.0003887558934457    0.2490554385117655 O
   0.2891015837117771   -0.0002064807666967    0.7502836589835102 O
   0.2952389766843407    0.5007072370068817    0.2502002285791619 O
   0.2862770971548039    0.5014019490381694    0.7518551580056737 O
   0.7143977651635252   -0.0004136352003600    0.2505024815493785 O
   0.4569943398398955    0.1252364358160620    0.6251452635575324 O
   0.7112208182528418   -0.0012682521188246    0.7517059573669236 O
   0.4651042198801580    0.1262265830300126    0.1255673310807367 O
   0.0364900157930784    0.6260979964003536    0.1243720239056417 O
   0.2504976758320133    0.4785582132037956    0.3746202792238063 O
   0.2502405835415262    0.0197306296321009    0.1240353149351137 O
   0.2518925468860053    0.0186127432082663    0.6244385764421413 O
   0.2534382620689990    0.5215957101753849    0.1239148189696953 O
   0.2501959727926309    0.5219137669873609    0.6258652128411968 O
   0.5013975695578060    0.3910044304519071    0.2496463445436273 O
   0.5004308113213548    0.3956917416732704    0.7508728431590341 O
   0.5028116865389802    0.8939912647497060    0.2508209530143618 O
   0.4995319285408092    0.8923927373339785    0.7502218960457631 O
   0.2490879720568047    0.1257798116703823    0.0209347597505767 O
   0.2510634160643841    0.1241381406862521    0.5177505103970776 O
   0.2516011093977510    0.6253308340484099    0.0199989675442420 O
   0.2496361090397530    0.6253403143728916    0.5215539876121114 O
   0.0324717959372504    0.1253109424182264    0.1244532677291888 O
   0.0451139338831432    0.1241190877339675    0.6250013973250331 O
   0.0365366608412455    0.6248700041445751    0.6261717364124736 O
   0.7099631001193936    0.4987994046280153    0.2503362575501669 O
   0.4998446223728663    0.7451347436611038    0.7505964934893979 O
   0.5001360568004097    0.1025317291126350    0.2499355634133424 O
   0.2494736135084079    0.3745894725471760    0.2678208878014440 O
   0.2489894459935683    0.3747991629670885    0.7715814270422269 O
   0.2492566541068859    0.8762912711057265    0.2705542232153778 O
   0.2503979333339601    0.8743900687393933    0.7695535375364753 O
   0.0354399889052399    0.3760210952118820    0.3727406133221017 O
   0.0357131654384423    0.3750123304108238    0.8752817685565856 O
   0.0370611784315426    0.8757844941328686    0.3746893238716875 O
   0.0366788841186776    0.8751470916448456    0.8748990137260029 O
   0.4635977900426768    0.3739001277587907    0.3739071531593195 O
   0.4609473730771636    0.3751711149487760    0.8757404702698676 O
   0.4647640001962772    0.8753579425122400    0.3752342929689060 O
   0.4618373536875059    0.8749104373409000    0.8752647156308724 O
   0.2496679026556295    0.3747838965062898    0.4781919021402685 O
   0.2495314063773154    0.3750398135187730    0.9800868432256161 O
   0.7167760789614573    0.5011860656612809    0.7499656422935518 O
   0.4989939758291818    0.6468695792783131    0.5001103113288612 O
   0.5013592467441927    0.6465040776599885    0.0003333784379148 O
   0.2492535536465408    0.8744879025383222    0.4813374165863190 O
   0.5006385724524612    0.1467773213186941    0.0004682999793040 O
   0.4991378246595707    0.1426334179883648    0.4991274906780557 O
   0.5023514842788736    0.1033091280057632    0.7497088223472028 O
   0.5004372957436438    0.6099629177360698    0.2495911196497527 O
   0.4997064638406651    0.6086032309209939    0.7509738554393666 O
   0.4994611768635202   -0.0008056309344942    0.1432389909041215 O
   0.4994316626850953   -0.0009820128534245    0.6445649916215980 O
   0.5023024381701089    0.5015619589382276    0.6501027721690252 O
   0.5002676530604713    0.4996259763405231    0.1454850019519482 O
   0.0000597092646738   -0.0007474427885907    0.6030879549592051 O
   0.0015612018657277    0.4991272439484123    0.1036363559252939 O
   0.5047009505732123    0.7490485331977348    0.2505682581060173 O
   0.2491194596004707    0.2700238735672680    0.3742675753630661 O
   0.2515002453589802    0.2685617616123587    0.8742927923003296 O
   0.2488438553511060    0.7724722907372312    0.3759471768183453 O
   0.2503707752009842    0.7699132241023959    0.8753410178972080 O
  -0.0004333928201540    0.0007393593365774    0.1071479335543818 O
   0.8764463224926122    0.1882299430730618    0.0622607924266970 Y
   0.6260090181098743    0.6854489363314252    0.6912917233637680 Y
   0.6311647269404926    0.1894135991372993    0.1855380334238320 Y
   0.8742445437005302    0.5635884854673103    0.6913148354555558 Y
   0.8764008357501999    0.3118908700471488    0.9385401523433241 Y
   0.6239427419270154    0.6887475181647980    0.1871990004368349 Y
   0.8754886044833798    0.4330364663397445    0.3081287718415571 Y
   0.1249881108770723    0.5624858156923969    0.8126001376538876 Y
   0.3761111574051346    0.6837216841881895    0.8097883402164453 Y
   0.3617930604587017    0.1934066339386047    0.8128508758096578 Y
   0.1206413959173122    0.3118216522424516    0.0618934617953826 Y
   0.8713775517445252    0.9393478931430220    0.8148302758531119 Y
   0.1281033521503597    0.0613739260950539    0.5619951959343575 Zr
   0.1251220485051318    0.5634917109115165    0.0626553501153146 Zr
   0.1227393782877935    0.5626706097966628    0.5631029261893438 Zr
   0.8725314706593293    0.1871377008314764    0.3113727903298570 Zr
   0.8721918512736350    0.6884398803482593    0.3117984258564347 Zr
   0.8748848477817407    0.6869848429636175    0.8116558785569022 Zr
   0.3750467192786073    0.3119751436394929    0.4363094994359782 Zr
   0.3744013591583982    0.3121882338984639    0.9381095362842053 Zr
   0.3772525102216218    0.8131039567287016    0.4370562003960085 Zr
   0.8765672967396130    0.1884552694710895    0.8138458558706280 Zr
   0.1234072156901185    0.0628562382947567    0.0626415496600379 Zr
   0.6276943643340169    0.4373033421271401    0.6887117524928034 Zr
   0.6264163315333607    0.9381436447807372    0.1880482956245399 Zr
   0.6242198706103566    0.4368075364965019    0.1871373737813337 Zr
   0.3740086942887506    0.5631396264692646    0.6888615969438759 Zr
   0.3766857897475721    0.5632689796223975    0.1872622649201733 Zr
   0.3756047564080333    0.0621715216684921    0.6881394330870585 Zr
   0.3755105825151054    0.0626411962829253    0.1862555684553794 Zr
   0.8733275925051733    0.9363555362845263    0.5614848627750301 Zr
   0.8755473576048515    0.9382495286893279    0.0634782723883351 Zr
   0.8753959587143461    0.4377995751727143    0.5628886112344830 Zr
   0.8767920801788913    0.4364827249993324    0.0612690425805984 Zr
   0.3753586820367210    0.8127120839065390    0.9374457942342757 Zr
   0.6243476446367897    0.9370894816407490    0.6884155067052286 Zr
   0.6237382997859751    0.1872991615531917    0.4368556819366995 Zr
   0.1258132908309046    0.9374151642366145    0.4368887655284265 Zr
   0.6246582470221950    0.6879567034077418    0.4370968623924131 Zr
   0.3740320999374043    0.1882222284867041    0.0629916569634715 Zr
   0.3751849251692557    0.1870126189760188    0.5614193211779621 Zr
   0.3761751673181542    0.6880023667707525    0.0634250279276595 Zr
   0.3750258701429966    0.6880641115830809    0.5636800704167633 Zr
   0.8742757943039944    0.3113348368289507    0.1860730359919212 Zr
   0.8741209255521025    0.3128887198203286    0.6880921851227015 Zr
   0.8751389378507581    0.8125693588078622    0.1877503585791810 Zr
   0.8732230655691728    0.8128173281856821    0.6881501606274163 Zr
   0.1226916604276155    0.1875330605442870    0.1860496795265878 Zr
   0.1268688831053998    0.1869225962596701    0.6877399617598047 Zr
   0.1255121298094953    0.6881186227062986    0.1878948842281997 Zr
   0.1246680335001536    0.6869716120496527    0.6886787076049378 Zr
   0.6264687351649774    0.3120451750184377    0.0619007617193269 Zr
   0.6257138485273787    0.8118747306532870    0.0630402815761447 Zr
   0.6243923094839883    0.8126155310021698    0.5624858579728264 Zr
   0.6255170840464674    0.5623418732839280    0.8120992897741468 Zr
   0.6252002313537476    0.5631591084053607    0.3117212764443775 Zr
   0.6251445012311083    0.0628081643170967    0.8133405912135356 Zr
   0.6259497435589413    0.0620849207190297    0.3122349608131900 Zr
   0.6248327568878913    0.6879013193499405    0.9367944798270185 Zr
   0.1250180428999657    0.3124811934444914    0.3119371409086126 Zr
   0.1227630301659388    0.3126909157600798    0.8133950091154108 Zr
   0.1247343598255795    0.8130567385493968    0.3122171683960012 Zr
   0.1254434622240685    0.8123547441787915    0.8127443671837041 Zr
   0.3754921509840018    0.4359780146112041    0.3115133043154182 Zr
   0.3743078976999501    0.4374147327947213    0.8131531078743227 Zr
   0.6271903169310918    0.1883310037259429    0.9378537334111117 Zr
   0.3767522490525818    0.9377820185962549    0.3123815324413056 Zr
   0.8736621439479492    0.0609839813383229    0.4373851075386758 Zr
   0.8757453639383010    0.0631186444511612    0.9381224875737239 Zr
   0.8746194716743094    0.5627693808262832    0.4371869535219890 Zr
   0.8756754933350716    0.5627251316904341    0.9373060382023350 Zr
   0.1227298837001835    0.4375470388334207    0.4369232537666020 Zr
   0.1237439537837821    0.4371682392055989    0.9373555778496350 Zr
   0.1250468686194190    0.9370528311463796    0.9376170946940862 Zr
   0.3755188261374765    0.9371279621047721    0.8126880862750927 Zr
   0.6250545803752330    0.3129416922216939    0.5623294312869783 Zr
