Gd72 Mn14 Cr15 Fe14 Co15 Ni14 O216
1.0
  16.0940926239632311    0.0067646470418865    0.0028386257060030
   0.0067617157748795   16.7505575992596327    0.0075974332431869
   0.0027350823130963    0.0073081078418268   15.4094550676846609
Co Cr Fe Gd Mn Ni O
15 15 14 72 14 14 216
direct
  -0.0011655763327227    0.0000666292628276    0.4986197307467508 Co
   0.6671031727326636    0.0001054285642090    0.2511598827500445 Co
   0.5004926920007847    0.1657791703513858    0.2501856590367010 Co
   0.5002046852339707    0.5007984870319878    0.2506961105392127 Co
   0.8334837004495254    0.1663606067985849    0.2504887198489832 Co
   0.8330271539514050    0.5010248945613681    0.2482142722970229 Co
   0.8325490478743187    0.8337607367261409    0.0003704226232271 Co
   0.1659341839403911    0.1664016170678973    0.7499943983162617 Co
   0.8321948307564840    0.5005374241788970    0.0005355367946832 Co
   0.6665734354786325    0.6681776171276591    0.7491845764638732 Co
   0.0005724537011083    0.6659875387902142    0.5003728359082392 Co
   0.8317851668690204    0.1666124349750627    0.0004794362622809 Co
   0.6666966998663922    0.0005873461407005    0.0008697330480541 Co
   0.5006558706747110    0.5002809492730368    0.0002225812896634 Co
  -0.0002513421867010    0.3327177122690015    0.4998505543309770 Co
   0.8333332451940290    0.1669331669629888    0.4988562958349779 Cr
  -0.0011330776715752   -0.0005284544472766    0.2498544691129979 Cr
   0.5018079203585963    0.4996796328608754    0.4994042602989282 Cr
   0.0004946034901120    0.3337941874933694    0.2501214447730391 Cr
   0.3328647270919491   -0.0007805629912491    0.2517129321005548 Cr
   0.1674532997420441    0.8345541114508982    0.0004574033084592 Cr
   0.1665493673634201    0.4997193553796029   -0.0005207048123151 Cr
   0.8337536958501405    0.8345696207290739    0.7498878715969236 Cr
   0.3334668002508069   -0.0003818220695712    0.7509472054392236 Cr
   0.6664659623353804    0.3341089767643448   -0.0010908214617163 Cr
   0.1667747996953686    0.8331099030878635    0.2501684647706163 Cr
   0.6667803305472141    0.6678252973203054    0.0016121309680698 Cr
   0.6669977177388433    0.3337317757151512    0.4997872219548208 Cr
   0.6669977554985759    0.0002382055984124    0.4997241060169095 Cr
   0.8320906064112118    0.8334048102803180    0.2494451621691664 Cr
   0.1663683786325948    0.5003935721474654    0.5004855619873190 Fe
   0.1669655599649256    0.1657594115618291    0.2516744483948960 Fe
   0.3342467485514433    0.3325755421324424    0.4995946717549895 Fe
   0.0011683744397352    0.6671635427934202   -0.0000760702433634 Fe
  -0.0000119862180687    0.3343222812919268    0.0011882068031431 Fe
   0.6662845601016223    0.3332536946906989    0.2494876275345207 Fe
   0.8329820995128265    0.5010117149709790    0.7487657715409191 Fe
   0.5000447243413325    0.8338445610216934    0.7499758403758883 Fe
  -0.0000189333751738    0.3332239920028028    0.7494788372905760 Fe
   0.0007350392056110    0.6681963792119103    0.7486671076351546 Fe
   0.4999284943601531    0.1648944309301726    0.7505817133381127 Fe
   0.3329769596977461    0.6668011042947725    0.2505429503074033 Fe
   0.3342766612086724    0.6674925713316718    0.7490645609131107 Fe
   0.8332433471913505    0.4994059554458836    0.4993267697306709 Fe
   0.3406842515721826    0.1450279995467502    0.3772981604857660 Gd
   0.3403146296241715    0.1459286823328574    0.8750813837941052 Gd
   0.3405706076333707    0.4794513098157848    0.3753257959855362 Gd
   0.3410132128708345    0.4780032262565884    0.8743931340743232 Gd
   0.3402399138014761    0.8100167079715548    0.3787236220341408 Gd
   0.3396803986015672    0.8094627152670173    0.8784133666547718 Gd
   0.6741285038011254    0.4793937474474670    0.8751661173211013 Gd
   0.6728501916959364    0.1440021416223313    0.8767317355916990 Gd
   0.6730198272252943    0.4795240899005700    0.3731690823841893 Gd
   0.6701699092441408    0.8135340203366453    0.3762567597364648 Gd
   0.6722077691667685    0.8114577094766833    0.8765618948575858 Gd
   0.0058410131035416    0.8119547429581325    0.8740504826921055 Gd
   0.6715234909421157    0.1441680892979992    0.3725589145938442 Gd
   0.0055830559928643    0.8086876586847085    0.3767980753036624 Gd
   0.1729174548505877    0.0204431110988568    0.1269635498644343 Gd
   0.0043667742450485    0.4790303601318011    0.3757943882264716 Gd
   0.9905588433139348    0.1879358061015149    0.1257184845517855 Gd
   0.6613537852366724    0.8540520306494298    0.6221467965714108 Gd
   0.6580575837886430    0.8577073206873077    0.1258460470023648 Gd
   0.6604132623333775    0.5226726758446096    0.6259149414182233 Gd
   0.6579823916950752    0.5226560270513160    0.1248906988817593 Gd
   0.6609818810186834    0.1865124982605233    0.6217609603162929 Gd
   0.6594790432336145    0.1878022462106532    0.1234753300092934 Gd
   0.3246096376608755    0.8538065697559724    0.6231925357398895 Gd
   0.3322436109516796    0.8532085458936494    0.1260034253318427 Gd
   0.3274346236881688    0.5226666103958775    0.6222086563593882 Gd
   0.3306582843736861    0.5231846569450976    0.1226405347142952 Gd
   0.3261845091299252    0.1894679533767305    0.6274299532853884 Gd
   0.3312724616485743    0.1860781891782264    0.1256918819753139 Gd
   0.8416432651181432    0.6914265236619214    0.6217294737224679 Gd
   0.9951572450451319    0.1878346122148315    0.6245541940385142 Gd
   0.8411155331965522    0.6896466758660049    0.1243983792600374 Gd
   0.8383443966749566    0.3565449290497117    0.1249104456339856 Gd
   0.8415902218098316    0.0231803856212881    0.6235554452718656 Gd
   0.8365138822667089    0.0224923259493129    0.1261892666099313 Gd
   0.5032386188162848    0.6932035647210597    0.1242705123703418 Gd
   0.5045615866236539    0.3522733174083741    0.6240642849786258 Gd
   0.5055334319745598    0.3558839360412803    0.1251439982873578 Gd
   0.5049683836601078    0.0217943287980615    0.6207178276035820 Gd
   0.5088806798260043    0.0221826627180921    0.1265826958585921 Gd
   0.1740019066516674    0.6934229806997467    0.6221189823200565 Gd
   0.1742847704726489    0.6886924057993585    0.1235697648334669 Gd
   0.1746149294560320    0.3525781336558260    0.6262912131633825 Gd
   0.1727411112401807    0.3542257574731784    0.1253344964757270 Gd
   0.1716392485405311    0.0224603121500998    0.6250718571078935 Gd
   0.0042298890694081    0.4790811132467025    0.8750752846564345 Gd
   0.8409945355008601    0.3530738523234678    0.6248417729577068 Gd
   0.9920043114551167    0.5237882564828640    0.1267179944541230 Gd
   0.5045521838346863    0.6904664983025149    0.6218482399313281 Gd
   0.9946975888222725    0.5227638778663293    0.6228867016144496 Gd
   0.0028508783115253    0.1454456152176508    0.8741851305653388 Gd
   0.0057605395147670    0.1443932864962138    0.3779410317713888 Gd
   0.8243836174610986    0.9785497511274208    0.8768873917004578 Gd
   0.8264035057386270    0.9758238861469422    0.3755683316930830 Gd
   0.8259194329420551    0.6454709537102141    0.8756010698898420 Gd
   0.8317842550361958    0.6463854613179525    0.3726373888591507 Gd
   0.8272210921998866    0.3085820215447118    0.8748330866238951 Gd
   0.8282719519367636    0.3111711573885152    0.3723662579644137 Gd
   0.4946802027883520    0.9753864459649393    0.3750567601739404 Gd
   0.4936314597043256    0.6465012241285627    0.8790465279255819 Gd
   0.4924219558428206    0.6471216490019097    0.3753970170755155 Gd
   0.4932942596621968    0.3093186454682443    0.8769785644391946 Gd
   0.4951620830953258    0.3089002585165496    0.3748820532651594 Gd
   0.1616466355079925    0.9769026036810056    0.8721443351650078 Gd
   0.1580996900250946    0.9757358703817305    0.3782666073714816 Gd
   0.4945282892452877    0.9777963778188108    0.8788049665459727 Gd
   0.9927444769206314    0.8532961094500283    0.1263349439250681 Gd
   0.9969644287156981    0.8545018982825768    0.6200401257638422 Gd
   0.1629777265115956    0.6470148535690351    0.8742449179259651 Gd
   0.1585742271251225    0.3093682475164559    0.3798066776664820 Gd
   0.1619728652882737    0.3101208236266033    0.8732673404905016 Gd
   0.1589654165001871    0.6469642904320094    0.3763879170784178 Gd
   0.1664679508281232    0.4993999407405140    0.2492275290784002 Mn
  -0.0010258383304872   -0.0006209088860588    0.7504977636910021 Mn
   0.6687056821857968    0.6660062116434236    0.4990866718511443 Mn
   0.3323932462253409    0.3330749315861271    0.0005215056272569 Mn
   0.3323514116869276    0.0004436076736921    0.5003631053191291 Mn
   0.3331867758786659   -0.0008758714743664    0.0005220023789891 Mn
   0.6668624971328990   -0.0000646610958827    0.7483736248019089 Mn
  -0.0004705929811860   -0.0005313281432836    0.0003276824195419 Mn
   0.3319797045452020    0.3325384489620360    0.2508101081912202 Mn
   0.1654414714589413    0.1654715094200073    0.0004342339561663 Mn
   0.1671767176347302    0.5001295982804920    0.7500650878143759 Mn
   0.6667047394900721    0.3319866616877801    0.7501225059366518 Mn
   0.6671646036782353    0.6680638007774531    0.2490003875378826 Mn
   0.5005056145439957    0.4998226667243568    0.7497863715812007 Mn
   0.5005547858359283    0.1669546623313348    0.0011919771217516 Ni
   0.4996572155528297    0.8336638757006379    0.5004615222727405 Ni
   0.4996707021422626    0.1662040458516427    0.4999931580360271 Ni
   0.8332402169552889    0.8336106359395120    0.4994311673744583 Ni
   0.1671753393378137    0.8342045126389404    0.7501050841797501 Ni
   0.0017400016530379    0.6668782995406309    0.2492376962660093 Ni
   0.1670301556474588    0.8338427972236585    0.4988571782675347 Ni
   0.3341104729075794    0.3340806515876447    0.7513656372086870 Ni
   0.3332528716257535    0.6661129954989126    0.0001177319436481 Ni
   0.5017130441679668    0.8338591970675869   -0.0001360091893627 Ni
   0.5001250542817974    0.8336025677997562    0.2518056246416228 Ni
   0.8316992649537380    0.1659742705450779    0.7491266266068027 Ni
   0.1668405740629358    0.1655536166035341    0.5010495214732109 Ni
   0.3333735478373819    0.6664187867480734    0.4998618054951613 Ni
   0.7306280457408217    0.9005852729412521    0.4732298696516260 O
   0.0962503423284787    0.0624958547688028    0.4761866404116419 O
   0.7309469383916873    0.9024083505644770    0.9732702700772902 O
   0.0980313063665313    0.0640955540198412    0.9724418610626742 O
   0.7317101091431687    0.5665163876186414    0.9736763670300085 O
   0.7687071825525020    0.3998708375727353    0.4712120080999044 O
   0.7312106801564494    0.2340633995642638    0.9719943794948722 O
   0.7314573587466456    0.2332223141425294    0.4717618278074112 O
   0.3953165785321678    0.9034198016281179    0.9746460935515998 O
   0.3925168225225273    0.9037753567993815    0.4749705271474213 O
   0.7309063595601164    0.5679286542011333    0.4719390229033687 O
   0.0998234145583789    0.3994442388220557    0.4748398299386159 O
   0.4351877454780493    0.7327542636584873    0.9746415430361244 O
   0.0977579079918090    0.7288630888489145    0.4756293037379695 O
   0.1021024579884922    0.7343367590341915    0.9716769749338464 O
   0.4309910427465112    0.0616162696527993    0.4745111978113442 O
   0.4283295900876898    0.0651488452412497    0.9756439391197883 O
   0.4359617458985437    0.3999201438827613    0.4717295812179809 O
   0.4325274632890345    0.3962122228561065    0.9764287244464236 O
   0.4362002363315204    0.7320139104510253    0.4741380182720407 O
   0.7690258788967911    0.0661135663871311    0.4721062430542304 O
   0.4026080322427087    0.5609506544451449    0.9745297593106602 O
   0.7649730281689829    0.0645681075853074    0.9750143655917211 O
   0.1019539468310104    0.3985573936059608    0.9723117925203462 O
   0.4008612681420571    0.5633173804910387    0.4737038952066956 O
   0.1048289407300396    0.3996651995015827    0.2771266933944679 O
   0.3986844405007486    0.2350902428535846    0.4698245946471017 O
   0.0960017270112243    0.0643691817124037    0.7779114243825604 O
   0.7682766561990249    0.3995655821923880    0.9712722906046763 O
   0.1030680731976626    0.4019253223537714    0.7778273256138181 O
   0.1032294743502689    0.7341435547107783    0.2784521366396975 O
   0.0991150733177999    0.7318928780092185    0.7776675891580578 O
   0.4336809795992824    0.0666431824609702    0.2783356542757978 O
   0.4348511790914650    0.0651186002529454    0.7793167394576299 O
   0.4297498399138699    0.3951354006925664    0.2759000422398524 O
   0.4382931083515880    0.4032540172114725    0.7799669109593853 O
   0.4331623255817983    0.7309130529291001    0.2763533153926241 O
   0.4358820873120654    0.7323957016445432    0.7788502781253379 O
   0.7648055188135229    0.0631992213823206    0.2758885477380800 O
   0.7629746922884700    0.0636837446772093    0.7770015819138074 O
   0.7685595499678125    0.4020753126121538    0.2743742274230499 O
   0.7649313371314114    0.3972657941034890    0.7759363756289238 O
   0.7664647430701245    0.7313296786988132    0.2761911976907585 O
   0.7695794345665766    0.7356768908603690    0.7786163827829725 O
   0.0617330259676303    0.2357362219272907    0.4741575994899576 O
   0.0672660447929558    0.2316386933042805    0.9730314169251704 O
   0.0636646066790202    0.5638630005447640    0.4758200711392931 O
   0.0662112614349022    0.5653524252129166    0.9707355066011031 O
   0.0617764380578098    0.9011768161079068    0.4736549643372271 O
   0.0635514358291462    0.9019369266872500    0.9724023848385391 O
   0.3937871895685855    0.2354055249455270    0.9763586481218421 O
   0.7652041218721818    0.7273382386089140    0.4729854764627995 O
   0.2681970963156085    0.7679082332492668    0.5262956144082466 O
   0.0660849173332390    0.2331293090285504    0.2779008461410932 O
   0.5690400852418108    0.9360296398981639    0.7209262300750542 O
   0.8999183580179920    0.2697104134430608    0.2224046328850052 O
   0.9003947865466926    0.2677648621565942    0.7243447138193294 O
   0.8962521597446614    0.5970322469654108    0.2224641613316254 O
   0.8999104481861245    0.6007926886072681    0.7209149977780008 O
   0.8976680734804349    0.9335950744968859    0.2216307289061507 O
   0.8997868502659417    0.9368256534312533    0.7242286920561449 O
   0.2655820477134057    0.0992809467967069    0.0279697044970698 O
   0.2725215364371298    0.0981577821771236    0.5286070523356740 O
   0.2687891315039709    0.4316733777519696    0.0275466226025843 O
   0.2677751138633860    0.4342096867232468    0.5240855153787064 O
   0.2669042616171876    0.7701851999878836    0.0270793383461766 O
   0.6043375529939854    0.0983747644180368    0.0255259096657322 O
   0.6017924990522827    0.0987067836691965    0.5269623647572828 O
   0.6006624914223252    0.4359145382408826    0.0236157380925442 O
   0.6032010287645554    0.4343135959620422    0.5282785581052525 O
   0.6058871210117844    0.7674372365231932    0.0281964797860348 O
   0.6073312113410850    0.7615958067703439    0.5250996891155185 O
   0.9371167161377265    0.0978465366923862    0.0252890466361726 O
   0.9359763179936900    0.1014702970499829    0.5264454201050832 O
   0.9338052017051603    0.4345507695765388    0.0273197019347052 O
   0.9355190273928869    0.4318506922547397    0.5265423496723198 O
   0.1012991258795555    0.0653846519698308    0.2761160924881819 O
   0.5698137009828557    0.9379257336772514    0.2249534223708778 O
   0.5629914281779322    0.5958893532090771    0.7195919081785047 O
   0.5695858839177961    0.6057168085308148    0.2231647404369999 O
   0.5692008597774392    0.2674760908815451    0.7226938548056473 O
   0.0659011797584081    0.2337281584089778    0.7788615526062357 O
   0.0691710912047866    0.5611391487447034    0.2754966057630754 O
   0.0675612144608906    0.5636148681629376    0.7756307079626191 O
   0.0640298847185672    0.8991897088331375    0.2775951883909977 O
   0.0609943461218019    0.9042453534406957    0.7788628775800991 O
   0.3946596447585092    0.2344845410205338    0.2744647977534598 O
   0.4023122790561704    0.2331416972119076    0.7798042628305845 O
   0.3994616014528969    0.5648726945865811    0.2766597536211508 O
   0.4021499301042308    0.5635073527253812    0.7760733888079703 O
   0.3962126691511740    0.9014160970097318    0.2793324044840200 O
   0.3989523395117547    0.9004073712714158    0.7798743744165223 O
   0.7687135529249443    0.7310866290883729    0.9743399711186005 O
   0.7311492913713489    0.2343556990953589    0.2760512746840416 O
   0.7294753223604644    0.5690438780701847    0.2755953706533801 O
   0.7325461934924028    0.5655313554879086    0.7753117813310613 O
   0.7311474287995298    0.8996795338721492    0.2777389259968004 O
   0.7302524375094662    0.9023153581450890    0.7772053618435537 O
   0.2342986296578161    0.2674155506591711    0.2221547999082429 O
   0.2301153897895937    0.2665482958328940    0.7271081687590338 O
   0.2304392429313747    0.5950994664440521    0.2210911432827115 O
   0.2297406097478972    0.5973860400639732    0.7230497300779355 O
   0.2321228748296695    0.9340242540955094    0.2224386705568676 O
   0.2318664285781425    0.9383368969116443    0.7248785252683669 O
   0.5641827441032228    0.2678301237840223    0.2235928374339317 O
   0.7281197477794676    0.2365672567653938    0.7786571896866010 O
   0.9351653995649628    0.7694117883749859    0.7215638430361171 O
   1.0328767784738597    0.9902321176535974    0.6307200724558161 O
   0.9343689489944491    0.4346081522309305    0.7230524702281881 O
   0.7031405066296411    0.6551724418089655    0.6185727387773921 O
   0.7003862852454488    0.9906182452984874    0.1275244381722446 O
   0.7031256970072338    0.9891307902767008    0.6277063283763366 O
   1.0358486593930312    0.3213480519611205    0.1250777657718090 O
   1.0356767550850967    0.3221983866321073    0.6251303234484180 O
   1.0364199094060271    0.6548781139324424    0.1218025361054050 O
   1.0349078451753291    0.6558987115931774    0.6232557099328696 O
   1.0346338690517500    0.9886299637091377    0.1225900023880997 O
   0.9354696218821508    0.7673806063624182    0.0259617647424799 O
   0.2017795155476415    0.1770730726255851    0.3732518108553388 O
   0.1999257765495928    0.1744055391237852    0.8797703050463629 O
   0.2004857572164384    0.5099112210712028    0.3709793592325395 O
   0.2018457690355583    0.5108698893321427    0.8726498707372786 O
   0.2028003157331318    0.8447583118440167    0.3729264980268085 O
   0.2024418991447979    0.8455703039175815    0.8770132015794048 O
   0.5327326886894380    0.1760257662588317    0.3688187075765274 O
   0.5354288352863186    0.1764269743707627    0.8732777774607758 O
   0.5356447979705353    0.5118974625756906    0.3748983911887045 O
   0.5357401189245857    0.5111894079252256    0.8700827616248776 O
   0.5347766694920622    0.8445523917049833    0.3761015521164507 O
   0.5364308881998736    0.8463444389251256    0.8725238940090456 O
   0.8696887969534361    0.1790125539355494    0.3753794674615084 O
   0.8645140609163209    0.1746432898795671    0.8799232323870951 O
   0.7031775171806003    0.6552317092039450    0.1278126958931736 O
   0.8663151670856371    0.5114797239004014    0.3745665529408628 O
   0.7020888912213539    0.3222396888631557    0.6276158312995332 O
   0.3664421438299427    0.9893042910202384    0.6230482961356159 O
   0.1316133235388072    0.1570218285566386    0.1227222052466530 O
   0.1323167087409266    0.1557023095102729    0.6283752002542402 O
   0.1310745725427010    0.4871312620847577    0.1262066669915236 O
   0.1325960284415817    0.4872878997014499    0.6293563158752822 O
   0.1299385601530056    0.8227135535476956    0.1246167129029222 O
   0.1325026612180770    0.8251455527449475    0.6246238600948905 O
   0.4681604470152860    0.1560539453823757    0.1308120133460449 O
   0.4645883118789000    0.1561449622857659    0.6286557468391388 O
   0.4682584489906955    0.4896744136324299    0.1269824232871881 O
   0.4665010992082726    0.4872606117630940    0.6271063694061373 O
   0.4692116774343914    0.8256421541657204    0.1259537965593024 O
   0.4639792546963328    0.8235145224744282    0.6273529282177723 O
   0.7990835425665279    0.1569078209129020    0.1198053970415233 O
   0.7981533477171605    0.1552640116172510    0.6226803678874715 O
   0.7968897311667287    0.4893646568600601    0.1226672717017039 O
   0.7985083798354212    0.4876785465636285    0.6239170541331648 O
   0.7964972693206396    0.8234808459789061    0.1247815628025897 O
   0.7985893142042411    0.8232625261160120    0.6266800281327810 O
   0.3657220125533134    0.3228529218837044    0.1256421557229002 O
   0.3672591031363297    0.3231449523759113    0.6237150056320853 O
   0.3671648573731088    0.6550312030890932    0.1273099609342226 O
   0.3691734397782022    0.6531376312481020    0.6278306160013747 O
   0.3676975769065696    0.9904288699606417    0.1238597080868574 O
   0.7009201338634479    0.3228951245304288    0.1236320444820771 O
   0.8656537432400410    0.5102755771758750    0.8754537762187419 O
   0.8679988528964271    0.8420518925699907    0.3727337761280938 O
   0.8683879535370908    0.8463714625994899    0.8743323124114056 O
   0.5684529683697680    0.9395484994789881    0.0242318875354159 O
   0.5672238153333464    0.9342988254717643    0.5272120528248273 O
   0.9000507843303706    0.2666552922259766    0.0272388034224248 O
   0.8992900981912958    0.2677063251376500    0.5264237807290262 O
   0.8985932541841946    0.5999566100306272    0.0263729432073279 O
   0.9006131260088631    0.5999944095530225    0.5261982159837225 O
   0.9008097494046070    0.9373352403402687    0.0261379336960988 O
   0.9032240854357726    0.9381541942560975    0.5251212322929941 O
   0.2674035639157870    0.1000294467435273    0.2217781266461538 O
   0.2685420583049825    0.1013713253304102    0.7269371749927154 O
   0.2668006439152458    0.4336170600689435    0.2215323143264786 O
   0.2649335738997214    0.4374791145362744    0.7242820787931750 O
   0.2665806061542703    0.7656742019970117    0.2200728685753441 O
   0.2691973761068671    0.7645360856214364    0.7216060847209191 O
   0.6029524540117062    0.1008438969776566    0.2229483482319030 O
   0.6037194180692966    0.0968714556846368    0.7215599256528350 O
   0.6003263823272786    0.4340811234284555    0.2232749918306890 O
   0.6005047268696680    0.4326474406584828    0.7234368479668550 O
   0.6066485034755588    0.7643564251363228    0.2246258733402001 O
   0.6001893322849852    0.7671377020207839    0.7201002350491845 O
   0.9345962137127088    0.0989494750085231    0.2208151628999265 O
   0.9377596008408894    0.0968265857208914    0.7243515492877537 O
   0.9355265575280967    0.4337651114067622    0.2229205593316577 O
   0.5689611618732727    0.6011143217990486    0.5258307449533566 O
   0.5658791232505263    0.6019607619223506    0.0280998752206959 O
   0.5670944281310227    0.2688362553477359    0.5262677740864096 O
   0.5656106998302298    0.2703890414378872    0.0262900339020011 O
  -0.0363322153231937    0.0121297498877160    0.3729873006653144 O
  -0.0356704348947803    0.0110026485837190    0.8752218255890539 O
  -0.0341910742167522    0.3459493536073269    0.3748383470180111 O
  -0.0342994096316201    0.3441697436086985    0.8756727903825062 O
  -0.0311033568352306    0.6734889773591791    0.3786546187962676 O
  -0.0354936576354691    0.6764682760855083    0.8741001831652878 O
   0.2969099024481311    0.0123507360113644    0.3786999691548015 O
   0.2989137718233628    0.0121331354240912    0.8779662421366293 O
   0.2974454033487461    0.3443882816643359    0.3710619477750944 O
   0.2991933553733785    0.3442544591508445    0.8808894245918437 O
   0.2966668108355915    0.6757794943914893    0.3718654166642478 O
   0.9310858770794163    0.7663988638366623    0.2214205389017987 O
   0.3001421798386962    0.6748386422006020    0.8723477686936553 O
   0.6329776068932709    0.0100427827543040    0.8688351052537983 O
   0.6319481812917319    0.3458637449053434    0.3751377840836687 O
   0.6312076017896098    0.3452955002017641    0.8716267400553170 O
   0.6332804554224090    0.6765796792650839    0.3747887158428966 O
   0.6312424868887982    0.6781969566033026    0.8780049625162538 O
   0.2336275388114140    0.2677783099780268    0.0267660727156042 O
   0.2330861779564004    0.2689160742442611    0.5262295114156753 O
   0.2308001157141629    0.5975384939650366    0.0268472914947244 O
   0.2295060743191510    0.5984475941151711    0.5271541043959779 O
   0.2330574823446004    0.9362048202230697    0.0270076735594943 O
   0.2339027886109858    0.9399375659786172    0.5253921353452315 O
   0.6322334942774909    0.0111640875893419    0.3746402443894754 O
   0.9361393757326383    0.7640295345190929    0.5257804652553822 O
