Ba14 Sr13 Ca18 La14 Pr13 Co72 O216
1.0
  16.4992085706186771    0.0006357244214090    0.0006295415192966
   0.0006352434169946   16.5380475607626742    0.0048774095292571
   0.0006056506842029    0.0046917316320010   15.9036301333136532
Ba Ca Co La O Pr Sr
14 18 72 14 216 13 13
direct
   0.6668626187077034    0.1645310247927032    0.6309686551577902 Ba
   0.1709174000855780    0.6645748112474635    0.8720343481324367 Ba
   0.4977388919727134    0.9980171123550240    0.3744249163511241 Ba
   1.0020120261851824    0.8357943596493848    0.1246967571385519 Ba
   0.4969972565019743    0.6684282358263055    0.1226241929942462 Ba
   0.8322407733173819    0.6620093297844480    0.1270491521181080 Ba
   0.4964456263518677   -0.0023680284387427    0.6282421097955098 Ba
   0.8359439370935048    1.0026736515600547    0.3765875913737521 Ba
   0.3307676780584728    0.1711121268760918    0.3710164469816321 Ba
   0.6676105185496163    0.4998815435367486    0.3802636927732079 Ba
   0.6664815897543001    0.5007906787942734    0.8694717288326473 Ba
   0.6656149014950837    0.8340172062103890    0.3761444414382340 Ba
   0.0041631349623398    0.8321795383007112    0.3821479093562760 Ba
   0.5041127480871562    0.3323052938593328    0.3700867060796076 Ba
   0.9827324641207608    0.1743762356014644    0.6269713135369072 Ca
   1.0016957046228621    0.1616842118552364    0.1249895526896498 Ca
   0.9890240602026957    0.8471523729242613    0.6278973605468074 Ca
   0.1803797920714202    0.3356186421853321    0.3707041641824763 Ca
   0.1691618701495640    0.0132453188351173    0.1289341797463129 Ca
   0.4885746531550212    0.6453500024395330    0.8753790713317046 Ca
   0.6793622527495357    0.8340141157237055    0.6207718437423102 Ca
   0.8166544725684860    0.3163154103880328    0.8704467691782763 Ca
   0.8283636223650596    0.6735531409638624    0.3791483003204087 Ca
   0.6575755775363898    0.1689231358272112    0.8831094624355477 Ca
   0.5016088899138997    0.6701800989360610    0.3778447853250466 Ca
   0.8264393597188965    0.3253845994697727    0.3765320777069866 Ca
   0.5038782388257943    0.3302509759743734    0.8831458491555725 Ca
   0.8378968579236202    0.3343589123632820    0.6324452184680344 Ca
   0.6569576150696261    0.1784970294168313    0.1224656695525171 Ca
   0.3282574601132767    0.8259681580103707    0.6260288835791497 Ca
   0.3203257432998013    0.8385111550434795    0.1309695535377370 Ca
   0.1537099582005851    0.6696848990953258    0.6222503891019124 Ca
   0.6705553899405908   -0.0057485131027871    0.7502443424528222 Co
   0.6671721333998019    0.6645545534538239    0.5041725821322222 Co
   0.6645276684254389    0.6681171474287929   -0.0029857654437962 Co
   0.6714714500746632    0.3303370683603300    0.5031971083060616 Co
   0.6672601156836032    0.3289479074535156   -0.0029739725867853 Co
   0.0013152639332421    0.0004981823272631   -0.0017613251494204 Co
   0.6637885733926513    0.6663461399053492    0.2481713121802075 Co
   0.6630460538801283    0.6709272014963984    0.7488555386798381 Co
   0.1603494400128671    0.1693243079674394    0.2486091012357328 Co
   0.1646908695613696    0.1674087975943915    0.7516444903424335 Co
   0.6708930590542626    0.3313419801182736    0.2484882977130517 Co
   0.6661079294324946    0.3282802842852811    0.7504614447677100 Co
   0.3374320794292888    0.6663443895373580    0.7506149510168010 Co
   0.3316470879769924    0.6677925449200823    0.2506567819656909 Co
   0.3358214030871971    0.3318453229265633    0.7490578771093697 Co
   0.3319635896741641    0.3362473499528084    0.2457277474287687 Co
   0.3315759777362964    0.0007660474442567    0.7524459589608123 Co
   0.3297398324136572    0.0012582086117474    0.2493975946439794 Co
   0.0001347546605122    0.6681861579064495    0.7434600541643434 Co
  -0.0027312396460128    0.6682875211107754    0.2532776714792859 Co
  -0.0005553103612581    0.3322473788346831    0.7520418409583517 Co
  -0.0030702220708671    0.3342560925599672    0.2506469115113434 Co
   0.0003368490746715    0.0018325913326548    0.7472521249100894 Co
   0.0028486999618885    0.0019332686327982    0.2490350829139806 Co
   0.6654188092225167    0.0034084666373713    0.2473924939939811 Co
   0.1635218292119101    0.4963125830099336    0.2507085288787745 Co
   0.1682297803815092    0.8339439504758981    0.2527684451679090 Co
   0.1716208177918777    0.4994987210388447    0.7480374993023088 Co
   0.8329926659337664    0.8331927202697346    0.7464732688908258 Co
   0.8332514491220273    0.8303825655921151    0.2522604359666604 Co
   0.8342224928269956    0.4939298148541389    0.7507095614946352 Co
  -0.0000510142180146    0.3329287463224572   -0.0083575059033253 Co
  -0.0007146733625998    0.3327152100075577    0.4928913512429098 Co
   0.0008950156222102    0.6672779882539244    0.0005533336511291 Co
   0.8355545590766141    0.4962250622321349    0.2581313518921564 Co
   0.8326511422143043    0.1697093603850542    0.7532954276843825 Co
   0.0009281772031464    0.6639985031696964    0.4988062794966880 Co
   0.8359285247436656    0.1718882930083222    0.2465804666891957 Co
   0.4981612100957268    0.8281097185752434    0.7427464527761258 Co
   0.3285347748907096   -0.0013414702120068    0.0009518084315317 Co
   0.8344282544390001    0.8324038311764240    0.5063346524054247 Co
   0.3294987511089835    0.0030295436824626    0.5034102882844422 Co
   0.3325988974517486    0.3339384198761255    0.0040177899366084 Co
   0.4991315766345503    0.4954381986548391    0.7477270546639572 Co
   0.3337979007754816    0.3376661348051927    0.4993172979524176 Co
   0.3309508032428995    0.6694445144246359    0.0041251629611582 Co
   0.3310454479093274    0.6650427205145580    0.4977542380580424 Co
   0.4982790731920824    0.5044880424664442    0.2491055788759518 Co
   0.6693234129804423    0.0061159762166726    0.0022018629897624 Co
   0.4964448808104575    0.1712938537762158    0.7520166180107537 Co
   0.5013582044619321    0.1696925402741531    0.2454870780419314 Co
   0.1713420121931881    0.8325595735324820    0.7438286695882232 Co
   0.0047971033840061    0.0030308947174278    0.5063582216269382 Co
   0.6676697920268290    0.0004778536230981    0.5013083641489948 Co
   0.8328212879734715    0.8341867218765894    0.0013318690270505 Co
   0.4963709661401100    0.8321063265540627    0.2498669196310648 Co
   0.8313496558876030    0.4959790588509861   -0.0085935391064930 Co
   0.8382055203166292    0.4934619996724842    0.5020980191929155 Co
   0.1638847654685200    0.1679994578851619   -0.0041211992227363 Co
   0.1611502847403843    0.1654188173339455    0.5020678465289699 Co
   0.1665965016389571    0.4943711612865465    0.4984030955612362 Co
   0.1696338407211594    0.8382999940465775    0.0059377142877739 Co
   0.1712124477045522    0.8334798809759294    0.5048554576656994 Co
   0.5005125462513698    0.1684511863399252    0.0058833251426411 Co
   0.1683691103347670    0.4981260510878600   -0.0022183939057897 Co
   0.5022909123765565    0.4975284283145780    0.0000564099156101 Co
   0.4985176319210700    0.5038929953660649    0.5014681768601392 Co
   0.4958719342165723    0.8361870339995080    0.0033106876565420 Co
   0.4964379850402600    0.8285238916017171    0.5027590846024301 Co
   0.8347292603796213    0.1642474706674615   -0.0032261572183917 Co
   0.8357951433624695    0.1743421306867317    0.5014763387199278 Co
   0.5020822836889591    0.1682247203568501    0.5021061389408832 Co
   0.5100508918672769    1.0053497238016222    0.8800666973171233 La
   1.0015540314260070    0.4995905605819298    0.1147251840101253 La
   0.6637798639908049    0.8428142641133209    0.1222743899915946 La
   0.3275618953686260    0.5069011015819526    0.6224986399886920 La
   0.8361494665035351    0.0066655552281423    0.1284853357651836 La
   0.8344243036004445    0.3313874970433360    0.1145961379618245 La
   0.1560432561157797    0.3299512847803460    0.1274140498328487 La
   0.8308859127853855    0.9914978366286616    0.8742977448703412 La
   0.3246259434733065    0.1691165043496916    0.1262591736865517 La
   0.0015695751259935    0.1656318478346857    0.3713128704228982 La
   0.8352947336450891    0.6598766476550429    0.6211339559013052 La
  -0.0071238469174142    0.4995401839608389    0.3737882121646448 La
   0.0048420279267707    0.8280642790411304    0.8652837522438607 La
   0.0032629355394838    0.1652686686263793    0.8750304724541393 La
   0.4101170184672404    0.0761578063366949    0.4973045978521999 O
   0.0569743456090990    0.2403981334280652    1.0110104340813471 O
   0.0779901298453318    0.5568840753087317    0.4898354912504694 O
   0.0785299198048229    0.5683270221110522    0.9902205927513273 O
   0.0861294830171249    0.8967977908649665    0.5247320836814886 O
   0.0750078124016679    0.9030819446641777    0.9787792425696754 O
   0.4165853913177148    0.2396408464723281    0.4988376631260184 O
   0.3952254584872664    0.2434985738341743    1.0137696008180686 O
   0.3975827789543776    0.5622052973684147    0.4944653670554476 O
   0.4157214501869130    0.5657140683851272    1.0027135218316263 O
   0.4150399848907578    0.9022759760717988    0.5006558971420482 O
   0.3849681641224595    0.9043754005348352    1.0103618979499012 O
   0.7490699495387515    0.2361851013186086    0.4924370019804548 O
   0.7369427814727961    0.2319340469453590    0.9929428821585455 O
   0.0683119389463481    0.2255232720248470    0.5141644795318552 O
   0.5923168647657261    0.0835099856793554    0.2272837019967548 O
   0.7412652472402789    0.5687758485780370    1.0057972781637139 O
   0.7566383293570265    0.9072330196040262    0.4982741059793432 O
   0.7428197023143720    0.8977132400279640    0.9873475339326949 O
   0.0946346281542124    0.0630250338068078    0.4903031666624882 O
   0.4202299415515598    0.4040266488008700    0.4963930796294728 O
   0.1018933551052087    0.0797050226112352    0.9733341238163734 O
   0.0928828855385108    0.3851944865339824    0.4777360320797839 O
   0.1000971578077820    0.3952253148829586    0.9942522449479143 O
   0.0975385889379550    0.7271603964889002    0.4954358073340819 O
   0.0809444596281444    0.7406693317415034    0.9976821338429785 O
   0.4297522693029542    0.0605740508442725    0.9916900932709842 O
   0.7514636847892693    0.5724630246521003    0.5094412493260475 O
   0.7466134120862866    0.7359226904471395    0.2553933455315976 O
   0.7646632057001149    0.4001083142820768    0.7548300062330119 O
   0.9346725257119267    0.4399368043809282    0.2448287370831104 O
   0.9226076967187179    0.1038680942338394    0.7514267828931251 O
   0.9340283740666016    0.4364086380444620    0.7587795102885371 O
   0.9221886868225984    0.7498932682627355    0.2490013495654399 O
   0.9227420401834460    0.7621839698627210    0.7279346742145243 O
   0.0919719249414571    0.0690552093669556    0.2553929513681983 O
   0.0847596387325460    0.0659033074241827    0.7734807849531379 O
   0.0936363748990934    0.3990792791377776    0.2705191563051303 O
   0.9308528365396330    0.0967144917069275    0.2401940375446148 O
   0.1088038650835328    0.4093957887127841    0.7567128302159616 O
   0.0972317793410121    0.7370189009603281    0.2642604894929375 O
   0.5925780814370765    0.7738259082793111    0.7326655783769599 O
   0.0838849771850780    0.7363785703777076    0.7440698578465316 O
   0.4135742139363699    0.0731108172958331    0.2498284633484544 O
   0.5841265311237009    0.7645761877801242    0.2360008114006267 O
   0.4273973519938912    0.4041282201325708    0.9950537291705823 O
   0.5844491389125188    0.4301947647776085    0.7356205925907415 O
   0.4168563413950694    0.0649290466524084    0.7768487109113410 O
   0.6044739868712838    0.4169628830391880    0.2436019379803146 O
   0.4170085168278981    0.4143536168442709    0.2420511565020143 O
   0.4282569561753953    0.3879181546968971    0.7623170833284949 O
   0.4164960276161214    0.7331098908115163    0.2686242038932629 O
   0.4350507612291437    0.7365566029487260    0.7773880400462844 O
   0.7649548594408552    0.0888050304205420    0.2429340630066698 O
   0.7562572464481578    0.0649896524172969    0.7559884387539850 O
   0.5790436432486891    0.1004318669079827    0.7665694196946090 O
   0.7780781202220208    0.4031004616751692    0.2460110153352509 O
   0.7544564619573662    0.7342557805177680    0.7314504443048417 O
   0.4179527987946809    0.7258833523760514    0.4863993988979182 O
   0.3995450903721912    0.2252916620627018    0.7472688165256969 O
   0.7488339564085235    0.0736693435928312    0.5041259512818794 O
   0.9448541343836437    0.4291308531866851   -0.0133876938564205 O
   0.9216362893951846    0.1075560756874022    0.5000249821316507 O
   0.9404022301896720    0.0993288127640117    0.0045478487885608 O
   0.5833612049149725    0.7643771496588546    0.5140428447276830 O
   0.5918386380368625    0.7686518656475636    0.0108232156882279 O
   0.5841593579015881    0.4260045348236985    0.5118007913572981 O
   0.5904027704892780    0.4330348380529335    0.0067319919042308 O
   0.5806179065544330    0.0947015332115925    0.4999930172334058 O
   0.6011187369865219    0.1004804942706909    0.0057374738166986 O
   0.2600300495091852    0.7696441551792479    0.5001974375149045 O
   0.2557968083329440    0.7693403024847426   -0.0159659153074425 O
   0.2610090414678197    0.4360587521391102    0.5014599821368765 O
   0.9445117661674365    0.4354469489428932    0.5031471533886983 O
   0.2638381778287332    0.4231922930496290   -0.0029358784252002 O
   0.2684716950678421    0.0951357630774456   -0.0048594393796048 O
   0.9152199486058514    0.9358001766771457    0.7405507175332983 O
   0.2703057972154359    0.7620404314793130    0.7614580155223224 O
   0.9186288548202350    0.9308975727431220    0.2399480305069164 O
   0.9161927343201729    0.5968588123126313    0.7452103119318226 O
   0.8997086053639999    0.5870871899560670    0.2751645281940597 O
   0.9014809562005150    0.2675640300144424    0.7560006653498630 O
   0.8996073521302724    0.2611454148365515    0.2341240424339501 O
   0.5795466229775881    0.9321720748568665    0.7609927294229738 O
   0.5752132322536962    0.9227935578468350    0.2275871191562187 O
   0.5771778108586136    0.6023989908418798    0.7534842598958779 O
   0.5784196764932934    0.6008551513515885    0.2673982709916416 O
   0.2487543816520682    0.0984702396012652    0.4963320726786843 O
   0.5622877059403117    0.2673186204158186    0.7499253669138182 O
   0.5782744060251908    0.2535880700394805    0.2270473899681859 O
   0.2455725406414340    0.9340897769196645    0.7391640802765093 O
   0.7752162651289632    0.0604736330758254    0.9974288728219785 O
   0.7585763114170099    0.3974493964586682    0.5122463977404063 O
   0.7656905854671696    0.3995426972562856    0.9802506771784211 O
   0.7602492155161708    0.7409932520856093    0.5154615912440117 O
   0.7488354691654142    0.7362889296599455    0.9994596809345732 O
   0.0677665763058543    0.2322769552133108    0.2397524484325348 O
   0.0738417591366729    0.2273433261801888    0.7326567619741046 O
   0.0796521948395520    0.5665635722380759    0.2609206057414646 O
   0.0733493254107188    0.5663088428597518    0.7535671158864951 O
   0.0886210740548314    0.9075483051044207    0.2539680080801453 O
   0.0714979079459087    0.9027263739844233    0.7398961998350158 O
   0.4065908629861706    0.2451985941437056    0.2359959899887503 O
   0.4012726930033880    0.5739450250426754    0.2444783614856117 O
   0.4092982145467917    0.5593523307618385    0.7511121371059089 O
   0.4107826458609253    0.9044727123353165    0.2433487301149015 O
   0.4094375148980429    0.8964110331974832    0.7482900725007862 O
   0.7369365662103428    0.2464175010992699    0.2381058249604178 O
   0.7398265450088645    0.2314561170477954    0.7737309437107922 O
   0.7442982072674647    0.5599337633279848    0.2427547700906430 O
   0.7544242469971221    0.5704249378188724    0.7362401691027443 O
   0.7420620534162352    0.9239766211256544    0.2499784185282918 O
   0.7473192694560257    0.9030359643530912    0.7726306798207021 O
   0.2325734741316764    0.2621689513661519    0.2446894848962618 O
   0.2445545382712997    0.2727466198727571    0.7440041363194867 O
   0.2428975505573548    0.6012080967729453    0.2400521465408134 O
   0.2329852191697922    0.5878070711763685    0.7222531135819905 O
   0.2443470033555979    0.9349040626943832    0.2354906436490558 O
   0.4178936603926984    0.7339832145585171    0.9756276224335880 O
   0.2549326008495475    0.7709821037548574    0.2580426304073558 O
   1.0052196769488326    1.0258934400105857    0.6252871714988536 O
   0.2519235652072047    0.4328857383335698    0.2492004754054649 O
   0.6847676069391615    0.3438731993830086    0.1112343295795479 O
   0.6691696325242424    0.3293520568373597    0.6332717463056307 O
   0.6636998392965080    0.6514280800718533    0.1276911671294469 O
   0.6619061918570660    0.6554037613070932    0.6158326224551832 O
   0.6866286516520052    0.9947570915029670    0.1142067714196480 O
   0.6730708214238766    0.9879083688882578    0.6309233054380088 O
   1.0017133260808706    0.3480680018950185    0.1303250603014158 O
   0.9997440820803787    0.3438233498998111    0.6389915246227158 O
   0.2747991468981862    0.4358183702903804    0.7481182903633548 O
   0.3329715423442250    1.0298023650664461    0.6359669518771418 O
   1.0063451731921127    0.6466900620832930    0.6161121671125692 O
   0.9149143252859978    0.7615535147916588    0.0010890408362302 O
   0.1529607153197803    0.1755886625208149    0.3747505134342091 O
   0.1564064929335701    0.1962095944477698    0.8742446682406683 O
   0.1867033193827112    0.5090907246196675    0.3798117220371584 O
   0.1896528135743016    0.4983144141533237    0.8745992187915941 O
   0.1740877459928790    0.8563758787802845    0.3848291780215001 O
   0.1658759402471640    0.8425463410813101    0.8585296059314091 O
   0.5090786714274510    0.1671498362820213    0.3616702864324029 O
   0.4997204006625001    0.1803116183664403    0.8926470577664796 O
   1.0214925368809413    1.0061454564136958    0.1116309496165146 O
   0.4921005166944580    0.4999391173973009    0.3643160819057931 O
   0.3361480541358584    1.0159549512953647    0.1227451455028172 O
   0.3310223132375766    0.6927722005363655    0.1234906849006267 O
   0.1611574276542998    0.1588100342228353    0.1209650359943675 O
   0.1836325163133494    0.1590025714207249    0.6317950673498852 O
   0.1519245531669723    0.4864459052162479    0.1253618921280401 O
   0.1528257791597388    0.4822856527643106    0.6147418519741070 O
   0.1698892645595198    0.8254636318011485    0.1239767600168966 O
   0.1805739030057473    0.8136935598830782    0.6348264562748306 O
   0.4851322273844357    0.1512705997477588    0.1194382004111971 O
   0.4884334967707261    0.1683476651878455    0.6268611516740323 O
   0.5181923175936741    0.5030957972054807    0.1348875015187445 O
   0.3487815938687170    0.6736337310283964    0.6379735114766435 O
   0.4810996099364144    0.4941569798096966    0.6252189760979974 O
   0.4748432054170117    0.8227539504161451    0.6225440199794198 O
   0.8389222725681583    0.1696495811273921    0.1095475948763431 O
   0.8341698444640362    0.1784773058618919    0.6283923114317078 O
   0.8392437819603397    0.4843807449114544    0.1066493046910212 O
   0.8496202391847153    0.4941243923597881    0.6196658914574281 O
   0.8169030516426427    0.8382654670235113    0.1338401354233844 O
   0.8237209646135949    0.8497653377772336    0.6334170161050394 O
   0.3170678761393615    0.3360446516156526    0.1270282405461177 O
   0.3499607805116982    0.3350321538631517    0.6245472165954463 O
   0.4815023091685881    0.8342707095392321    0.1144563571194262 O
   0.4967250679687195    0.4959862775916447    0.8731338410609998 O
   1.0063942981547349    0.6507256644548565    0.1288896998186145 O
   0.4978765750264240    0.8534214717046226    0.8903836513476759 O
   0.2275683705564735    0.2574348249161350    0.0095986377602748 O
   0.2493423860472528    0.2657315790077242    0.5039421554126201 O
   0.2505396925596890    0.5957291639190914    0.0151707037463884 O
   0.2412720082237741    0.6056168188760479    0.5220571201806397 O
   0.2267921409720264    0.9419426807504873    0.0118798351944989 O
   0.2518032974682455    0.9322962763487272    0.5219868502374708 O
   0.5729514221042110    0.2620561280964175    0.0187234159301493 O
   0.5818560260412970    0.2630901573839414    0.5085265214136788 O
   0.5792560998136480    0.6014623496832622   -0.0141771215235258 O
   0.6735649789643715    0.6772977454914665    0.8665682124976554 O
   0.5630303448841556    0.5948959237382372    0.4931977527573191 O
   0.5013580929867265    0.8261677837631739    0.3763623508322453 O
   0.9010197615379589    0.2752394184414565   -0.0133056242151154 O
   0.9100372711468667    0.2757268770476061    0.5131846812125470 O
   0.9206927642305124    0.5916567939095850   -0.0030248392729616 O
   0.9074922284173801    0.6004944149140946    0.4899556722557859 O
   0.9012928976871153    0.9306995503633850    0.0126381557591670 O
   0.9241381695158383    0.9315947307541610    0.5133988820494533 O
   0.2462203122934772    0.0975866895924519    0.2481723730672901 O
   0.2429179052815162    0.0969416945280323    0.7787054646216440 O
   0.5694028455492880    0.9360594172424841    0.0171113286253667 O
   0.6733680652285593    0.6691155516519789    0.3922239476177726 O
   0.5896692157748623    0.9263402144845625    0.5038362472706766 O
   0.6750342786322165    0.3276554575493535    0.3738552086344659 O
   0.6501626199593095    0.3260704443787473    0.8821529649536648 O
   0.8447679841369411    0.1778909925815866    0.3719069464136119 O
   0.8440877096689212    0.1566301396540927    0.8845236062413097 O
   0.8381233649253960    0.4767600762682530    0.3878107313352862 O
   0.8408068821883792    0.5141628528165852    0.8770357610609756 O
   0.8377516687384873    0.8241510444778033    0.3713456379441940 O
   0.8553108064239809    0.8310188825979848    0.8637330683802629 O
   0.0049433980622820    0.0042072982531952    0.3787692668535508 O
  -0.0175151363064750   -0.0087975681839752    0.8817754403278519 O
  -0.0220295101383350    0.3176096432616657    0.3679185440302001 O
   0.9209509205732933    0.7647305129035976    0.5212401879391977 O
   0.0063026466077155    0.6594261748702124    0.3811394438918711 O
   0.6616789714482175    0.0069618886314196    0.8881468862008740 O
   0.6633008359189149    0.0097204523318798    0.3713322245232891 O
   0.3326837822623110    0.6407837534735465    0.8641792033553630 O
   0.3127506530311586    0.6497253953800813    0.3764187954487209 O
   0.0197442855169517    0.3193303905679466    0.8624594660037602 O
   0.3260610540557759    0.3437509388705234    0.3686659775777871 O
   0.3203346908111907   -0.0255266649970611    0.8775805549367469 O
   0.3176171029093424   -0.0072427249515559    0.3746343794995416 O
  -0.0071410428415938    0.6733427218781139    0.8709834083404882 O
   0.3260512631125591    0.3299327647126865    0.8782185406122304 O
   0.1692829178497831    1.0019741338392107    0.3682122526439777 Pr
   0.5039698179071093    0.3417240421908184    0.6241474713211631 Pr
   0.3332811953041229    0.1759941243148846    0.6137901692522547 Pr
   0.6712818824247379    0.4975183776652303    0.1227896521521716 Pr
   1.0039656621188700    0.4968878701550626    0.6320825717405408 Pr
   0.1757242720358912    0.3416766500370924    0.8746640801498087 Pr
   0.1637309107889805    0.6551866514656139    0.3763228429348322 Pr
   0.4865764223835568   -0.0009095167944829    0.1273216635018227 Pr
   0.1736686162773878    0.9910899370776036    0.8743332243787603 Pr
  -0.0095458142782398    0.5184254706712582    0.8723030663777005 Pr
   0.3381319297327900    0.4976583795203155    0.3659887811900674 Pr
   0.3446685461495654    0.4878695919432347    0.8788203199611796 Pr
   0.3481770977869570    0.8278354766825636    0.8735280816355194 Pr
   0.1649080671334607    0.0055812313072439    0.6282496449280875 Sr
   0.1590585866341061    0.3258826612200620    0.6222760731504798 Sr
   0.1642188700374825    0.6689689823908530    0.1271048900617755 Sr
   0.6557818921938470    0.8303371069692567    0.8754253707679926 Sr
   0.4964575383128387    0.3402123934249996    0.1255493784964296 Sr
   0.5035038114831508    0.6689048500119665    0.6250769669369707 Sr
   0.8309907557671512    0.6729769206461809    0.8715145912696873 Sr
   0.8347059948008544    0.0070194077477613    0.6238221114176654 Sr
   0.3258919846284068    0.5015635547658100    0.1246457979094161 Sr
   0.6755199808672403    0.4934066025094781    0.6244359295971879 Sr
   0.3362527772353110    0.1708707603939179    0.8792500538950770 Sr
   0.6689001760222518    0.1653977516692952    0.3719346552233167 Sr
   0.3365297547804209    0.8327421728852573    0.3777385163387605 Sr
