La15 Nd14 Sm14 Gd15 Y14 Cr72 O216
1.0
  16.3968968160044284   -0.0017746008198848    0.0003143498727068
  -0.0018384280434133   16.7146564332464429   -0.0002094140782414
   0.0003049922684755   -0.0002025409614710   15.6419207654816113
Cr Gd La Nd O Sm Y
72 15 15 14 216 14 14
direct
   0.4999213482640490    0.8327973616689556    0.2507722307188529 Cr
   0.1648451988208898    0.5004392186196471    0.5018684844219019 Cr
   0.1712818498670896    0.5004243071671366   -0.0016978999142650 Cr
   0.1675493712735853    0.1659171400167330    0.5015400323000021 Cr
   0.1678692828771065    0.1664740794300637   -0.0015278976954488 Cr
   0.6648888431718780   -0.0013911187739850    0.2524098242768520 Cr
   0.6680164544368671   -0.0002663192746773    0.7478242210475448 Cr
   0.6656178009171687    0.3328222157788789    0.2503278532386590 Cr
   0.6654426111813796    0.3327164634916457    0.7497533249784624 Cr
   0.6648039244952654    0.6685043907333015    0.2497670881012979 Cr
   0.6654234437242313    0.6672646181834224    0.7505077036016574 Cr
   0.1670938666619125    0.1654386848126873    0.2501593686787510 Cr
   0.1686715643709587    0.1667409103276760    0.7496921315054758 Cr
   0.1683430430999045    0.5009063402592114    0.2501264895123934 Cr
   0.1676489315456167    0.5000563230373597    0.7490816895314655 Cr
   0.1685136542824416    0.8334261700414834    0.2509617819636777 Cr
   0.1650687305654264    0.8336028710773172    0.7502055776430778 Cr
   0.4994617667684854    0.1658845282989414    0.2520714867379727 Cr
   0.3361849535928176    0.6678091777885178    0.2492667934927008 Cr
   0.4980413445884901    0.5012917410257398    0.2478747237082090 Cr
   0.1672865284410126    0.8337895300569839   -0.0004030310054926 Cr
   0.1660483228770000    0.8334471033033903    0.4993342514408041 Cr
   0.4986003306890509    0.1665586366951731   -0.0024592978426199 Cr
   0.4982038727969315    0.1657810929651153    0.5016079745099188 Cr
   0.3321168557816824    0.3331682936803515    0.7501782259721465 Cr
   0.3347387388998052    0.3328997344241422    0.2484485438156392 Cr
   0.3307639233006093    0.0005603727009419    0.7502650866097218 Cr
   0.3315604339477843   -0.0009741360803975    0.2528027771007320 Cr
  -0.0006887499534412    0.6677012471737604    0.7485119549047083 Cr
   0.0000880448789281    0.6676494105674927    0.2523482934977146 Cr
   0.0014479169196633    0.3331742912525163    0.7504813111797478 Cr
  -0.0003083345719676    0.3324741487936252    0.2511945362098641 Cr
   0.0019140048146640   -0.0004517613550422    0.7488828187387671 Cr
   0.4996001991588684    0.5006997686582371    0.7511508441049735 Cr
   0.0024868156951438   -0.0006382262597147    0.2506704300467245 Cr
   0.8341540041105761    0.8327233591546471   -0.0008919694759993 Cr
   0.8336124063549984    0.5010177066279630    0.5007799003305672 Cr
   0.8317378584132791    0.4998720862658825   -0.0020324374102192 Cr
   0.8329348095129919    0.1658487843259202    0.5011124966730662 Cr
   0.8350470875476015    0.1667506498761287   -0.0002490646022975 Cr
   0.5008575339416755    0.8334043026889154    0.4983869838200321 Cr
   0.4995811954572990    0.8322425331314007    0.0011281075795246 Cr
   0.4987106419927629    0.5008682991438427    0.5011402448883742 Cr
   0.4991404109609968    0.5011644562310672   -0.0010396360179925 Cr
   0.8329719816315407    0.8332347340303162    0.5005800585205220 Cr
   0.5003619753255859    0.8328293604755301    0.7499413904744506 Cr
   0.4974808478341660    0.1663684864312857    0.7490572174440053 Cr
   0.8329459118044596    0.1665468039324016    0.7482193569485314 Cr
   0.0005547212160716    0.3329475967881773    0.5012983566831184 Cr
  -0.0009366756990208    0.6677219861444100   -0.0018527355886242 Cr
   0.8349766425415152    0.1660509433850597    0.2513400613866632 Cr
   0.3307888345475390   -0.0001756874140118   -0.0013422906224098 Cr
   0.3312266613885323   -0.0000010361538427    0.4985385907170270 Cr
   0.3336760466302794    0.3339604786094517   -0.0018841781473532 Cr
   0.3331666304904202    0.3324131853873170    0.5029670675001250 Cr
   0.3380349555265185    0.6663987830902469    0.0005811438773608 Cr
   0.3333026192536220    0.6680671962877532    0.5001893427233790 Cr
   0.6670763320843733   -0.0012153358259508    0.0002584842473268 Cr
   0.6658968487644694   -0.0003969459842355    0.4999157078025077 Cr
   0.6656367721445033    0.3334898332759066   -0.0018848290689817 Cr
   0.6656358211199381    0.3319692566544978    0.5015591669208591 Cr
   0.6638346752798976    0.6673366285855267   -0.0009801391562259 Cr
   0.6667332539725243    0.6681922218006258    0.5004626232204706 Cr
   0.0004329521139725    0.3325839020876203   -0.0028107789278003 Cr
   0.0019245971909805   -0.0006587950045991    0.5015734277750187 Cr
   0.0001699175052754    0.6676589464460448    0.5013663808017641 Cr
   0.3348232521717230    0.6668793219007383    0.7488041950692088 Cr
   0.0023120966182275   -0.0003008307416277   -0.0003186690209397 Cr
   0.8327532712913520    0.5003624029192942    0.2513985137537434 Cr
   0.8336967948584705    0.8326469150903639    0.7489065427334762 Cr
   0.8332620413454083    0.8333543735680211    0.2517813133491527 Cr
   0.8325426746472053    0.5005600757697914    0.7500679397200946 Cr
   0.1745827148190031    0.0204860034521430    0.6250239712715594 Gd
   0.1708905386031583    0.3529599627457121    0.6274262671618653 Gd
   0.8264842841554760    0.3128314156756621    0.8731539560847015 Gd
   0.8274090466105269    0.6481470544201600    0.8743780253002780 Gd
   0.5067592838748918    0.6880218617546511    0.6250874507264251 Gd
   0.8385494417521497    0.0193892061871871    0.6252352003573127 Gd
   0.3388847362860483    0.8143201282053979    0.3733385393235829 Gd
   0.1595322625622249    0.9790827910705238    0.8735532248046589 Gd
   0.3391339503502612    0.4804937974803912    0.8756583944841357 Gd
   0.8377776470284298    0.6864189902342434    0.6257317245227303 Gd
   0.0053391426473374    0.8136261994765922    0.3743021152877388 Gd
   0.6720675679789614    0.4806094816781026    0.8754442784983008 Gd
   0.6598227287817621    0.1857232608633945    0.6250191966170967 Gd
   0.6633693297761372    0.8524895860249928    0.1262785094427980 Gd
   0.6629438648814093    0.8522715254676748    0.6240117002137954 Gd
   0.9966761026005769    0.5151177861137834    0.1253657614908351 La
   0.1701530678226000    0.3489685445672816    0.1232513565472999 La
   0.1697341150732242    0.6817385553322568    0.1249291558330058 La
   0.1643455494294373    0.3180608272993345    0.3758384194798939 La
   0.5011614260348113    0.0142633689131787    0.1255364049485576 La
   0.5007509821766345    0.0151584221683817    0.6246605214802898 La
   0.0038396591852877    0.4843977967561240    0.8749676865682697 La
   0.6622213468368620    0.5162137283318022    0.6250087170596407 La
   0.8314590396562594    0.9842682987462784    0.3757919805697252 La
   0.8363699881082025    0.3480105596922519    0.1244626635996679 La
   0.8311494778652774    0.9839499014004991    0.8743896182940962 La
   0.8369015628756222    0.6818265659302577    0.1249447380892501 La
   0.6619727918290881    0.1806372799291032    0.1247236798574625 La
   0.1662423461673249    0.6529214616769673    0.8729112826063518 La
   0.4952478638446589    0.3178732095960379    0.3763213153483549 La
   0.1717847266535982    0.0179497219769234    0.1253164418577586 Nd
   0.8390418587338520    0.0175140001391528    0.1251824168839829 Nd
   0.6702350153865086    0.4826763625608352    0.3747604766202204 Nd
   0.4951969679505714    0.3143685354071717    0.8733681794424820 Nd
   0.3375053877761567    0.4827220160912966    0.3742704500688174 Nd
   0.8382240036776737    0.3508714824619396    0.6257231018784427 Nd
   0.6697025618858763    0.8165221836805696    0.8748943827871830 Nd
   0.3306735484488149    0.1838673059457135    0.1240345183279355 Nd
   0.6610701987049363    0.5183754136035380    0.1247618498150955 Nd
   0.0050718519806460    0.1504546239730608    0.8750799722555795 Nd
   0.3274762808630302    0.8498095078617347    0.6253211606969692 Nd
   0.3300922047503533    0.5182776968062437    0.6241057641176551 Nd
   0.8284786065599529    0.3155132327259200    0.3764481653356488 Nd
   0.4973331299224569    0.9837048290472395    0.8754768356220550 Nd
   0.3985852749269446    0.2330908406301792    0.9704071432784460 O
   0.3972140770303974    0.2316167704814066    0.4779016675592439 O
   0.0665058499574350    0.8997811269288053    0.4716129747611506 O
   0.4001830378838108    0.5690582125192392    0.4754998666958900 O
   0.0714331378410712    0.5706897388607509    0.9764971385108431 O
   0.0660292380118461    0.5681039820011257    0.4744588874301260 O
   0.0714502525052389    0.2373191951299700    0.9719065253885006 O
   0.0659203529059012    0.2319480686010698    0.4775434075156129 O
   0.0677451970402958    0.9001340989966448    0.9708995504649239 O
   0.4022358293944151    0.5683176640619733    0.9691486269954143 O
   0.7357320450097657    0.2359427560540267    0.9721567326325408 O
   0.4005074375455929    0.9014396064941629    0.9757894870502810 O
   0.4285085016487931    0.0695456320845951    0.9725740471837510 O
   0.4332650708311472    0.0651317788126174    0.4710311046185336 O
   0.0964445323167594    0.7376002872024361    0.9731216438752789 O
   0.0994702555126105    0.7342867566886108    0.4738587424456340 O
   0.1024435762821753    0.4002713488365534    0.9724260580484793 O
   0.0969946368519072    0.4032546244357334    0.4760020014630004 O
   0.4004227265042000    0.9011057386716551    0.4712556526409785 O
   0.1019159026825951    0.0664545282945018    0.9723612177009833 O
   0.7343788705764980    0.9001363806313825    0.9775428055306219 O
   0.7314146988613968    0.8985814923304073    0.4738682085867075 O
   0.7306891815328852    0.5670162738120734    0.9736300199244047 O
   0.7347241836010328    0.5698780625431880    0.4734894623495128 O
   0.7668816206328003    0.7329918184535776    0.7765991654706275 O
   0.7336941011305590    0.2339800704197591    0.4754734091731129 O
   0.1021375325926103    0.0657460761887251    0.4741254438693476 O
   0.7640009608113122    0.7360070111492603    0.2789383430503031 O
   0.5659014595403555    0.2658165862430818    0.2258742016980189 O
   0.7641394825981335    0.4023627970844817    0.2753161805095786 O
   0.2631110064008118    0.7630511858846968    0.7241884034905246 O
   0.5987929102161066    0.0979817993786395    0.2288747764488094 O
   0.6001460492149949    0.1004950396398667    0.7242581396788855 O
   0.5973005229633309    0.4319585028152646    0.2253904530783320 O
   0.5963899672773252    0.4295912440146373    0.7255076989902928 O
   0.5977535492311470    0.7657044418930440    0.2200987502100405 O
   0.6006661891778167    0.7667620905160432    0.7219245160686363 O
   0.9357788679916105    0.0991648696419374    0.2237103732419333 O
   0.9327548813188455    0.0981063402371153    0.7226770473744368 O
   0.9311301210666288    0.4311382426617914    0.2294943568629766 O
   0.9333188677901056    0.4328871244931781    0.7245338857828818 O
   0.9345301799669748    0.7677474347964756    0.2280925533078612 O
   0.9312943604605324    0.7648317795706209    0.7206275465299122 O
   0.7663963417699647    0.4000040679508944    0.7752500762089589 O
   0.1025258618874382    0.0650754294180093    0.2777335775051446 O
   0.0969179733787556    0.4042798222300554    0.2735267622338742 O
   0.1031392404549979    0.3986311434338083    0.7761132693636518 O
   0.1003245381218546    0.7346992801751365    0.2787528556549342 O
   0.0948207284487899    0.7381384510994846    0.7762206065748378 O
   0.4325298363503007    0.0660371667376295    0.2796499226538175 O
   0.4299071275927120    0.0682720328739594    0.7776611986107655 O
   0.4319388283551393    0.4024448005822875    0.2727151853962544 O
   0.4308401628074528    0.4025140211786978    0.7758141772845053 O
   0.4334481678772810    0.7353802022217200    0.2789382243899372 O
   0.4301178396548397    0.4029874039457247    0.4799425522815920 O
   0.4348392715292326    0.7330474691458274    0.7757137886792229 O
   0.7638552873262797    0.0689675593830208    0.2740693372268454 O
   0.7651041093818707    0.0691709070399686    0.7726621967737957 O
   0.1019845220305305    0.0667858735181009    0.7760803121620325 O
   0.4323648448160484    0.4023318218938543    0.9709878208985204 O
   0.7654279157295347    0.7356179348097207    0.4726956074621498 O
   0.4369987305795061    0.7323012729173152    0.9732266112994457 O
   0.9320691342418963    0.0968941461757202    0.5285403226178347 O
   0.9360600729839809    0.0999640276168623    0.0268044427086289 O
   0.5998532748810955    0.7664885563008884    0.5272483877421592 O
   0.5993963682936998    0.7666776389097679    0.0294464829929610 O
   0.5956329556901617    0.4292185239399071    0.5241493766884450 O
   0.5982948806721212    0.4321243544329466    0.0238871459422607 O
   0.6007127197925991    0.1006277960446442    0.5268207713389054 O
   0.5974737313629032    0.0969387677543246    0.0197687796272154 O
   0.2637221225068019    0.7642189844815059    0.5261552543112044 O
   0.2694138533962809    0.7667831252382076    0.0256874480619135 O
   0.2636405279551178    0.4309122528219935    0.5261484733459697 O
   0.2713272251858287    0.4352957947296875    0.0255240495728557 O
   0.9310721152410124    0.4310891762343904    0.0217427275110310 O
   0.2683583131860161    0.1009082241682974    0.5284110064652149 O
   0.9011222357057187    0.9323993816587443    0.7207630706831790 O
   0.9020628881621284    0.9315510630581642    0.2255429072978771 O
   0.2701237513044977    0.7680527811335877    0.2233069427967596 O
   0.8991832940004040    0.5998592007304682    0.7232497079069216 O
   0.9012460578192281    0.5989257286463445    0.2305703911674087 O
   0.9024895330792621    0.2640878036515549    0.7247586830487361 O
   0.9033274789853620    0.2627718498274581    0.2262621499568334 O
   0.5691344161755224    0.9308193067397906    0.7260523763411606 O
   0.5682105703102969    0.9298147238027840    0.2250133905825080 O
   0.5640413639865275    0.6020114309405635    0.7244246327758669 O
   0.5647873779804382    0.6013714568963953    0.2228214607615451 O
   0.5642970182411121    0.2664461884363349    0.7223160490525072 O
   0.2649170531751873    0.0980882642034698    0.0249917375241412 O
   0.9328834699287406    0.4326577173608692    0.5253012468100917 O
   0.2305028939624680    0.9337076258806336    0.7246397802222175 O
   0.2355047111906942    0.9297359601549369    0.2236168916975303 O
   0.7637503384611938    0.0688995154644123    0.4752036567004815 O
   0.7646631845262355    0.0696643272521314    0.9779565442082815 O
   0.7647388907960088    0.4021039309342855    0.4775947180382482 O
   0.7654558672615380    0.4006358614955262    0.9708982741540280 O
   0.7654905203512421    0.7335990162004228    0.9714780231011191 O
   0.0665937278719512    0.2329451040863560    0.2731802347769845 O
   0.0701353141208725    0.2357283387289985    0.7763223387266820 O
   0.0693908854905963    0.5697574516087962    0.2770569718376958 O
   0.0677862332816789    0.5687220101465322    0.7723380040438743 O
   0.0689449525934199    0.9002777581157312    0.2790697357925919 O
   0.0652226888541567    0.8993789000568457    0.7787478786970310 O
   0.3990593718629283    0.2322200635692280    0.2740237349430428 O
   0.3973818514539649    0.2325772039694425    0.7777707609110874 O
   0.4013433072704458    0.5694615514377879    0.2761942159700507 O
   0.3999597943369985    0.5671855463345080    0.7772535311838554 O
   0.4022462109852187    0.9022805866454170    0.2805541525409008 O
   0.3993709454920863    0.9007862245246542    0.7745360321351868 O
   0.7353755668260435    0.2348858590065513    0.2764882483197005 O
   0.7339423492447384    0.2348170413715480    0.7756319931978991 O
   0.7337043867904206    0.5698398577598920    0.2749323206616631 O
   0.7316338903627987    0.5671431317314672    0.7777232590701778 O
   0.7311815822417118    0.8982134337808020    0.2768779945950380 O
   0.7342391739063501    0.9001274225137663    0.7727214128767553 O
   0.2356192817729509    0.2638825911553308    0.2247055025353326 O
   0.2338597438929439    0.2659580466695934    0.7212748030609160 O
   0.2385292640534251    0.5972546270624653    0.2252642513650068 O
   0.2336399732670507    0.6002963566779190    0.7198805103240896 O
   0.4321894187142326    0.7356948876371323    0.4727570652201800 O
   0.2654259054300526    0.4313650175166202    0.7217108919306336 O
   1.0377118813183059    0.9885773421512292    0.6252274160988527 O
   0.2682130675627846    0.1012177468074726    0.7223204310698969 O
   0.6935516635188977    0.3256245490630832    0.1241424325924105 O
   0.6975674173381314    0.3223614329335545    0.6257482050399300 O
   0.6958582736595642    0.6580835846097296    0.1243480219711843 O
   0.7008191766712105    0.6584095085648671    0.6253870936477786 O
   0.6969254916180811    0.9901527692763609    0.1264280592702451 O
   0.7014883347519340    0.9876936130448136    0.6238992349339162 O
   1.0270381177001797    0.3227671136531687    0.1242641132860810 O
   0.2687804584196425    0.4339676840388682    0.2248112200137908 O
   1.0261029558150783    0.6596481396987799    0.1252397700084958 O
   1.0366167147199157    0.6572831778586222    0.6249190350022589 O
   1.0319918618812924    0.9874491866931251    0.1251438105713434 O
   0.9340395638991628    0.7672201320484462    0.0229574684860191 O
   0.1988959829343951    0.1761366628494490    0.3759593606526012 O
   0.2034095661638194    0.1799284968874850    0.8739070769211994 O
   0.1970205962519435    0.5086888688493432    0.3762422064331900 O
   0.2028765893772040    0.5104647122904648    0.8733003316981448 O
   0.2022077501841675    0.8450519777810708    0.3755039752233648 O
   0.2013395187516000    0.8426238561263090    0.8745826188086663 O
   0.5318169861225848    0.1763755024766052    0.3769312765664513 O
   0.3597859754301719    0.9887649266763460    0.6245900854084320 O
   0.3601952010658009    0.9878528704845211    0.1256006581197465 O
   0.3693930221423462    0.6594766289942233    0.6243617638285059 O
   0.3720211380388653    0.6530720508609364    0.1251612299025557 O
   0.1303957381770378    0.1584617220083505    0.1242483131486761 O
   0.1336382418389165    0.1543365527574055    0.6257321522953703 O
   0.1392995877722610    0.4944737081943775    0.1241000873858801 O
   0.1323142204219299    0.4884549134346515    0.6257113209919312 O
   0.1341913401503858    0.8251661742714919    0.1253797853932956 O
   0.1342612150671126    0.8205902241838801    0.6246799197796935 O
   0.4708788946777704    0.1579380369753249    0.1248490575421245 O
   0.4615544395306249    0.1562855921821443    0.6254137020879890 O
   0.4640647634773665    0.4887608002669208    0.1233218696462778 O
   0.5332164036963760    0.1738963095030621    0.8731925643032903 O
   0.4701820616944027    0.4882343225731948    0.6262400104119403 O
   0.4685564188362854    0.8241055272864726    0.6241704937988092 O
   0.8058770787109175    0.1599834708042991    0.1252908372517709 O
   0.7979946747489949    0.1562718255109617    0.6248966494818292 O
   0.8031907596762684    0.4936412594880292    0.1244334068086713 O
   0.8039853191083369    0.4910632201209408    0.6256442953917668 O
   0.8008179732998765    0.8251619733018145    0.1255288079130220 O
   0.7985796955616707    0.8211716791701744    0.6247435845901740 O
   0.3671932904225451    0.3232722911370560    0.1230817312201916 O
   0.3694551323964103    0.3218937172877568    0.6267442291332199 O
   0.4619155715511688    0.8223012370904519    0.1260477497781337 O
   0.5292194621055906    0.5090681935309560    0.3747495623232589 O
   1.0341153792786468    0.3230933784251109    0.6258004336542540 O
   0.5371159503468623    0.8446116018598896    0.3747179176013476 O
   0.6285026013266908    0.6777098510145689    0.8747002722254412 O
   0.2359172652293185    0.2646128042582128    0.0235361362626776 O
   0.2331832629256511    0.2656118113057679    0.5307086949518930 O
   0.2403540022760271    0.5967938725669076    0.0265981091937891 O
   0.2320283612408987    0.6011636971144575    0.5266437946433248 O
   0.2347127757501150    0.9301206448516227    0.0256750792321409 O
   0.2307133156082159    0.9337596270574335    0.5253704762417362 O
   0.5650948008261460    0.2666851984483188    0.0215462247867350 O
   0.5652318995386659    0.2651105700327042    0.5307215920761534 O
   0.6329607280760142    0.6795809353622818    0.3752423383473387 O
   0.5643582071721576    0.6010444417227579    0.0279705331189066 O
   0.5691820067975609    0.9296754309526453    0.0244024721706006 O
   0.5356565482621199    0.5129249780625839    0.8749164343285056 O
   0.9049040568478413    0.2621357296538081    0.0236940954647715 O
   0.9014841408999210    0.2640728891160408    0.5262917130085810 O
   0.9002568167687021    0.5982448880852357    0.0190231558572957 O
   0.9001812268991389    0.6007314647596935    0.5279564809932460 O
   0.9026464795037287    0.9312433637057107    0.0255370377983144 O
   0.9006585410049398    0.9325598305636531    0.5290266594705900 O
   0.2659357799996450    0.0981999928305101    0.2243442322551141 O
   0.5653450613028624    0.6016758739672253    0.5247944619508431 O
   0.6353758444975456    0.3440839431277248    0.8739034404294189 O
   0.5682258500737379    0.9309614759504086    0.5244736760386366 O
   0.6389034050204315    0.0082179626157001    0.8738096237375844 O
   0.6381283555169575    0.3411988514177348    0.3758746933612983 O
   0.5292354123535390    0.8431899059969845    0.8752979974886859 O
   0.8674411576565434    0.1735928475134515    0.3763942789608852 O
   0.8633933448428434    0.1751117435511384    0.8738582441918158 O
   0.8649498801019126    0.5096341332753579    0.3764034958041665 O
   0.8610649795537280    0.5118635139480869    0.8737778034812759 O
   0.8685131775874853    0.8417046150401699    0.3763362304013092 O
   0.8693373366992796    0.8417553640512517    0.8736962076792862 O
  -0.0274697181886309    0.0113328003564703    0.3760464572182493 O
  -0.0282531186710649    0.0106476549885615    0.8743616695595914 O
   0.9324660795401746    0.7658503085103174    0.5274752040932349 O
  -0.0354872220585177    0.3403056915890169    0.8739276164568656 O
   0.6302211536731496    0.0107257749337159    0.3761990178187849 O
  -0.0299844681975711    0.3424938140819672    0.3761966762153999 O
   0.3006193497738408    0.6779040704798136    0.3745840180342289 O
   0.2967745110602831    0.3459388569461196    0.8742891558488268 O
   0.3069984620055303    0.6783752801076087    0.8749379658721981 O
   0.2964573506426175    0.0119901851347410    0.8744016525867834 O
   0.2945109467829782    0.0108902771513882    0.3755726537186220 O
  -0.0348048566662207    0.6782701108600039    0.8732676870736829 O
  -0.0326628301936459    0.6777374600848417    0.3768411918363512 O
   0.3063998522034317    0.3416351167782046    0.3755042225919083 O
   0.9945222924515836    0.5195184493897265    0.6248933808361271 Sm
   0.9950129571148951    0.8505220285122113    0.1251065387369995 Sm
   0.9959538081903693    0.8513954784013562    0.6253362466712763 Sm
   0.1623897031525433    0.6480449535248149    0.3773782689843277 Sm
   0.4951688594963762    0.6482869206776820    0.3758970819806126 Sm
   0.8286670275472646    0.6491911487303488    0.3753973840362875 Sm
   0.3376791205141294    0.1474314899911136    0.3753953942423278 Sm
   0.0041968671777045    0.4820231191326679    0.3748161169004088 Sm
   0.5055743876442821    0.3514598148558699    0.1243729986743436 Sm
   0.9967235587190522    0.1846937606134809    0.6240568565791227 Sm
   0.3409634408068256    0.8152968113227228    0.8765420957654316 Sm
   0.6696933190303387    0.1482049898669496    0.3756480280150336 Sm
   0.6715394848196119    0.1474406054396352    0.8742022834219302 Sm
   0.0076077154548429    0.1481951170423173    0.3749171852823039 Sm
   0.5042231094992649    0.3527578056405166    0.6255346279486893 Y
   0.5066946921704492    0.6878589724652880    0.1242459174032493 Y
   0.3273764856895311    0.1880932181315761    0.6253064561218746 Y
   0.1720515361670202    0.6863927898033891    0.6239193176474607 Y
   0.3288850321635718    0.5193202282528675    0.1259477855077521 Y
   0.4946424868931573    0.9793956318142933    0.3752537037302925 Y
   0.9942657085041164    0.1861115680926591    0.1266455429706562 Y
   0.1627160676830003    0.3136634990942272    0.8743211064060646 Y
   0.1597977021547456    0.9789757751588766    0.3769786657184858 Y
   0.4932429439945903    0.6462936231120583    0.8734996722661635 Y
   0.0046737157593293    0.8134399191791005    0.8764715456552388 Y
   0.6726563840714778    0.8142576202377929    0.3760848744411889 Y
   0.3257769302546697    0.8529702049530813    0.1237210469836072 Y
   0.3375448758412227    0.1463849478596786    0.8741714844324577 Y
