Nd72 Mn14 Cr15 Fe14 Co15 Ni14 O216
1.0
  16.4274342492672361    0.0031625876910153    0.0020465369023865
   0.0031520984501531   16.6371201918552778   -0.0025173081532520
   0.0019645268012864   -0.0024121858876847   15.7472479117292359
Co Cr Fe Mn Nd Ni O
15 15 14 14 72 14 216
direct
   0.8326328025921756    0.5010378445508226    0.2497557586735490 Co
   0.8334980227291036    0.8320498692746171    0.2501978784674027 Co
   0.5001230823153224    0.8329252137295547    0.7490319561692133 Co
   0.4998953353892091    0.8332118109915014    0.2497090992785115 Co
   0.8336137844618459    0.5000032544162460   -0.0000398001050519 Co
   0.0007343935762925    0.6668097482583595    0.5013189396804527 Co
   0.8323348659501438    0.4991676801742692    0.7505360635953036 Co
   0.1675626360349188    0.1661007916357288    0.7508283063268337 Co
  -0.0009111635886848    0.0003704319501033    0.7504292571319060 Co
   0.6667593372647613    0.3334082976255072    0.0000293429745544 Co
  -0.0008323294962744    0.3328957505817784    0.7512344139242698 Co
   0.0003484515029516    0.6672157480581772    0.2495000828807166 Co
   0.3344365504879397    0.6666440775269233    0.7494285403493046 Co
   0.1668586052435681    0.4998016936109964    0.0005360760934931 Co
   0.3340338050924589   -0.0002712103551789    0.2488308671265383 Co
   0.1672698781117287    0.1672021907981130    0.2495698720239988 Cr
   0.8332574899241944    0.8328305535981705   -0.0000288913678763 Cr
  -0.0003195938873456    0.3339491722156552    0.2496867446869239 Cr
   0.8338141722683143    0.1666988464722101    0.0010669800515231 Cr
   0.6675250264184146   -0.0003899684535620    0.7494853234093495 Cr
  -0.0005219755506130    0.3331424445670201    0.0005822774804155 Cr
   0.1670547329585357    0.1659096201469895   -0.0002651606757607 Cr
   0.6664427931998088    0.6663697488772571    0.0007161259465330 Cr
   0.6672393875338493    0.3343466246542070    0.4990437482558686 Cr
   0.6670616970934464   -0.0007120603158353    0.4998872138879020 Cr
   0.5001908381522957    0.8335065501379531    0.4993779495135734 Cr
   0.3332684955356990    0.3339965601956592   -0.0007609278002562 Cr
   0.3343036354379481   -0.0007934142231066   -0.0006035253437334 Cr
   0.1662620976556219    0.8335168723348860    0.5004308904494329 Cr
   0.3335289177593022   -0.0009486659727866    0.7497302376007972 Cr
   0.1668964703214011    0.8344766847901430    0.0013409414358913 Fe
   0.1677318704252096    0.1666643305783499    0.4993112922542970 Fe
   0.8326472826213419    0.5005055543883844    0.5002096608141279 Fe
   0.8322164888071619    0.1668394939294293    0.4991530986724014 Fe
   0.4992662580558935    0.8338616661884287    0.0010098157080280 Fe
   0.0002113186892973    0.6672491847129084    0.7508548323373174 Fe
   0.8321473509528690    0.8328170509962540    0.4995853892355486 Fe
   0.8323178175346745    0.8331730697746601    0.7511178519462707 Fe
   0.3329802151077658    0.3336586547756016    0.7515533970396506 Fe
   0.6667843886484325    0.3319806075008218    0.7505867158815613 Fe
   0.1674897142887417    0.4995339834433281    0.7505756464097316 Fe
   0.1666070897709199    0.8341680053801472    0.7500338638065154 Fe
   0.5000379099431482    0.1665596062465399    0.2491338091425868 Fe
   0.3339214940229970    0.3342391036123789    0.2496527589239463 Fe
   0.6657321222107296    0.6668444768495014    0.4994914160652091 Mn
   0.3339568261689678    0.6662479362480643    0.0007737916574812 Mn
   0.3332416522225998    0.3330636312591382    0.4993464537207910 Mn
   0.1656590185781341    0.5002763783317044    0.5006569650380196 Mn
   0.3338447116561117   -0.0013238066589144    0.4999210302355911 Mn
  -0.0002086343377309    0.6674990002224424   -0.0000415366743414 Mn
   0.0000340370991219    0.3341112437357145    0.4998741844240183 Mn
   0.8330401936514943    0.1665512494748563    0.2503820135530908 Mn
   0.5003851546548540    0.4999186978193502    0.7500279800734260 Mn
   0.4998348798803524    0.4993048020959567    0.2500747216496983 Mn
   0.0000519026004459   -0.0000335539407567    0.2506339518938546 Mn
   0.1661419887010674    0.5005825812291995    0.2484623733801632 Mn
   0.6658986825542109    0.3331616649924767    0.2496568557480250 Mn
  -0.0002852643415480    0.0006833650420803    0.4993415880153840 Mn
   0.6669863297032120    0.1484019589061646    0.3753704701564779 Nd
   0.6695255507274189    0.8156397303533410    0.8755142217159086 Nd
   0.6696630268949786    0.8153463493118350    0.3702655079305865 Nd
   0.6706618105473314    0.4828270610184339    0.8766217246898768 Nd
   0.6692897605015288    0.4862888268228562    0.3738909479294198 Nd
   0.6687488854755801    0.1483915854974210    0.8760644557951044 Nd
   0.3384613379032851    0.8159842760476343    0.8732284722775217 Nd
   0.1715736909413821    0.0167667596495124    0.1251154942662452 Nd
   0.3383529840852075    0.4849899166078313    0.8774454596290183 Nd
   0.9962030849551362    0.1827408571460691    0.6299976538840286 Nd
   0.9959768049886852    0.1821351629066712    0.1232776852148586 Nd
   0.6603789967683191    0.8494472088870025    0.6267302621641798 Nd
   0.6622236711484759    0.8520061651138006    0.1255426966392623 Nd
   0.6617200441077589    0.5169108643698972    0.6251124337352945 Nd
   0.6633372637514735    0.5171736180254093    0.1235470261589279 Nd
   0.6612723541966017    0.1832972683885511    0.6256405363880875 Nd
   0.6613208133039457    0.1815576916216026    0.1205297873859236 Nd
   0.3310778814785585    0.8473711886820988    0.6248146049022154 Nd
   0.3292499625482305    0.8507209412640055    0.1291291256634017 Nd
   0.3320021620673654    0.5189647536133239    0.6236476075153249 Nd
   0.3306452572399824    0.5165547665071555    0.1251183669755334 Nd
   0.3327319257079802    0.1820030173538414    0.6268658639008883 Nd
   0.3308989926299884    0.1825770536413120    0.1226560799470772 Nd
   0.8356880180775470    0.6825394522783632    0.6265239796942421 Nd
   0.8347436520505556    0.6836615717973783    0.1270459379756814 Nd
   0.8379479668011404    0.3488248813603086    0.6288505338782530 Nd
   0.3366433159018967    0.8124157536694425    0.3730798175700738 Nd
   0.1707954537537583    0.0177713719504427    0.6271492800470836 Nd
   0.1704539684802471    0.3496984379227446    0.1226383788861292 Nd
   0.1703649404046022    0.3480916021192421    0.6261057227361156 Nd
   0.1720820467473408    0.6849588448336598    0.1281503606744395 Nd
   0.1732337863843801    0.6838001025996980    0.6241675741560202 Nd
   0.9938628816243731    0.5182578330861105    0.1250335518220700 Nd
   0.5075505183608890    0.0180167356299542    0.1218793978683600 Nd
   0.5052658668949255    0.3496426251624374    0.1196597904038111 Nd
   0.5045978922386297    0.3488746435739908    0.6231817826755766 Nd
   0.5060500556296923    0.6835467835740313    0.1282827678578340 Nd
   0.5022651647890412    0.6828334111988694    0.6252051809006066 Nd
   0.8371326564861052    0.0194962118782520    0.6283225111128680 Nd
   0.8358906087277723    0.3527235809463529    0.1243478308909251 Nd
   0.5052281278880387    0.0199377464074846    0.6257737483979927 Nd
   0.9944644595083654    0.5174405145682944    0.6264025567440175 Nd
   0.8337015802691812    0.0140827581096965    0.1229311538802334 Nd
   0.9957486602934783    0.8513616180504154    0.1254758912921973 Nd
   0.8285983920878048    0.3192618575331130    0.3734702393646184 Nd
   0.8282874047842451    0.3153515061946798    0.8761600481848132 Nd
   0.8304462465956958    0.6510930219582390    0.3724864310324567 Nd
   0.8263753685952527    0.6474359400140389    0.8743144155600833 Nd
   0.8267938026216964    0.9806597038519487    0.3725565667995280 Nd
   0.8287241901399740    0.9846892423893461    0.8770616181361351 Nd
   0.4983806669441438    0.9836443612510155    0.8734450137640329 Nd
   0.0033040985750643    0.1474050019753200    0.8750539968872508 Nd
   0.0023878859312330    0.4818119863590317    0.8756191753950359 Nd
   0.0048980874600612    0.8129253374175527    0.3738810223755566 Nd
   0.0037836849431756    0.8203577470899897    0.8762818073341118 Nd
   0.3393761613678624    0.1478524993771095    0.3741129554631087 Nd
   0.3410909697415661    0.1485620449276594    0.8746546373793611 Nd
   0.3384732488688625    0.4883880156188596    0.3775397926710170 Nd
   0.0028745522966962    0.4872657897717593    0.3736199062743740 Nd
   0.4969782578991191    0.9820350192598492    0.3723023782055113 Nd
   0.0043800860618520    0.1513553463667460    0.3745170835185136 Nd
   0.4935560247790300    0.6497412466675616    0.3765782406878047 Nd
   0.4980795388341839    0.6508038520654392    0.8749090184308426 Nd
   0.1631449731906768    0.3184102042004849    0.3731320090534177 Nd
   0.1607286507487120    0.3142449934016184    0.8750523535805398 Nd
   0.1646896682163476    0.6526533790387945    0.3741533599657119 Nd
   0.1634543071426540    0.6489529898389627    0.8764595600173111 Nd
   0.1641011082368323    0.9806495446882156    0.3732898541745335 Nd
   0.1610936220489965    0.9860999223830669    0.8761893079016654 Nd
   0.9944722616000142    0.8509328000576821    0.6251472231109106 Nd
   0.4975001975938994    0.3143300451174456    0.8755851769303526 Nd
   0.4962899950187879    0.3164829573972426    0.3773744076457308 Nd
   0.5007616933072957    0.5005478363947726   -0.0000177473209368 Ni
   0.6663871163744398    0.0001409176348519    0.2498110972430286 Ni
   0.5005812551235425    0.4997353316456941    0.5004099133363793 Ni
   0.5008364706173579    0.1667934908177118    0.7494495766634028 Ni
   0.8331101683864309    0.1664590408058247    0.7521607115467636 Ni
   0.6666164792697062    0.6656877988983002    0.2502930479534510 Ni
   0.6657423823643319    0.6657154861852980    0.7499739654802846 Ni
   0.6670394327119954   -0.0003993408063600   -0.0004576956123087 Ni
   0.3343803480706807    0.6665675718374668    0.2487090077083178 Ni
   0.1663044608592139    0.8338569895245971    0.2499932510359163 Ni
  -0.0008811439433631    0.0002852370261451    0.0013269951710099 Ni
   0.5001345914358255    0.1664724554254601   -0.0017700602347076 Ni
   0.4999515058890071    0.1665635378539813    0.5002872353904180 Ni
   0.3331026485755993    0.6667488589914258    0.4998322133230264 Ni
   0.3987284976139731    0.9027879719580045    0.4760446836677503 O
   0.4012842449113262    0.9006196847567975    0.9747248849617091 O
   0.7376757551774678    0.2371747834535128    0.4720150503506337 O
   0.7335256291135535    0.2357500479976685    0.9795921878914692 O
   0.7334333765320489    0.5726331492663851    0.4765575063216428 O
   0.7370912626033567    0.5675579859559252    0.9765087313766295 O
   0.7363023271119697    0.9007459355368647    0.4727944939281707 O
   0.7370217103740433    0.8995321651488485    0.9762029388700579 O
   0.0959193573393850    0.0687326468503203    0.4752363297535940 O
   0.0985738782353436    0.0696736928975311    0.9767032041446665 O
   0.0969113732343620    0.4031421615827591    0.4763101323063955 O
   0.0966824517693304    0.7356808852457666    0.4757954530495928 O
   0.0957218598573175    0.7339532788255981    0.9765676064702548 O
   0.4264363952677873    0.0655641364662132    0.4760956164374520 O
   0.4301200120565513    0.0667709483240688    0.9740919905721982 O
   0.4260043337726810    0.3996959973570884    0.4783348741512527 O
   0.7669220117867944    0.0699526491227826    0.9786262236810719 O
   0.4307896734606221    0.4021350354791577    0.9760581446600920 O
   0.4321169948092983    0.7379951834668520    0.4751901395275115 O
   0.4277014908139674    0.7331404018741630    0.9764814157553715 O
   0.7666171533564791    0.0687217238331553    0.4750670563917572 O
   0.7638775060105172    0.4050083623184219    0.4730270258674146 O
   0.3983174101285374    0.5719753656795767    0.9779811201537593 O
   0.0970202620365091    0.4030763826971402    0.9764512703427716 O
   0.4028020942925077    0.5682343576079383    0.4798344480922230 O
   0.4277658702173017    0.0673825917019675    0.2726862303620323 O
   0.3967411480129160    0.2395010324369578    0.4757804514894023 O
   0.0984602825775064    0.0684506019028280    0.7696039692562565 O
   0.7625740115249777    0.3984717459406483    0.9806348222583924 O
   0.0975302067407132    0.4055979178391738    0.2740564965470366 O
   0.0964332410289378    0.4001114771746407    0.7705128962361423 O
   0.0934571344060358    0.7330920040742557    0.2719796751137142 O
   0.0973060269817972    0.7360193191190647    0.7759496376156968 O
   0.4298143371640085    0.0667729256747692    0.7724145149190419 O
   0.4311190311331939    0.4053298084720410    0.2756162405311313 O
   0.4328922910293472    0.4045416847774377    0.7732217525515559 O
   0.4356349525501627    0.7375060617184714    0.2725559548567835 O
   0.4287997655750207    0.7339200970463936    0.7729904983889861 O
   0.7680811181277095    0.0740164555818536    0.2746954811817444 O
   0.7661551264471032    0.0650670687784743    0.7717874855207191 O
   0.7603448600640584    0.4012026985552816    0.2710806274309818 O
   0.7650590235713155    0.4010568163841439    0.7721419058954767 O
   0.7669390962902110    0.7355782835816633    0.2727453186416925 O
   0.7663852732691975    0.7350139556330089    0.7715843780857119 O
   0.0698947508450271    0.2403438927796859    0.4748790122188561 O
   0.0682949692709708    0.2351772458624396    0.9756317703117213 O
   0.0720119167851207    0.5669159255818491    0.4773545305276883 O
   0.0657002893123674    0.5726838282448307    0.9761758399498270 O
   0.0656603398173258    0.9045575072929606    0.4753701221848345 O
   0.0706438507086708    0.9016626441690948    0.9780061829431653 O
   0.4008226903158790    0.2371697305654729    0.9754736788722451 O
   0.7615645630753014    0.7329298142648746    0.4757656051808002 O
   0.2660142616297594    0.0954168268474838    0.5233816070995694 O
   0.0695754474873147    0.2375718182645239    0.2758148246391486 O
   0.5680705479064215    0.9306781588441040    0.7259786001586180 O
   0.9003184825207028    0.2637873970191210    0.2270751205586202 O
   0.9074116224685513    0.2662566021885855    0.7278485850631193 O
   0.9072368378676597    0.6002381525544210    0.2274383735263226 O
   0.9024264997517825    0.5979537725366860    0.7285242678670758 O
   0.9045842580695267    0.9345847780887240    0.2291091579357379 O
   0.9032312704807569    0.9304044048834543    0.7248230862193914 O
   0.2648004293714531    0.0971174876540279    0.0248131484595382 O
   0.2646665512327239    0.4321604679488851    0.0256216302208487 O
   0.2626451388388197    0.4299360620640436    0.5235100152831168 O
   0.2662448220509645    0.7614792324233589    0.0237371145378943 O
   0.2612551353445028    0.7644480877389748    0.5253450705891858 O
   0.5977302684690953    0.0980471870742367    0.0223359893630227 O
   0.6008679921087008    0.0974056962646329    0.5232639701806135 O
   0.6015715060912706    0.4297599473701618    0.0227553169154054 O
   0.5988130168485102    0.4308066559383898    0.5233348016929099 O
   0.5967177341290651    0.7638875930839322    0.0247178473019655 O
   0.6002369332852737    0.7624574009549085    0.5227613471199739 O
   0.9296444504333766    0.0984614470149481    0.0255478386954031 O
   0.9350466986610736    0.0979135049800504    0.5209500788469448 O
   0.9307288878149609    0.4325430514251862    0.0237095353563220 O
   0.9331528017522567    0.4284589138204991    0.5233866653686011 O
   0.0956886976392319    0.0687070750418824    0.2754034935984886 O
   0.5640254777874917    0.9284398699755999    0.2271979569098012 O
   0.5650564154444887    0.5939190549320824    0.7253158596503098 O
   0.5667896207987109    0.5916524291986658    0.2278171264665479 O
   0.5705503549291459    0.2670584843084608    0.7247447978072803 O
   0.0707848659594185    0.2327878184541108    0.7710110330051401 O
   0.0724479077545830    0.5679819512743552    0.2712906983028899 O
   0.0687262295205092    0.5679104404924771    0.7734562113170713 O
   0.0650749058898477    0.9058503195172845    0.2749022537676411 O
   0.0677339839994154    0.9046715236071854    0.7708664272569836 O
   0.4023583643462234    0.2379724534912097    0.2744701248219903 O
   0.3994149759746263    0.2383947628763554    0.7719778508381592 O
   0.4066101006052560    0.5660792225233205    0.2715312617765396 O
   0.4049483876026937    0.5666582858544342    0.7726256242400497 O
   0.4004806629536304    0.9005886670043857    0.2725923433004345 O
   0.4032034018216038    0.8995135692771491    0.7705724812335765 O
   0.7658635871069004    0.7340789881728869    0.9757421987082621 O
   0.7356856206662885    0.2367807420208720    0.2740237693277536 O
   0.7399759445768630    0.5673321096945705    0.2732385269024761 O
   0.7379941773686698    0.5647601791648882    0.7712002749140998 O
   0.7407183711827120    0.9002199795186564    0.2720612998842622 O
   0.7347013204001386    0.8998934035601607    0.7735675285439276 O
   0.2352595504748579    0.2660249346244909    0.2277650091814235 O
   0.2350426238862209    0.2642062223853938    0.7270324029478058 O
   0.2332008041622724    0.5924708851824101    0.2265637507925967 O
   0.2368179600641350    0.5981092982191140    0.7276069953439100 O
   0.2381259049887998    0.9361069648436743    0.2301822031697836 O
   0.2355764051275002    0.9300018257333548    0.7241985544472030 O
   0.5707173679717062    0.2675832798488661    0.2276976175724819 O
   0.7346572051686848    0.2364186780736426    0.7749862749396144 O
   0.9317809412894726    0.7643015206820298    0.7269236524579910 O
   1.0282706568038935    0.9945039279475757    0.6194584838087495 O
   0.9289237964311212    0.4332589885259681    0.7281549867429599 O
   0.6944609964276875    0.6595412100147380    0.6191802175930753 O
   0.6940331100902662    0.9921322778712501    0.1259504011746027 O
   0.6984829228224552    0.9895464486119546    0.6244153190307887 O
   1.0295836866317112    0.3255349280509988    0.1262961433034499 O
   1.0280573538307489    0.3266813486018521    0.6197641541482451 O
   1.0296600664166979    0.6603448838466579    0.1194252896318359 O
   1.0308515165812477    0.6586228559579482    0.6254398306228309 O
   1.0291212929921825    0.9942823552475972    0.1326701344680980 O
   0.9347934498859420    0.7624976948413568    0.0243749699316893 O
   0.1967009938547039    0.1751115951010473    0.3757406364734953 O
   0.1974197266635938    0.1729564497480715    0.8751109083165483 O
   0.1939748778710223    0.5068674054400579    0.3762194101613205 O
   0.1955934417462941    0.5078130180721919    0.8740541233205695 O
   0.1944629903209066    0.8395078202673302    0.3770072488924562 O
   0.1955618610437987    0.8415817691695210    0.8757853960667622 O
   0.5253995977602411    0.1738449114217641    0.3729661871095735 O
   0.5292178432133290    0.1751457258665332    0.8735452593941478 O
   0.5273429198201637    0.5054998437548311    0.3696243437250789 O
   0.5286606075095935    0.5089639203036903    0.8689849778338349 O
   0.5296242514507385    0.8426226885901864    0.3757373801793752 O
   0.5266091277250857    0.8376761442591606    0.8745005780531825 O
   0.8632632286039569    0.1764841888599400    0.3716565258753045 O
   0.8639135990739152    0.1756315730235467    0.8789517385659847 O
   0.6953623311408159    0.6574976371980712    0.1237575923735597 O
   0.8615724104573794    0.5075815735707059    0.3760357670817288 O
   0.6971068022267535    0.3266775920867990    0.6235489564962824 O
   0.3622223310183293    0.9917624743681931    0.6217406263034628 O
   0.1371155142416001    0.1588789383175558    0.1259282817727550 O
   0.1385431573372422    0.1614632951114990    0.6220304974719014 O
   0.1369855270382619    0.4933524975684517    0.1286986073599624 O
   0.1366459348133708    0.4911970086848756    0.6221937552099734 O
   0.1372887286606013    0.8262808206364315    0.1236375181670349 O
   0.1350779740619580    0.8252946748687139    0.6252445149867393 O
   0.4718583346977079    0.1623870426883575    0.1268338736265477 O
   0.4713632551265271    0.1607175313380709    0.6243808296865225 O
   0.4717667378341038    0.4907967208543909    0.1313708657165614 O
   0.4720508843486254    0.4918876826350908    0.6308539007229266 O
   0.4693219617280537    0.8239911441280802    0.1246198301633241 O
   0.4712430720764640    0.8238382915601339    0.6241284849503295 O
   0.8043040779446341    0.1582496464789302    0.1295415327434901 O
   0.8062995591618378    0.1622462940752894    0.6216673117475021 O
   0.8072101830196660    0.4965547278086966    0.1238270277975877 O
   0.8048402264497234    0.4915698677828216    0.6231619751474990 O
   0.8050017707770714    0.8253740116652272    0.1252097116294562 O
   0.8040136451291626    0.8252287114451998    0.6236992474119148 O
   0.3625571519578442    0.3269343474914523    0.1254979021484439 O
   0.3605022192735193    0.3263692558991562    0.6205388135857903 O
   0.3630048478997472    0.6579093741749679    0.1194041794883933 O
   0.3602277067616643    0.6602008386008283    0.6273310064101686 O
   0.3649220899767876    0.9927406129535109    0.1235396284205078 O
   0.6940805966292591    0.3264266995375945    0.1304875033784442 O
   0.8609760731519759    0.5049151336168738    0.8773543540649879 O
   0.8637443127290467    0.8375362807360276    0.3761438218011207 O
   0.8639738407696048    0.8424229018924617    0.8751798411026073 O
   0.5670144801767549    0.9289953140453865    0.0225224460423627 O
   0.5685158922152994    0.9309152257462727    0.5255864771246185 O
   0.9012256915697042    0.2655475082871055    0.0270807261500766 O
   0.9059414083307293    0.2657026945795527    0.5211800458254398 O
   0.9060885531413296    0.6010269201602770    0.0235526504220690 O
   0.9040522145258943    0.5959891511528211    0.5258185478526607 O
   0.9023521411641409    0.9282883507375805    0.0267078598940773 O
   0.9041749433947744    0.9339959383078168    0.5228138156910144 O
   0.2656711760231352    0.0989002546169727    0.2280455753870396 O
   0.2627772821912233    0.0980352691024720    0.7254817905488720 O
   0.2617172053583995    0.4316784282797008    0.2287194502360503 O
   0.2641336441225208    0.4309003023046448    0.7233759847076087 O
   0.2636144218147122    0.7633340984804430    0.2261284901131844 O
   0.2635844398040961    0.7640891124007162    0.7285047036234673 O
   0.5963592267233919    0.1001444184325510    0.2273362326944391 O
   0.6007626967709516    0.0963183985242757    0.7244873782718564 O
   0.5962360865882617    0.4310522334152727    0.2265109881747096 O
   0.5954028922451058    0.4331059816183734    0.7273506647961484 O
   0.5966830611782514    0.7664999902937150    0.2284740204296540 O
   0.5921727721464818    0.7649503798534599    0.7271204322442310 O
   0.9319629292483103    0.0987878784706153    0.2296283610955460 O
   0.9342546860920583    0.0953302500132367    0.7271974401865589 O
   0.9288879848925384    0.4317088974490814    0.2276989175722700 O
   0.5725076521802882    0.6005725705545317    0.5226039931740802 O
   0.5693671068079874    0.5982047745281881    0.0244646983127337 O
   0.5697542530557932    0.2672565778134824    0.5201711863109957 O
   0.5732678714009205    0.2682030213914109    0.0211589430215895 O
  -0.0300745450777533    0.0086281340374182    0.3757138413185862 O
  -0.0284180618185232    0.0059608648745382    0.8721460364782184 O
  -0.0286126788293016    0.3435865367539293    0.3768746345365357 O
  -0.0295150207361175    0.3411512361517238    0.8767198418774969 O
  -0.0270172875964636    0.6688893593728894    0.3775576050602464 O
  -0.0300430605826944    0.6754736373827632    0.8793676796721966 O
   0.3048404071289582    0.0063453412644685    0.3805278324786457 O
   0.3020530480939437    0.0062902426023830    0.8737716373215396 O
   0.3046437108387427    0.3438627475680021    0.3783042733326199 O
   0.3013166176263364    0.3449628396229094    0.8749649217113119 O
   0.3054728688640697    0.6701584383001671    0.3742089673728264 O
   0.9297384168641418    0.7668646565699038    0.2284985505512742 O
   0.3053469080459592    0.6718397213277820    0.8796011176130895 O
   0.6384585090814666    0.0071599743454395    0.8717972077615282 O
   0.6377852634450752    0.3426035811352506    0.3717327298115709 O
   0.6386844984327461    0.3423601666361452    0.8746583013254314 O
   0.6366471094059398    0.6721391769417600    0.3802508583821932 O
   0.6382489305424150    0.6731548237866870    0.8768943059282417 O
   0.2351210645653812    0.2651040040090612    0.0239499677482198 O
   0.2377097291884988    0.2658421146111027    0.5220229634401755 O
   0.2376034948168403    0.6007462746793515    0.0234601366139956 O
   0.2316799599375981    0.5924625257667165    0.5235901952443542 O
   0.2362861517337329    0.9296962349809107    0.0264516781731747 O
   0.2360379876296919    0.9330894554944712    0.5237014914550809 O
   0.6379506017006930    0.0075444789298070    0.3760262044169820 O
   0.9293250043500126    0.7637779614496754    0.5242956446209776 O
