Ba16 Sr16 Li16 Ca16 La16 Ti72 Al8 O240
1.0
  15.6966404842453127   -0.0011358825255213    0.0024479994983018
  -0.0011361273907142   15.6882351405522016   -0.0004735843206623
   0.0030597459032220   -0.0005918672578134   19.6122186702117887
Al Ba Ca La Li O Sr Ti
8 16 16 16 16 240 16 72
direct
   0.3729411615574380    0.8736147320876197    0.6979448053765146 Al
   0.6258149492051870    0.1259406082341834    0.4995955730621186 Al
   0.6249130766840062    0.3722827824614859    0.5005380906228607 Al
   0.1257034215572140    0.3708671554051701    0.8998086285965435 Al
   0.1298973774735663    0.3760920351864659    0.5009297021271827 Al
   0.6255233712506584    0.6233667650439954    0.3025291018811394 Al
   0.1238468265839153    0.1246258021392626    0.3018339346322738 Al
   0.3778251722196222    0.3734825970767043    0.5011578835086451 Al
   0.4940878379196361    0.4957219617970683    0.7987920379786910 Ba
   0.5001183939852621    0.0010814084366867   -0.0002648231995222 Ba
   0.2518162686009182   -0.0019679562953444    0.7979632997899412 Ba
   0.2459150442662117    0.0006002062194026    0.3991566979612390 Ba
   0.4973465095075890    0.7482450875531370    0.5992596067775513 Ba
   0.4974653437628418    0.7517802936717923    0.7995939896288271 Ba
   0.7454517111574074    0.0001961756099048    0.2028500737863904 Ba
   0.7461668567498139    0.2498324012741921    0.7979079847353576 Ba
   0.0030021350560096    0.4985087918946431   -0.0028008330857172 Ba
   0.0031227317814797    0.2484881842065284    0.1997341680471680 Ba
   0.0014158038043459    0.2482979842624173    0.8005533638750594 Ba
   0.7448377820245454    0.5010078046997256    0.2017585673132442 Ba
   0.0015336721435673    0.5003612276000681    0.2032049518756602 Ba
   0.2509021531173004    0.7501653059456718    0.2037944944208072 Ba
   0.7466918107074143    0.7492423239459163    0.4012116485231789 Ba
   0.7481698630646595    0.7495461819533346    0.5984404910498674 Ba
   0.5125727156968731    0.7461777027608455    0.4047565943709953 Ca
   0.7532144912383097    0.4935298191114393    0.4070950079790534 Ca
   0.7356135137243668   -0.0006184621178690    0.4004903457022051 Ca
   0.5090121994057976    0.4848913557645750    0.5925100453292790 Ca
   0.5120349052706249    0.2511058822551570    0.5896385815459153 Ca
   0.4821830769833137    0.2538100135044150   -0.0089041915510485 Ca
   0.5019776143504223   -0.0027274920483157    0.3984856070005110 Ca
   0.7450795282783276   -0.0018489705243460    0.5963834737762669 Ca
   0.2564912007036129    0.7444957645911349    0.7954336849086295 Ca
   0.2508596096331762    0.7486873914769266    0.6075300355908854 Ca
   0.7440445586064151    0.7371383974100360    0.2007127645131880 Ca
   0.2643453481265252    0.4941698256343748    0.4026408345933398 Ca
   0.2507203194907745    0.5028801313020995    0.0051186411780780 Ca
   0.0025811295007038    0.7435248555542995    0.5989779644331825 Ca
   0.2485785838430692   -0.0068615267040979    0.2010714363425903 Ca
   0.2446618039565331    0.2471008886013249   -0.0094743700313962 Ca
  -0.0018914103151346    0.7502374768272270   -0.0038467806548019 La
   0.0062908654183833    0.2494293544122572    0.4047831181800052 La
   0.0037588271063999   -0.0057840286588484    0.5988031493302611 La
   0.0065459387325173    0.2473191119164463    0.5972382737758595 La
   0.0053087444635029    0.4971918089686901    0.5945012938934279 La
   0.7471573791362316    0.4968907073447868    0.7976471292249012 La
   0.7429534356817500    0.4990799360254136   -0.0051998620165421 La
   0.0044038360568758   -0.0007969442901025    0.2004748446918272 La
   0.7419590314882996    0.2496055991159230    0.2049656799728887 La
   0.7406827564954575   -0.0042438113044465    0.7974054161997679 La
   0.2541416283539734   -0.0018503566445858    0.5982999728415627 La
   0.7443844418877679    0.0004966279919808   -0.0021024865890476 La
   0.2471205628588373    0.2525698855734040    0.7981496588829091 La
   0.4975606507391682    0.5028415320566616    0.2034929567082022 La
   0.2489728867807554    0.4979317383069212    0.2048648670457683 La
   0.2517529534907680    0.2551734766900286    0.4119688695832437 La
   0.4621960491289395   -0.0351988741845834    0.5840007060394404 Li
   0.4951990661964102    0.0001876587003944    0.7300710083061709 Li
   0.3082798667833610    0.2496431661566377    0.5878573109102897 Li
   0.0010993243394647   -0.0103973773547049    0.3597939685317678 Li
   0.3055764089308953    0.7229798855123094    0.4019429530124978 Li
   0.2428774752108100    0.4688076336946547    0.8328411998504621 Li
   0.0656842381157947    0.4836914849024017    0.3986037138358697 Li
   0.0028770925536998   -0.0772737696769026    0.7946809652768080 Li
   0.3063694384161972    0.0036401037372665    0.0040205174497036 Li
   0.4408789793100010    0.2471107253861319    0.8014313602933582 Li
   0.5309006503985674    0.7227209664826624    0.2287500490866045 Li
   0.4376332669348468    0.7629290801738144    0.0034327819375549 Li
   0.4897402758987124    0.5690096669338260    0.0037235115852407 Li
   0.2246631001862796    0.1922823832024905    0.2029475494806360 Li
   0.0482287336424876    0.7477879303299829    0.8208909345636090 Li
   0.0613868851285796    0.4726435284602715    0.8009494286410852 Li
   0.6172976536271195    0.6319600826159358    0.2007740670818631 O
   0.6312182998436834    0.1243439068887387    0.8020175423980654 O
   0.6361734463524562    0.1171810214762644    0.0033149495629565 O
   0.6205240627721765    0.6214268552108098    0.3986594761090554 O
   0.6232377525181986    0.6177210252035908    0.5997325269466397 O
   0.6274714550740546    0.3788866590036251    0.5983054457806211 O
   0.6290442543230338    0.6123109907698623    0.0010108479424442 O
   0.6255074878822170    0.3765480387419914    0.8008235885874749 O
   0.6230886505157520    0.3775185883122312    0.4023049197725766 O
   0.6245263155984740    0.3675429084158780    0.1995509768666442 O
   0.6361567375676374    0.1275314090412266    0.4021528596786027 O
   0.6330533228528605    0.3830482971990397    0.0008730583519661 O
   0.6235344841503493    0.1227525093355072    0.5967989431450580 O
   0.6211114916761469    0.1348376321357815    0.2018396512846729 O
   0.6257656167252844    0.6256537865618659    0.8015355447973189 O
   0.8735900943226904    0.6249140793694953    0.1997712699872501 O
   0.6347243350208932    0.8828382180622795    0.0013318073199115 O
   0.8744975449749633    0.6318352338378111    0.4010946426509047 O
   0.8783625263014098    0.6441425017218859    0.0016167622726132 O
   0.8696495596159155    0.3869395690259355    0.8003216968774010 O
   0.8749575538818457    0.3774868170232661    0.5999784182293872 O
   0.8745119186953886    0.3693054153193015    0.4009617483324215 O
   0.8700469262827520    0.6271408023715367    0.5998447752100444 O
   0.8721249050511997    0.3801260713477200    0.2008151547311596 O
   0.8768342472008779    0.3687009656818848    0.0012570278029066 O
   0.8788284668511767    0.8617181080037377    0.0006745150908150 O
   0.8679171100005049    0.1150729436324842    0.8007018286836475 O
   0.8840883834657831    0.1363916254558860    0.5995297888599841 O
   0.8685742291287006    0.1376648501665709    0.4026973245108340 O
   0.8883695591096111    0.1150903644776636    0.2019679088181516 O
   0.8734295636214088    0.1347262271243446    0.0021273829260233 O
   0.6278286084089753    0.8755484167133073    0.8016054268333275 O
   0.6353147243721735    0.8857817477542995    0.5999425376737711 O
   0.6114916522506911    0.8760752891508017    0.4006672164310167 O
   0.6321034232568843    0.8654771128584915    0.2012651196410040 O
   0.8669314670336934    0.6168165822250721    0.7995978397145541 O
   0.3749741335302105    0.8758428142918059    0.7992904623950922 O
   0.3799070471008033    0.7507464439660627    0.9059910764431683 O
   0.3847762714153530    0.8909590577301602    0.4015362914833808 O
   0.1211133555848218    0.6504493093854296    0.7980035184435329 O
   0.1287843178770963    0.6026152247073057    0.5991658953698190 O
   0.1156562874132955    0.6331736489222924    0.4021755088189107 O
   0.8808394982938468    0.8890654367992479    0.2014279194537258 O
   0.1276349658064049    0.6235365345719107    0.1993121613193398 O
   0.1375833697736710    0.6176279043733822   -0.0029846593070485 O
   0.1293258083679577    0.3646348169492937    0.8001139039152867 O
   0.1216650365370569    0.3923958031692261    0.5983707020509738 O
   0.1242989512144806    0.8790050934667154   -0.0004012678089940 O
   0.1213209975845140    0.3649569932156946    0.4021503484187602 O
   0.1381357598963069    0.3822380312661142   -0.0021748296193415 O
   0.1340461338373782    0.1398441216943276    0.7986917749766280 O
   0.1111465318232351    0.1186522814010091    0.5997548047100680 O
   0.1356699392843678    0.1421462790581901    0.3995482099906280 O
   0.1151487698038773    0.1195352406817684    0.2031071967348341 O
   0.1359347449755321    0.1235574616696318    0.0016184500812311 O
   0.8779622594303327    0.7527794687928410    0.8927093072974448 O
   0.8740345578910371    0.7520711175858869    0.7025961766517813 O
   0.1345654413853319    0.3848305206907481    0.2027039512904425 O
   0.3636242512806477    0.8702292435622789    0.5999207961420102 O
   0.1193044261356797    0.8816427917141139    0.2003179510243849 O
   0.1335167358847139    0.8960727228665057    0.6005291327103883 O
   0.3724619683182937    0.8777916831444451    0.2021898226791679 O
   0.3666384182042091    0.8760525862666089    0.0021425017845016 O
   0.3735393009491402    0.6273357973337359    0.7996868140144866 O
   0.3609882176724515    0.6366340550608200    0.5969157693184399 O
   0.3744117017385140    0.6126662124244293    0.4001855836889404 O
   0.3805571919104836    0.6193731270991328    0.1992422732756617 O
   0.3648365244598569    0.6196305785361067   -0.0008673118280931 O
   0.3746464918760138    0.3727868060304449    0.8003366712829820 O
   0.1154738471118487    0.8683802272801324    0.4035556971766102 O
   0.3708582408979325    0.3617688678278334    0.5983683059100077 O
   0.3801139794813596    0.3869697952070972    0.2006344272197866 O
   0.3625973164102400    0.3635179267266022   -0.0002918048288865 O
   0.3727202992300989    0.1269679048202302    0.8006554421029556 O
   0.3836765571185760    0.1468303265475962    0.5998938568979859 O
   0.3644048143760465    0.1285811547167463    0.4015575220026663 O
   0.3905339548758448    0.1262121647986561    0.2021494359660240 O
   0.3619378353570669    0.1327718151293166    0.0039262102743768 O
   0.1135340614108188    0.8591067905787463    0.7977696593270737 O
   0.3798247426059946    0.3826505741218507    0.4021852731440425 O
   0.8862641050288481    0.8740742138043384    0.4025178361940776 O
   0.2469279719049965    0.3611280526450545    0.8934747236704026 O
   0.8781471347964626    0.8951141051978576    0.7992644697330561 O
   0.4989734570117760    0.8809065176447646    0.2970175090163198 O
   0.5002727179071881    0.8653488040672586    0.0986460646078482 O
   0.4977104533957520    0.6146624657727887    0.9053427722351679 O
   0.4962866428370091    0.6221717104088460    0.6971827740952468 O
   0.4968722045341213    0.6251168812410693    0.4985093917283545 O
   0.5007213534268300    0.6242570348000092    0.2992835481278235 O
   0.4993536106205855    0.6397286415401378    0.0906888331948003 O
   0.4971700189567801    0.8815654142112405    0.5076467302284552 O
   0.4976724806755443    0.3793277309386420    0.9068271581954284 O
   0.5007862604591782    0.3681368065973209    0.5059351830082131 O
   0.4990655083037148    0.3823873721070558    0.2981683110741500 O
   0.5000466324406077    0.3499167420380541    0.0942195121788698 O
   0.4989376527918987    0.1282064098636152    0.9094374433704550 O
   0.4999203595843228    0.1201645712274730    0.7005608694412837 O
   0.5030053895546078    0.1333517541519202    0.4928565448033523 O
   0.4998119967032500    0.1232941089814773    0.3118044971967517 O
   0.4989332393947303    0.3812241685111544    0.6898320861811117 O
   0.4972159468006269    0.8823588694073587    0.6952473233625736 O
   0.4998148147863578    0.8774756223120828    0.9032944755472384 O
   0.7546343630377299    0.1137718698981025    0.1025932590528630 O
   0.7510651497474241    0.8913857354651638    0.4933310155460837 O
   0.7486955775259654    0.8805419481754089    0.3086196569062073 O
   0.7536647597786476    0.8929177250334468    0.0947119729818757 O
   0.7516868974845312    0.6280459528463942    0.9033813724915114 O
   0.7468988282039650    0.6262110130106512    0.7032499799665060 O
   0.7479940625153122    0.6142882159166273    0.4968022619263258 O
   0.7457373734449682    0.6332357066419785    0.2966529190345416 O
   0.7494573211325444    0.6132897500463739    0.0952089643999039 O
   0.7523666885136729    0.3779183494784915    0.9018914927934661 O
   0.7477684684584658    0.3791827453135737    0.7010093905308395 O
   0.7486699310025398    0.3849040612636886    0.4966394272291951 O
   0.7474181093990394    0.3713202663398554    0.3019238722814230 O
   0.7518747182395137    0.3894850923997262    0.0952623002814695 O
   0.7515645286197411    0.1264242914327211    0.9033231295632138 O
   0.7493287621832511    0.1240950446898761    0.6955031066959916 O
   0.7502767851641488    0.1144953199561227    0.5058737752224086 O
   0.7510713176383667    0.1344334106651593    0.2948827510989509 O
   0.5007639501139034    0.1449327748679713    0.0923455541424322 O
   0.8659962542923576    0.8772950275230506    0.6009904129964320 O
   0.2469689180192607    0.8612257149565768    0.8911988948515848 O
   0.2493665978252448    0.8839785997391394    0.5010536853961189 O
   0.0014929624490934    0.8578906107643930    0.0972757010876682 O
   0.0008931514554598    0.6267066798182648    0.9036077277874959 O
  -0.0010295060781461    0.6227810149707290    0.6873418508886432 O
  -0.0002313268705327    0.6340865489098303    0.5097706718739522 O
  -0.0033489119180739    0.6291213174056316    0.2980787790316966 O
   0.0032768855918035    0.6433174499225855    0.0952289412285569 O
   0.0036032408111197    0.3791751070269991    0.8994382018086767 O
  -0.0018830253127600    0.8828937365618644    0.2976597044470011 O
  -0.0005652327464441    0.3841467947973006    0.6948319954201223 O
   0.0003566586758676    0.3727979267358185    0.3028999605323806 O
   0.0061753018199922    0.3659314906246126    0.0974224869934011 O
   0.0015410957271898    0.1239576271591462    0.9058882574246642 O
  -0.0009589748995089    0.1265036568966942    0.6981935512278742 O
  -0.0000745965072938    0.1450681981806678    0.4977972966006709 O
   0.0018427972729964    0.1329451839301823    0.3115645095575462 O
   0.0044377286826869    0.1388539776287756    0.0942703269909526 O
   0.0008226057912884    0.3650138913045990    0.5053126604963213 O
   0.0017750333192456    0.8670875545424709    0.5168856443725115 O
  -0.0008693005690941    0.8835140231041745    0.6914891393861738 O
  -0.0008915933262225    0.8821986135505505    0.9013923535126005 O
   0.2468651031674113    0.8824725862674265    0.2981658393376939 O
   0.2482433925063604    0.8895130943206959    0.1073699095235982 O
   0.2474709279561298    0.6441124617533331    0.8925349125992246 O
   0.2464142461098692    0.6380986096929351    0.6999920633301074 O
   0.2495056926905522    0.6109368359806766    0.4922147505930699 O
   0.2489599449424082    0.6244627356610412    0.3002391139102147 O
   0.2540643714010140    0.6039126649493874    0.1053361140645065 O
   0.8720190674702607    0.7527643989193648    0.5014839822394263 O
   0.2495874055807409    0.3711081458730204    0.6996857083064768 O
   0.2510203415202807    0.3838240437234769    0.4914177513443116 O
   0.2518645898982379    0.3820322341013315    0.3098977421765385 O
   0.2537728856191164    0.4049242312469081    0.1022391501662171 O
   0.2505205798497211    0.1420252376822537    0.8957048316082098 O
   0.2497809240170487    0.1257610158795931    0.6935679344954048 O
   0.2484521590105458    0.1230488050539717    0.5088418411091654 O
   0.2476017452037042    0.1222040888249635    0.2898285852700764 O
   0.2491236070915746    0.1106588279801070    0.1190218105845917 O
   0.2489235492438678    0.8690908796094474    0.7027518380295622 O
   0.8741914630306344    0.7551216305276666    0.2960696082763712 O
   0.7521697937018680    0.8774890439047190    0.8971218490839556 O
   0.8649777045873812    0.5034902723667141    0.9105461653766810 O
   0.1113151240454722    0.7532832982863504    0.9107108278930239 O
   0.3836600961677565    0.0002718016290224    0.1009946808094771 O
   0.3750011995088391    0.0024165460312812    0.2986935273447654 O
   0.3753914212630107    0.0059421372732500    0.5125805655068499 O
   0.3705382963938823   -0.0007064816943649    0.6896094266523244 O
   0.3638431236578273    0.0012851463035797    0.9083907283865091 O
   0.3578629239633545    0.2523278305814440    0.1059007408206180 O
   0.3761955185557393    0.2529654254213706    0.3049787458443813 O
   0.3677734208188323    0.2539787045277661    0.4935471545333727 O
   0.3747422534574811    0.2502477426247698    0.7107092353708454 O
   0.4003984116463503    0.4982030586359977    0.0981496869607224 O
   0.3712417458730816    0.5026114526783704    0.2966547349028488 O
   0.3832116239131527    0.4956549148644063    0.5100760176232134 O
   0.3705198290353600    0.5011962224657686    0.6903219651317907 O
   0.3503462393220131    0.4993255236374717    0.9003533541998325 O
   0.1198360961826225    0.7513723518142911    0.6778384227226286 O
   0.1315845829651260    0.7490455152132837    0.5177684147256285 O
   0.1164854019742190    0.7531200019368556    0.2969453405183313 O
   0.1394996267220751    0.7507052506378985    0.0936588532325486 O
   0.8571841219611690    0.7529612372435536    0.1128538856609306 O
   0.1060025266789242    0.0003582212466659    0.1029539734876443 O
   0.1146535243796752    0.0037161570442363    0.3038282395541143 O
   0.1181579084224380    0.0044788728265023    0.4999070397904016 O
   0.1267117807471478    0.0021652219461778    0.7016454848772985 O
   0.1283557819943107    0.0013539230096733    0.8952493512514045 O
   0.1451088217051545    0.2525641785003302    0.0966363718399788 O
   0.3601651177634511    0.7481749733379146    0.0931290122727312 O
   0.1304598794760318    0.2490851912533193    0.2985281585388397 O
   0.1169890921174567    0.2538560626776485    0.6914718421285577 O
   0.1214982637267245    0.2512550331021434    0.9075265074176453 O
   0.1173163027207155    0.5028918999661061    0.1010260907197086 O
   0.1284124243944955    0.5022260978889598    0.3087132081511808 O
   0.1137328629914675    0.4973317290953257    0.4912146998285835 O
   0.1247761056292363    0.5026763621297994    0.7134185327192487 O
   0.1348433593195808    0.4995330417805126    0.8867594345164902 O
   0.1274731070903648    0.2555396897093096    0.5032441631556598 O
   0.3749930009269609    0.7515233316774658    0.3138972849356948 O
   0.3807658594222996    0.2506260450776188    0.8967416721110623 O
   0.3728038604744887    0.7526585579531114    0.7020775455462253 O
   0.6229055356818072    0.7533264194110562    0.6987974011181202 O
   0.6277380950695618    0.7498104054605481    0.9027964735037682 O
   0.8933036211698365    0.0008162272841389    0.0942287653245852 O
   0.8766163533618665    0.0043146995969179    0.3108023854277563 O
   0.3737470316330611    0.7505864333911645    0.4859523479679069 O
   0.8711923800846365    0.0031114994718491    0.6870484543495315 O
   0.8665900023665321    0.0013140371417427    0.9152734383521202 O
   0.6208527296091854    0.7507178782181063    0.4978527753749278 O
   0.8604295738079845    0.2514133930120579    0.1101080190050471 O
   0.8673006198271027    0.2531038182117478    0.5027418102232841 O
   0.8770911250380407    0.2547139512705012    0.7000684345117290 O
   0.8776825928820455    0.2518125928200854    0.8976995236437316 O
   0.8826772442706159    0.5032688786542128    0.0946648953337383 O
   0.8642602799483644    0.5013971960134511    0.3073638437892277 O
   0.8825529269519580    0.5014644716662910    0.5034913398173736 O
   0.8670280378131876    0.5031626897249548    0.6942554050855193 O
   0.8723944180540835    0.2530795475543162    0.2966460948843068 O
   0.6157298917384341    0.7482200037005098    0.3045071494054634 O
   0.8883796046023126    0.0030500311835440    0.5085843264741663 O
   0.6389127797820381    0.5004170317771700    0.8953978315248704 O
   0.7501555071738418    0.8813442468692009    0.7086183350580618 O
   0.6454654504784315    0.7496119354010378    0.0991220613237818 O
   0.6231201598324771    0.0014179525578333    0.3041144894321725 O
   0.6205828675726200    0.0047684060533783    0.4907123372936638 O
   0.6281930202969394    0.0014879135022265    0.7060835904696593 O
   0.6363296751873964    0.0011407082658689    0.9010315522911327 O
   0.6470647763802363    0.2505689195938448    0.1012150333489045 O
   0.6138789068809890    0.0005956964169189    0.1077778473560535 O
   0.6304393757949915    0.2498490226317724    0.5027000238282893 O
   0.6223745107290617    0.2500146743979171    0.6911537153868573 O
   0.6227261633790543    0.2514014646831651    0.9095383299792842 O
   0.6068778032165639    0.4987414836918526    0.1100676560806409 O
   0.6204069820952177    0.5025878512987110    0.2975188000494076 O
   0.6166378629237808    0.4968666034494881    0.4999302254667353 O
   0.6202023050591993    0.2527505135431663    0.3031002560630561 O
   0.6284369017485714    0.5002869870008759    0.7035144765104792 O
   0.7494560648614883    0.4972826385427838    0.5984849341290859 Sr
   0.7510209991343605    0.2493594210791473    0.5972008705647732 Sr
   0.7462057401644711    0.2502840415986278    0.4039278113737919 Sr
   0.7479336183080005    0.2495876296965963   -0.0029850319338124 Sr
   0.5035395189806245    0.4956479697379925    0.4039555538221442 Sr
   0.5021362583004092    0.2523443213398431    0.4043506686553375 Sr
   0.2448818877066176    0.7527873665401894   -0.0063866868454126 Sr
   0.4959788027402420   -0.0003019868044602    0.2022806664963090 Sr
   0.2535988998233684    0.4918729580515152    0.5987945000657524 Sr
   0.0002101471291825    0.7470419482093794    0.3997471815622785 Sr
  -0.0032251235305164    0.7488748501732497    0.2016588576569469 Sr
  -0.0000547318869026    0.2496192163536678   -0.0034773713024562 Sr
   0.7467760913350493    0.7500227320535083   -0.0032514749193136 Sr
   0.4952830813419724    0.2515580337884111    0.2015907130901637 Sr
   0.7480758504616832    0.7477438479462675    0.7984528803929678 Sr
   0.0030526693715127   -0.0011270236139672   -0.0043423310896481 Sr
   0.8712944417683612    0.1210310999637361    0.4993969343127852 Ti
   0.1249871956593111    0.1222941399288692    0.9014457685478627 Ti
   0.1300922266926471    0.3707182137509601    0.0956967608319979 Ti
   0.1307953769587906    0.3675170163296547    0.3010124283127973 Ti
   0.1319105620939269    0.3727178951634158    0.6983131695895449 Ti
   0.1251790234454732    0.6225829174166010    0.1006320755079194 Ti
   0.1260744091299841    0.6258307301614878    0.3082779256602812 Ti
   0.1258329367876656    0.1200765476907913    0.6998117317847811 Ti
   0.1319291898779631    0.6186333030059225    0.5007876382867651 Ti
   0.1265015939427060    0.6187636773235430    0.8950918203021424 Ti
   0.1259479219827506    0.8741361794266297    0.0971782627825958 Ti
   0.1251871279873005    0.8745901748639781    0.3025218419951761 Ti
   0.1244374024228216    0.8663946697245731    0.4990747202097516 Ti
   0.1260894081189083    0.8656376521557452    0.6981611900528599 Ti
   0.1271321574626562    0.8756863267104942    0.8991752562758133 Ti
   0.1267013366272967    0.6193692843690801    0.7040574313784070 Ti
   0.3653291966474060    0.1360242268992342    0.1016049383718580 Ti
   0.1277727342848524    0.1246066329285979    0.4996202159181058 Ti
   0.8736776255909759    0.1207223577247479    0.8974770001933960 Ti
   0.8770107499078368    0.8740709640075930    0.8944855806678808 Ti
   0.8748716629206424    0.8714412372886567    0.6974856011524588 Ti
   0.8760297763111373    0.8755640634815884    0.4972373153802081 Ti
   0.8744041733656942    0.8734961218715138    0.3008749107755431 Ti
   0.8707459959154279    0.8721230136971446    0.0992961732668183 Ti
   0.8768932278329803    0.6255008861675774    0.8937006665118308 Ti
   0.1262023994546155    0.1202053764171193    0.0982872735190748 Ti
   0.8814645760571630    0.6229263638265830    0.4997517967418604 Ti
   0.8690690681622064    0.6250762317057792    0.0991387955241251 Ti
   0.8787542790241469    0.3753725562445837    0.8980162940116624 Ti
   0.8795091818740103    0.3771161810554995    0.6994068080499863 Ti
   0.8745299688081102    0.3739333880293716    0.4989851970232762 Ti
   0.8789321860532586    0.3741538577584473    0.3030824792650216 Ti
   0.8701123083478459    0.3734345120069104    0.0991220623127887 Ti
   0.8736577987684666    0.6202481864797176    0.3032424725031406 Ti
   0.3676906760679710    0.1232583920029889    0.2978017113419460 Ti
   0.3851047568194435    0.1256209416279550    0.5000139823579013 Ti
   0.3794089666544278    0.1265006759614349    0.6944005920414249 Ti
   0.6253176670354452    0.3773132591214661    0.3053546892621999 Ti
   0.6234529710635551    0.3698116638303706    0.6956258195205361 Ti
   0.6151729423868607    0.3725837749690937    0.8998954759609187 Ti
   0.6152164061892849    0.6310317742657681    0.1002962943024138 Ti
   0.6265538031214343    0.6176420093802832    0.4969239447110577 Ti
   0.6250037732804490    0.6215034393261496    0.6984350694684410 Ti
   0.6148811876607232    0.3758319787512142    0.0965096160354988 Ti
   0.6181638073394213    0.6245379712677874    0.9025869807617881 Ti
   0.6214878666049940    0.8684274336604564    0.2991095874996523 Ti
   0.6189325688901156    0.8865730517002943    0.5002305132116401 Ti
   0.6181633300701700    0.8776618426431855    0.6978497661510832 Ti
   0.6189117715546820    0.8730272004938731    0.8995423644828092 Ti
   0.8746760026558678    0.1230010535892144    0.0977483487520726 Ti
   0.8778547225792132    0.1229546658578305    0.3046629846704728 Ti
   0.6166282819406397    0.8694809368663663    0.1005218974610939 Ti
   0.6171707737997640    0.1265400027862668    0.8942041885846863 Ti
   0.6201648047336865    0.1234202933330078    0.6904732852803261 Ti
   0.6194213653515412    0.1247886234688357    0.3063911951875395 Ti
   0.3730979789176973    0.1234643759767109    0.8959801655087635 Ti
   0.3722830084940280    0.3799448541762128    0.0970782525265747 Ti
   0.3758960232864618    0.3717521146665043    0.3028573014861337 Ti
   0.3768559199644381    0.3722477575818395    0.6936938932687696 Ti
   0.3682381346957514    0.3762179307205202    0.8995084590302888 Ti
   0.3742327697309641    0.6305126845342915    0.0994368338142350 Ti
   0.3807442892446904    0.6247347216510837    0.3038328862042547 Ti
   0.3774066218341522    0.6150616272026195    0.5033150603402885 Ti
   0.3715251265787182    0.6231567716986763    0.7009370074257336 Ti
   0.3670443377040064    0.6229470132824334    0.9002134896476057 Ti
   0.3708479160710200    0.8805088165515496    0.1000982709339303 Ti
   0.3783527991662280    0.8730657790529788    0.3004782630274922 Ti
   0.3706575833975938    0.8680661990130999    0.4969276353039911 Ti
   0.3745232512476303    0.8753566800414654    0.8946339179307157 Ti
   0.6181718664013834    0.1289556145346969    0.0990267601635431 Ti
   0.8758542655422961    0.1187622307274369    0.6980844576717630 Ti
   0.8819735368324666    0.6228569177699659    0.6995744932445891 Ti
