Sm32 Gd32 Hf22 Zr21 Ti21 O224
1.0
  10.5179700206958895    0.0007135662882208   -0.0000802831406734
   0.0014271195105343   21.0371199181683615    0.0018045205686895
  -0.0001605393621770    0.0018045721922103   21.0368864523198660
Gd Hf O Sm Ti Zr
32 22 224 32 21 21
direct
   0.3746565341848146    0.4358408523930914    0.0619066007341714 Gd
   0.1249552813476243    0.0603898110455913    0.8132866893794904 Gd
   0.1248086259497604    0.5625582992482872    0.3124920437706517 Gd
   0.1243442063943126    0.5627780504267701    0.8132008373841627 Gd
   0.8671401258782969    0.3079590347869320    0.9371143416439700 Gd
   0.8728630717272108    0.8124845372754743    0.4388782762378661 Gd
   0.8731565219174076    0.8103231363888802    0.9356128519946204 Gd
   0.6263961176987797    0.3106500177182304    0.8134107643500856 Gd
   0.3758558626891638    0.5600986724295088    0.9362505855407596 Gd
   0.8708540748022442    0.1863662153929273    0.0603999844775998 Gd
   0.8630576686144976    0.6798805315437975    0.0509777232322141 Gd
   0.8728101458201706    0.6891233801234827    0.5628152770494002 Gd
   0.8734130937498112    0.0619830633846079    0.6869864943079290 Gd
   0.8764277769167929    0.5631170972300740    0.1867765483905293 Gd
   0.6271289615537369    0.1882305713206102    0.6875913983883445 Gd
   0.6306115245672499    0.6902534958641373    0.1867028524828181 Gd
   0.6238862961410537    0.6895887253274464    0.6843244750111412 Gd
   0.8686390077193610    0.1916022737026994    0.5641164920795627 Gd
   0.3739022354773333    0.5627542630526230    0.4369691063279533 Gd
   0.6239984653228104    0.4350239366921910    0.9388446629344623 Gd
   0.3811409601507600    0.8154224309352995    0.1882891023489631 Gd
   0.1345087641165373    0.4401116562649428    0.1902259769708639 Gd
   0.3748760394942363    0.6885794224151723    0.3113748275230485 Gd
   0.3777511782506781    0.6871027376438151    0.8134981630459435 Gd
   0.3812524438895098    0.3136249680253053    0.6866657594188729 Gd
   0.3782405806052311    0.3173279131589992    0.1929969691439674 Gd
   0.1211715018084161    0.9387525606873190    0.6849472534838965 Gd
   0.3777572494788571    0.9375017893167652    0.5623567638047932 Gd
   0.3799577038692959    0.1858205014108525    0.3114103419729237 Gd
   0.1282468156170734    0.3108693074153854    0.5637421474288141 Gd
   0.3823742595613492    0.9379474022913517    0.0669079415113594 Gd
   0.1265597082750601    0.9381605729446290    0.1875939679732214 Gd
   0.3813168738901641    0.9401019602147122    0.3112759755175633 Hf
   0.1236883257353507    0.3123808035943946    0.8125652950248007 Hf
   0.1238712641440360    0.3102726988957391    0.3103938189912173 Hf
   0.8741766512388817    0.9378246763659702    0.0629866402717611 Hf
   0.3800360700183670    0.0628244323219478    0.1884249172010113 Hf
   0.3748812314840648    0.0616227416930105    0.6887521327011733 Hf
   0.6217920283594990    0.6896905183501678    0.4397612853532086 Hf
   0.3792197817800661    0.5617840644170884    0.6878795979013095 Hf
   0.6264402085078530    0.4355986109045300    0.1877424007229949 Hf
   0.6331196996631557    0.1868136996895508    0.4370961568246681 Hf
   0.6261332408043880    0.9377078638365729    0.6869251806563009 Hf
   0.1218578976941095    0.0612112915594211    0.5607290414931164 Hf
   0.3788736303659728    0.3098266571141012    0.9386730339159454 Hf
   0.8725369605658275    0.4379025232903370    0.0603845046946917 Hf
   0.1246217893883918    0.6874000040339089    0.1878567321276106 Hf
   0.8684775327144415    0.3154439725807368    0.6857612562067720 Hf
   0.8720364410252593    0.0622558589616309    0.9366042201211789 Hf
   0.1230768151781449    0.1871265294331905    0.1890821230357138 Hf
   0.8722831961964030    0.8145580388042103    0.6861791936438261 Hf
   0.3774724957039114    0.1879864908101606    0.5622323763404655 Hf
   0.8689095233828358    0.1863752890174262    0.8139895790259674 Hf
   0.6240110350384934    0.5624016520861568    0.3119963148268153 Hf
   0.5075833332616155    0.5034598347541184    0.8562693812169304 O
   0.5032061773591102    0.0015385011011479    0.8555476056142254 O
   0.7441470867100450    0.7313661075153083    0.8775307372530590 O
   0.7488624699592532    0.7307176669382643    0.3763241353892774 O
   0.7581260788396463    0.2284981498829454    0.3735979781956431 O
  -0.0068389501766656    0.5011870956351402    0.8978943160623845 O
  -0.0007157422135778    0.4983586078145743    0.3911356232919854 O
   0.4944278772222961    0.4990032062428753    0.3489021866357967 O
   0.7503755532296223    0.6238515146770945    0.9736422766509893 O
   0.7454382096601608    0.2302655904731073    0.8765004209035303 O
   0.5049433113370929    0.0039027126897876    0.3515798352900342 O
   0.0009954810157018   -0.0019380907837510    0.8982175989312432 O
  -0.0057625991266530    0.0042693999245608    0.3945933698168109 O
   0.2210486730621795    0.5003384648655295    0.0000218826667187 O
   0.7427243735390339    0.2705171527186063    0.6237528532699169 O
   0.2156956095410796    0.5023123937917072    0.4966630188250783 O
   0.2068474101714199   -0.0033690268774385   -0.0011860548418037 O
  -0.0030926035614346    0.1064271055954289    0.0002548218021005 O
   0.0025306228786771    0.0988296107240487    0.4927743075488865 O
   0.2198974606563048   -0.0003615175357966    0.5011316678084368 O
   0.7911618161041953    0.4984922915821001    0.5053815591493414 O
  -0.0095663598224231    0.6005291969342104   -0.0019909614803913 O
   0.7574742584275612    0.7714492156493141    0.1261005421894814 O
   0.7937474758245838    0.5003892633723366   -0.0053008921523231 O
   0.7991110404883868   -0.0018267812118220    0.4989077785156135 O
   0.7859334628970696    0.0007000221646375    0.0010204318936140 O
   0.0027268292921257    0.6089895941223690    0.4997925877353074 O
   0.7535932517327093    0.2690619718007522    0.1284821679881326 O
   0.7491711677485705    0.6270504702080276    0.4827180798510749 O
   0.7466189837916736    0.6206566287970811    0.7685570560961201 O
   0.7560410554403101    0.1228935188284233    0.4806714330560821 O
  -0.0023493537106727    0.2490605727607465    0.8545307890294342 O
   0.0042598168871902    0.2420536331340308    0.3466641274078623 O
   0.4988794896857919    0.7479784414590950    0.9029690792115452 O
   0.5003002222202496    0.7497656048553606    0.3908390816156714 O
   0.5015832808022830    0.2452862666546972    0.8968452906606971 O
   0.5059574616066597    0.2494221382286956    0.3929088724238906 O
   0.5061835681149679    0.8561148420759112    0.5025928220753765 O
   0.4913032319208235    0.8536830985324212    0.0002985654537519 O
  -0.0004562355229656    0.7513114073909769    0.3587424964282042 O
   0.5088157480586056    0.3533815695761320    0.5010206398855244 O
   0.7053629765527397    0.7556634061451073    0.5005494529528484 O
   0.7026068796587779    0.7443504046083520    0.0001773098392046 O
   0.7083846525555695    0.2515789368115572    0.5006508863937426 O
   0.7122391988284854    0.2462317829836881   -0.0007541777630454 O
   0.2956242688383263    0.7477761770015681    0.5025627909821525 O
   0.2927188399862893    0.7568048380236901   -0.0006035943670472 O
   0.2850320387093629    0.2482654793300554    0.4991693189147997 O
   0.2950739088012332    0.2477758424051997    0.0021513135229916 O
   0.5008824965070432    0.3570447124670172    0.0000816317971368 O
   0.7446572573634523    0.1253515536251263    0.9779138045853755 O
  -0.0010009543786277    0.7494752516759148    0.8579358519684488 O
   0.7493531151395009    0.0197650203737897    0.8724751394276568 O
   0.9608962778372677    0.6230239195346255    0.8780718567820792 O
   0.9644871561347278    0.6243936310684742    0.3746025407259811 O
   0.9607575749324651    0.1236059852181903    0.8742384566796154 O
   0.9408599639058518    0.1256100160893767    0.3751862574186600 O
   0.5581967425405593    0.6285043398842598    0.8714508941231849 O
   0.5440139000036388    0.6227045057725004    0.3786023899422858 O
   0.5602516044651970    0.1231056217733293    0.8772461212187810 O
   0.5482135234548983    0.1240948969218540    0.3726906108487745 O
   0.7477065396346017    0.0261234251011418    0.3753042206009604 O
   0.7430592204528530    0.7718560420036453    0.6238878354952662 O
   0.7391402953022066    0.1247063426033806    0.7727944239196662 O
   0.7514271132173549    0.1235351176535313    0.2740727415431456 O
  -0.0097352494790000    0.8958043678545626    0.5012017826000572 O
   0.0126740141613266    0.9012023084368316    0.0027349273861986 O
  -0.0086218471862035    0.3989427959892632    0.5016308513201678 O
   0.0046912602877173    0.3929155656270276    0.0038988916809601 O
   0.7550146866624006    0.5280013661785566    0.8702077757970197 O
   0.7443499337358446    0.5189963405856399    0.3771425603072963 O
   0.7481173887183786    0.6257356517799396    0.2676924826727523 O
  -0.0025179439239331    0.1449407642258603    0.2530800311709479 O
   0.7454033197260252    0.4801377608468420    0.1223085625795473 O
  -0.0008385412237967    0.6421076256761721    0.2488253094699606 O
   0.2522470421813489    0.6244115188895424    0.3744284528819466 O
   0.2499277601125421    0.1237488841525386    0.8740035383174384 O
   0.2522236289106734    0.1257854068196425    0.3743015610876174 O
  -0.0007521767996529    0.5001317085675848    0.7510865776450657 O
   0.0027364205598238    0.5004385688564925    0.2489206479789199 O
  -0.0011107585946399    0.0006522338029193    0.7489124152638802 O
   0.2540994591199287    0.6243774172786534    0.8742272461302708 O
   0.0011546737595454   -0.0007133323416874    0.2494606658355206 O
   0.2503784262827896    0.8748653644994639    0.1239733056730663 O
   0.2522179625007183    0.3732365671105277    0.6259696697587830 O
   0.2489354260397256    0.3738060811139492    0.1269662318556523 O
   0.5012984374044729    0.7505638097532131    0.5963120367612003 O
   0.5011829284524225    0.7518306453318199    0.1105766567032741 O
   0.5005078318945206    0.2549708420932233    0.6001014196230218 O
   0.2500887891212690    0.8771359008090426    0.6246965869598450 O
  -0.0026817161230770    0.2491265026147894    0.0004953822637104 O
  -0.0003709813161892    0.2498682358902622    0.5009369474140093 O
  -0.0047090224364107    0.7489552756067629    0.0014263152544537 O
   0.5012592578409290    0.2496444765625072    0.7492021993641343 O
   0.5010703255140248    0.2505609439195336    0.2497905929913372 O
   0.7485315795784173    0.6263488400842602    0.6252273363725839 O
   0.7503855980859644    0.6251492260349637    0.1238390652719557 O
   0.7505841362511343    0.1264395762247658    0.6264130764694131 O
   0.7488880337711979    0.1249225334233869    0.1243937608791263 O
   0.4988138435952288    0.5015139851569915    0.4987533071738994 O
   0.4988084090451552    0.4978440130413495   -0.0008901803392362 O
   0.5023133626613726   -0.0002087655494603    0.5003906662568879 O
   0.4973535650716415   -0.0007355242622820    0.0013286121335652 O
   0.7514052136205980    0.8738802723863106    0.8753520821950175 O
   0.7520426338138770    0.8751646928558652    0.3759333928638998 O
   0.7478027186479819    0.3740994158322041    0.8751548993941723 O
   0.7492603376205291    0.3750722998917683    0.3759556769962039 O
  -0.0032963645318685    0.7509336727133186    0.5006214505114233 O
   0.4945355025266043    0.2454168757797654    0.1031224657913832 O
  -0.0010552598304518    0.7514332521123069    0.6437905853666741 O
   0.0035553505808733    0.7567077340117740    0.1564993213068699 O
  -0.0053746495665547    0.2514963343052143    0.6427188276109275 O
   0.7467814271681477    0.3781152832689723    0.7297914798055049 O
   0.7501648697276451    0.3703036168498843    0.2285784306584645 O
   0.9551639760739126    0.8775385536173671    0.6238295717019803 O
   0.9498073678741087    0.8716637445302265    0.1241054483046439 O
   0.9555464972604485    0.3767309059403751    0.6230081098087316 O
   0.9370708748868413    0.3719820291253098    0.1261033534662506 O
   0.5455590730399602    0.8715291472483062    0.6252706549633027 O
   0.5439167519448866    0.8795183726212722    0.1258517941939400 O
   0.5527738818974203    0.3758316721106660    0.6235141388189318 O
   0.5366527029122523    0.3716928228505120    0.1276120980328690 O
   0.7471618275290737    0.8773341238531915    0.5294184736521284 O
   0.7553201045590043    0.8735490177733012    0.0150478110461543 O
   0.7510396168313939    0.3746599771661758    0.5266091562280929 O
   0.7494767305084649    0.3742501789679917    0.0163293644328903 O
   0.0009834348425694    0.6426476299421877    0.7522632871947812 O
   0.7509792263586639    0.8781636581116342    0.2228758654852329 O
  -0.0092779260929345    0.1432405296301926    0.7481413897424257 O
   0.7502601086027385    0.8764224064489670    0.7322764446357283 O
   0.7550619146540897    0.4728639995140340    0.6293707913623416 O
   0.0012847652080135    0.2537954453641792    0.1501962354098059 O
  -0.0017443110963497    0.8546465644624311    0.7503025147927552 O
  -0.0060244191022853    0.8559875010105396    0.2476679106116488 O
  -0.0002144624885172    0.3535236803543277    0.7479996458840789 O
  -0.0026381482759983    0.3531426338692076    0.2476837559626698 O
   0.2154584386109392    0.7497349551221513    0.7510684028630723 O
   0.2178023392101522    0.7489848368821370    0.2499098636763493 O
   0.2119396486745999    0.2493239657398787    0.7511204891039801 O
   0.2178062801726744    0.2525845057725076    0.2456922926018333 O
   0.7878211643954859    0.7488959617799033    0.7487040438521502 O
   0.7909692373899876    0.7553508692800679    0.2491654441804756 O
   0.7882589870929644    0.2503327977827443    0.7493539249679220 O
   0.7964119441770409    0.2470099017316257    0.2508647960016480 O
   0.7526323106178032    0.9797415302921835    0.6233702178479956 O
   0.7481473934557298    0.9779566042076060    0.1278806257425205 O
   0.2453108968894231    0.9810241154504999    0.8771206736990310 O
   0.2518323836959164    0.9806238614806976    0.3747364059907331 O
  -0.0046081691544263    0.4976917328000232    0.6019935163943442 O
   0.2536736630119557    0.4768606645000872    0.3722337689269418 O
   0.4657941886540186    0.6242229952578493    0.1220804564747096 O
   0.4564404145699772    0.6283682395396258    0.6261930742893280 O
   0.2519875373792537    0.1257661482011025    0.2316757479758176 O
   0.2492863096231666    0.1248077538083943    0.7308384686628384 O
   0.2467912330477006    0.6230986906148993    0.2309164114577812 O
   0.2541757115285949    0.6242999672023901    0.7316955658182017 O
   0.2459441326282527    0.2201031831028383    0.1198369239113271 O
   0.2507593404440500    0.2317173521116703    0.6244413431622774 O
   0.2455029866875794    0.7288925541522051    0.1224313933329217 O
   0.2571784504351198    0.7284518387441172    0.6240396436808946 O
   0.2870439234218023    0.0011392630049207    0.2499674703566042 O
   0.2846140134356721    0.0004692400297645    0.7511099447953076 O
   0.2943221317678946    0.4966689139984863    0.2512770669715307 O
   0.2857330940286290    0.4997835631821225    0.7485956220068249 O
   0.6979580320282357   -0.0001803129093072    0.2514938024534936 O
   0.4620283056765157    0.1283729165710591    0.6293220584420521 O
   0.7017309894453719    0.0034117209638071    0.7498147580156920 O
   0.4507742341566368    0.1233823043818726    0.1198616110253636 O
   0.0352837218970278    0.6284043467183622    0.1225640800863051 O
   0.2516803043046939    0.4823564919698453    0.8743538520472280 O
   0.2548661766832357    0.0172903493063270    0.1250765385571318 O
   0.2447492040998369    0.0213332684702101    0.6268313662571606 O
   0.2469941131600749    0.5173062936818222    0.1265106158217151 O
   0.2540534529197706    0.5167956640493842    0.6246182738424396 O
   0.4966647227930264    0.3975992621263221    0.2519782131207286 O
   0.5020159929745692    0.3952886502172296    0.7439595392813206 O
   0.5066598966031375    0.8967325652572937    0.2485737673348204 O
   0.5006411937067329    0.8941519521172039    0.7494347829643435 O
   0.2561955435640815    0.1241827325376854    0.0183441210139774 O
   0.2501279893694180    0.1249038667456083    0.5213337320764865 O
   0.2477325642881570    0.6277657980990279    0.0166926243884513 O
   0.2567109137766052    0.6275494156445711    0.5235821107010777 O
   0.0331752869616726    0.1251447723650038    0.1269325392076255 O
   0.0326234038708266    0.1248612575061898    0.6212933573170536 O
   0.0312783456540928    0.6236777337508884    0.6264332416750207 O
   0.7142125045179244    0.4986369591309863    0.2499870488334635 O
   0.4999359274432789    0.7479098192447680    0.7494656296803329 O
   0.5073888870813047    0.1050753372651153    0.2497182801160170 O
   0.2510681401399951    0.3745887207070283    0.7703962348777473 O
   0.2539981186021385    0.8761359293088173    0.2682150061278597 O
   0.2497797778736881    0.8752025428115311    0.7663560986216187 O
   0.0362361930949819    0.3697858714352166    0.3757785971676828 O
   0.0351431153815852    0.8780088135515263    0.3734185672918758 O
   0.0382366601581406    0.8770154457173398    0.8783703920295680 O
   0.4537689048726859    0.3789648739331022    0.3750556219924806 O
   0.4656860006968829    0.3725658638217926    0.8736827970547285 O
   0.4639238775316571    0.8777377145349011    0.3756047307960787 O
   0.4627943000515689    0.8710963538988237    0.8760836093243377 O
   0.2505346174778562    0.3742272890982488    0.4855150607139641 O
   0.2519857295888800    0.3727619005621742    0.9808087275459981 O
   0.2451189539058255    0.8736808579973031    0.4821862233253184 O
   0.2506517106061524    0.8760682478523998    0.9628090789984249 O
   0.6912617714005082    0.4989032376781593    0.7507105553241954 O
   0.2515047386221618    0.3767790600642996    0.2737095034175502 O
   0.4980458647010997    0.6480023658924238    0.5036619530491879 O
   0.0344188341500037    0.3757273906188984    0.8738507260408181 O
   0.5033868304993473    0.1446280627249240    0.4994396553307432 O
   0.4997497169549964    0.6087888051748668    0.2511476083454932 O
   0.5038096061219751    0.6443725959837311   -0.0054988854107214 O
   0.5024463315875924    0.6000274624052910    0.7532042664344143 O
   0.5062206119800774   -0.0002432853144408    0.1481079621973100 O
   0.4978311378206753   -0.0012340183307332    0.6430744616480573 O
   0.5005791368522521    0.4976564600044199    0.1428347837426405 O
  -0.0002633923947124   -0.0015317124026055    0.1083849305822038 O
  -0.0045988671417572   -0.0022441097222286    0.6014248417313754 O
   0.5084542277234759    0.4994388544509388    0.6456553943934741 O
   0.5008799403658654    0.7503770877947337    0.2492405448763416 O
   0.4968078438941925    0.0986857035350978    0.7568443431440935 O
   0.2499773808079462    0.2679575774883133    0.3734620213470131 O
   0.2493245748172807    0.2700984738544020    0.8764268961628128 O
   0.2490482799030695    0.7692394170944331    0.3762556395376211 O
   0.2585251357723242    0.7686048607410746    0.8764960919696129 O
   0.5012331753197150    0.1523393432038633   -0.0013638217284120 O
  -0.0018648785547467    0.4982188173986910    0.1069368896269173 O
   0.6258093229806735    0.8134547664152987    0.3115880615817602 Sm
   0.6226250909816159    0.4380385107936284    0.4367673416932818 Sm
   0.6313971635381193    0.9389553050226337    0.4391176738849341 Sm
   0.6241124890504494    0.9378782894277391    0.9360902497836789 Sm
   0.6356609278583013    0.3090486923430655    0.3119751695721382 Sm
   0.6242717544994186    0.8127044210054671    0.8124251284759454 Sm
   0.6216921386496829    0.5646509275239651    0.5623827844871983 Sm
   0.8731396168697860    0.5615873596878176    0.6871388031393700 Sm
   0.6321699094502145    0.1875222189490317    0.1907283442723499 Sm
   0.6206228545550296    0.0648151472432771    0.0617561914013364 Sm
   0.6345818225957316    0.0611925601210371    0.5605217902332579 Sm
   0.6230465924556707    0.5613659402957139    0.0615216786893763 Sm
   0.8677567056558809    0.3170171832545093    0.4460455857756303 Sm
   0.8721234917091898    0.0624477601841088    0.1890228045987281 Sm
   0.8769764706259993    0.9375842320296189    0.8142618448547611 Sm
   0.3807278382563234    0.4365937378266355    0.5642459268101523 Sm
   0.8717267769398753    0.4400664042358700    0.8153353292498586 Sm
   0.3743913886813017    0.8127955078000191    0.6868962092686681 Sm
   0.1246162714863712    0.4365931084084648    0.6879281809514418 Sm
   0.1270328162349764    0.3102821084870062    0.0626714568484651 Sm
   0.1160284277868254    0.8102197123221617    0.0680455814878831 Sm
   0.1197878053013085    0.8152344739527805    0.5629894597552967 Sm
   0.8725140997892356    0.9370372233432582    0.3099691531133235 Sm
   0.3781412374080181    0.0627487653049594    0.4370976280505908 Sm
   0.3740575569198354    0.1868036453108613    0.8118912482070125 Sm
   0.1227729500249632    0.1874287615724417    0.4364132117650670 Sm
   0.1269182183479925    0.1867409180484583    0.9383597870007804 Sm
   0.1273438643874339    0.6884736500689450    0.4384580558818540 Sm
   0.1278919860413066    0.6887054578260376    0.9366568169889029 Sm
   0.1248986134161971    0.0628937750420028    0.3119934221614254 Sm
   0.8769945778906298    0.4349248964434276    0.3102899736301002 Sm
   0.3703852450441967    0.0599863791106074    0.9376419170869844 Sm
   0.8705221231796618    0.9392636528621370    0.5603793416928534 Ti
   0.8728307493078236    0.4368695497222922    0.5656709600964074 Ti
   0.6311676103930821    0.4402729787284352    0.6898633740344181 Ti
   0.8775444604707916    0.0666839344679066    0.4335949196067375 Ti
   0.8667832439119610    0.5636727159539134    0.9341708732936744 Ti
   0.6308113771484177    0.9395626319294621    0.1890260418947620 Ti
   0.6259466998978501    0.0626550972180993    0.8125124998282561 Ti
   0.6237155223572246    0.5656265423374225    0.8135596398849408 Ti
   0.3733711256946642    0.1878726167156135    0.0637322452154628 Ti
   0.3745602511027042    0.4376460075413529    0.3135693370062575 Ti
   0.3768740606457152    0.6898068929695073    0.5624187587299231 Ti
   0.6174251451535195    0.6897560269481390    0.9353264589830872 Ti
   0.6313345050319108    0.0643646515875934    0.3150166510266878 Ti
   0.6198489495037751    0.1837943573990793    0.9380157478764557 Ti
   0.8794467623994339    0.3129752430761772    0.1857871644241823 Ti
   0.8733704905466589    0.8135091905532984    0.1856225797806888 Ti
   0.8741618757072425    0.1889765381227453    0.3109850912462792 Ti
   0.6232806050849977    0.3168668111361174    0.5658088769793317 Ti
   0.6244842403295238    0.8140544717767250    0.5635203733537734 Ti
   0.3709503130520674    0.8153307345587565    0.9386545435657971 Ti
   0.1230075395477305    0.9379057256678597    0.9388779780239047 Ti
   0.1212531233071125    0.1873985919987472    0.6869407880044747 Zr
   0.3797024378870643    0.6902883930951105    0.0594527408248560 Zr
   0.1271195855008497    0.6871318215193378    0.6877636724680904 Zr
   0.6255266588244256    0.3089244268950502    0.0629942150575470 Zr
   0.1269366417016550    0.0624099894478864    0.0628635518966269 Zr
   0.1237252816969290    0.4376708257680836    0.9378093300571360 Zr
   0.1255020342688717    0.4356754651953965    0.4372274919553009 Zr
   0.8756695707341313    0.5614882492393770    0.4391650451060410 Zr
   0.3739098134962556    0.9373503701709602    0.8142384287485730 Zr
   0.3820464843702602    0.4387861516482701    0.8102677618442290 Zr
   0.1277304111033183    0.8138457062364521    0.8150255548831250 Zr
   0.1239257862615441    0.8136045165349329    0.3109579521093097 Zr
   0.3775630977131719    0.8127727320362667    0.4391621373402967 Zr
   0.3773141912875507    0.3116387625868755    0.4371216614294845 Zr
   0.8686085851132526    0.6845407943237869    0.8145023055500658 Zr
   0.8750132191499893    0.6887763619308033    0.3120428748114641 Zr
   0.1273386181100262    0.5627237571307915    0.5625149147567008 Zr
   0.1220533588722874    0.5627152981070137    0.0613120641317179 Zr
   0.3779200325990004    0.5617346452691500    0.1877744258529794 Zr
   0.1196975150914363    0.9401515924492854    0.4385336255761504 Zr
   0.6272228636181988    0.8137258338326843    0.0629323349575669 Zr
