Sr14 La15 Pr14 Nd15 Sm14 Fe55 Co17 O216
1.0
  16.5639865322004596    0.0042895974467708   -0.0010820176877997
   0.0042977310390047   16.6602258777905234    0.0000490591167181
  -0.0010422834904354    0.0000488596562890   15.9002495499315781
Co Fe La Nd O Pr Sm Sr
17 55 15 15 216 14 14 14
direct
   0.8348963473373909    0.5005265166211413    0.0003721345889380 Co
   0.6642332653941275    0.0006351419510812    0.2489990400351279 Co
   0.3356984472640627    0.6640662964982099    0.7501214153459288 Co
   0.1663998843632781    0.8347367055830275    0.2492698645090743 Co
   0.1647402768055391    0.8335342828730150    0.7491222335146261 Co
  -0.0000256430886646    0.6693024855212439    0.2481739664381576 Co
   0.8341519131818305    0.5008418908158261    0.2507637290517617 Co
   0.8345282139465728    0.5001933504875622    0.7499094434243039 Co
   0.6650459484537077    0.6652427419265166    0.7505972131372580 Co
   0.1672508726641461    0.1668575653391550    0.5001699480078727 Co
   0.5001735943428866    0.1654637350942522    0.0001757834548391 Co
   0.8329300392157343    0.1687657520323261    0.5016598717909563 Co
   0.6638898714897283   -0.0004871139811320    0.5004754730985010 Co
   0.8324270155123586    0.1683809091012267    0.0001407871634025 Co
   0.6674587895777868    0.3337011688916449    0.4985954052627465 Co
   0.3342103891801171    0.6657771104589265    0.0016568564789442 Co
   0.3345969666959967    0.3333930075368833    0.0027362188413896 Co
   0.6653482158835223    0.6686921956926739    0.2495517946406380 Fe
   0.6684923501958305    0.3325380026810837    0.7486242470762547 Fe
   0.6668070995348746    0.3330027694858725    0.2495308657586162 Fe
   0.6644676002037764    0.0001960471463882    0.7507605856912650 Fe
   0.4988924516749380    0.8305838772712314    0.4994209168717943 Fe
   0.5007144581219289    0.8322442466949428    0.0012084808488869 Fe
   0.3341153507838665    0.6667754945555573    0.2487113496262252 Fe
   0.3342652970493606    0.3324229118937616    0.7485390476448532 Fe
   0.3334169842507662    0.3332626385493603    0.2496926098985552 Fe
   0.3331477645298569   -0.0011656611132219    0.7486877917089795 Fe
   0.3352370269318614   -0.0003537160942701    0.2490395388806597 Fe
   0.1659473606669841    0.8339453037294051    0.5008490917018096 Fe
  -0.0019893175118139    0.3341999018764534    0.7510409806846563 Fe
   0.0000630851786107    0.3342549763150158    0.2502330001549582 Fe
   0.5026110079165709    0.4975428873894677    0.4994060543588966 Fe
   0.5019438259251975    0.4972732514773312    0.0020550550377204 Fe
  -0.0019945222282232    0.0000664925617583    0.7485359213943643 Fe
   0.8336167648331895    0.8342310831084060    0.5003282521121754 Fe
   0.8314811023416365    0.8337298977082305    0.0000186472380801 Fe
   0.8339079400886675    0.5004715186621668    0.4992892247822834 Fe
   0.1662131883443811    0.1667056200240907    0.0004367183904713 Fe
   0.5011627166968320    0.1660502593843274    0.5003934314642920 Fe
   0.1647347922962299    0.5013798021327192    0.0014070575444428 Fe
   0.1654013389745145    0.4991143290163196    0.5007227441064813 Fe
   0.1654097331663574    0.8343350829056756    0.0002878401645304 Fe
   0.0019669401541699    0.6676050867867137    0.7499323984623537 Fe
  -0.0007286165962393   -0.0008315663088264    0.2488260493741541 Fe
   0.4998346785869435    0.1658655062371968    0.2493295839106058 Fe
   0.8306022086860029    0.8353271012651173    0.2477371841164294 Fe
   0.8333099674471851    0.8335207189519874    0.7509760243145308 Fe
  -0.0022412898537770   -0.0006978141019045   -0.0006399260956526 Fe
  -0.0000247711486312   -0.0004545227260196    0.5014228252509642 Fe
  -0.0005968925168668    0.3344344321725486    0.0002751757705460 Fe
  -0.0016607531632343    0.3345274855588163    0.4999075859675801 Fe
   0.0004372384555192    0.6688176812701649    0.0008576991355238 Fe
   0.0008093130638594    0.6682911776170756    0.5012577366734264 Fe
   0.3342799149863330    0.0000243567107188    0.0014754951181453 Fe
   0.3339883491760351   -0.0012962838714273    0.5019131747997093 Fe
   0.3328398288246315    0.3319235820994652    0.4998528467706398 Fe
   0.3340890279432850    0.6648368315905939    0.5001478430543576 Fe
   0.6643154012920971    0.0008663832730855   -0.0018941468971797 Fe
   0.6683125607233432    0.3328749475557273    0.0010592814392650 Fe
   0.6673750955484938    0.6670905718810913    0.0007894269138067 Fe
   0.6649516720076347    0.6665685642972622    0.4978700336526339 Fe
   0.1667943690203159    0.1665850022279616    0.7495256909079553 Fe
   0.8317783010775098    0.1664766837823215    0.7487762776833311 Fe
   0.1662648324009896    0.1679164827644090    0.2497772062932271 Fe
   0.5027414402716150    0.4965029294817616    0.7500972045696899 Fe
   0.1643217850944178    0.5002218623153825    0.2480333391838712 Fe
   0.8331412224229392    0.1691807035302855    0.2500502442678258 Fe
   0.4991050423356189    0.8311316872254801    0.7496665508180521 Fe
   0.5002593515071170    0.8322834961692708    0.2490651394521868 Fe
   0.1666488718219271    0.4997719073647874    0.7519355561607104 Fe
   0.5020978495416700    0.1662477607255731    0.7489103518043588 Fe
   0.5014634315420455    0.4978277949802906    0.2486134552551069 Fe
   0.1653257803460200    0.9887576317723736    0.3742313966881783 La
   0.1621929437792113    0.6540228556419643    0.3736135678476828 La
   0.1665398548875668    0.3202135912982008    0.8741335867543950 La
   0.8309424205260906    0.6546639708732765    0.3733614299622164 La
   0.8279932414608899    0.9910736009123539    0.3754796843349529 La
   0.3347311377422438    0.4857802109974358    0.3748480923337599 La
   0.9939900907152491    0.1812892596378111    0.1251614541735768 La
   0.6611742695190974    0.8440113695740603    0.6247833333982723 La
   0.8323155245717090    0.6775927571861655    0.6263724380378293 La
   0.6707341846543339    0.4865412314484337    0.8739449133156456 La
   0.3319623387132724    0.5066481216586474    0.6267552551629511 La
   0.6669605174919671    0.1548347921522605    0.3749045956880929 La
   0.3394339605303350    0.1559719728227272    0.8750009593976424 La
   0.3367926808002079    0.4866495959336856    0.8770197013738016 La
   0.1645400883674293    0.9879392318476146    0.8723595944805771 La
   0.1700635358381866    0.0158484489645909    0.1257276697113602 Nd
   0.4973488559726038    0.3181598759797269    0.3756572758025621 Nd
   0.3316093761925183    0.5156670401982347    0.1234113036939415 Nd
   0.3307378487110688    0.8482670652534167    0.1244815882535326 Nd
   0.6628708116289463    0.5133812992577920    0.1262331788065702 Nd
   0.1721511135245087    0.6846415025139141    0.1252825671405559 Nd
   0.1715201973561241    0.3488718449014340    0.1243952298674299 Nd
   0.4997036381693589    0.3167882817885273    0.8758707396878236 Nd
   0.4966084279668442    0.6486722471377543    0.8759383506229338 Nd
   0.8303090476175361    0.6491580498784114    0.8747035320132366 Nd
   0.8324058103290608    0.0170713497608829    0.1241596688882437 Nd
   0.0034359240429926    0.8200060073692073    0.3737307348702800 Nd
   0.0051640069115682    0.8192974885163633    0.8734481903369843 Nd
   0.6704847388571072    0.4846119932648704    0.3750245024961031 Nd
   0.0051257526831063    0.4851274757525821    0.3736162111409552 Nd
   0.7670851264291479    0.4034863917397611    0.2755514805630893 O
   0.0959885048420425    0.4025864385795228    0.9778384982100642 O
   0.7671701930084729    0.7343315056365740    0.2668717355882284 O
   0.7622623600985229    0.7349472175870497    0.7743490492448882 O
   0.0687255198293487    0.5711643425184836    0.4765411569122038 O
   0.0647282216606000    0.2352277297560746    0.4825136034182375 O
   0.7632041388700032    0.0692691063063961    0.7689185828052980 O
   0.0899275876302591    0.4079040396746042    0.4790467149290198 O
   0.0948269454977443    0.0695798125404141    0.9782731686240046 O
   0.0700890193919777    0.2371416126007352    0.9759093521389370 O
   0.0980637766034295    0.0712779192306653    0.4809752314243525 O
   0.7679122527470837    0.4032692077738452    0.7730641680645516 O
   0.7385374760397379    0.9126109444231540    0.4822781147957195 O
   0.0717158906712635    0.9046883657583418    0.4744208931706525 O
   0.0678580651640883    0.9031715827705357    0.9771255179408078 O
   0.4053479447948566    0.2373603043826134    0.4766801577628496 O
   0.4054727935894499    0.2336286324121056    0.9834469691955968 O
   0.4056283088482283    0.5703980311842805    0.4741761070654713 O
   0.7616657582152934    0.0726949330729914    0.2700560413489553 O
   0.4050545854352209    0.5682435535508414    0.9830420831506131 O
   0.4008491278200176    0.9014519357395332    0.4776417599299432 O
   0.4020117769500888    0.9014780777456309    0.9763001259277727 O
   0.7363225367990366    0.2434982500818254    0.4733093458596569 O
   0.7458879073028393    0.2392231292343604    0.9797780492944189 O
   0.7342945100304938    0.9023288559917628    0.9734659835234702 O
   0.7397116281728359    0.5718627622762664    0.4751638228143347 O
   0.7418754003688629    0.5701250234841884    0.9761801583196809 O
   0.0658914315483320    0.5685584904897408    0.9832969197901963 O
   0.4002525029249932    0.8999749498749249    0.7745179465353629 O
   0.4312851964845497    0.0677764674731635    0.2756399291503074 O
   0.4307097167402070    0.7349548777612769    0.2759339467757428 O
   0.9016764185221996    0.9306387313201945    0.0268967626707875 O
   0.9089099399985092    0.9262284041136037    0.5225794559379110 O
   0.2647766120743301    0.0962355357465057    0.2230940919523491 O
   0.2568278922237943    0.0891089967639633    0.7261565577424678 O
   0.2622740145757301    0.4303142116350944    0.2240706535102139 O
   0.2644684966445939    0.4307227350453734    0.7376847926703549 O
   0.2625301890646511    0.7649646358533685    0.2260176467282614 O
   0.2634948831219048    0.7619366454215373    0.7310105127011074 O
   0.5941987025099563    0.0911587975346730    0.2277992833704381 O
   0.5916784314747967    0.0918410273552474    0.7297147406929377 O
   0.6021540472792024    0.4326151230321434    0.2320039397478615 O
   0.5989226942081993    0.4291462587245664    0.7370147492953784 O
   0.5999184858009339    0.7674678582940185    0.2256281834726171 O
   0.5991921440423646    0.7665608634716842    0.7369539541832726 O
   0.4272304894390574    0.7344452218121795    0.7757444530094395 O
   0.9284102092596658    0.0952199375403275    0.2300376686972327 O
   0.9293631202290984    0.4347434546422306    0.2250093691248615 O
   0.9279739849485101    0.4329177346183880    0.7282561890511783 O
   0.9326979746530752    0.7652705050892976    0.2251801529988847 O
   0.9314008804132901    0.7636210308838487    0.7259708182774359 O
   0.0966121797486045    0.0679320557321771    0.2682760853252263 O
   0.0938828726154769    0.0704834269356703    0.7728066413502670 O
   0.0925526674207314    0.4060789560632739    0.2712427286197319 O
   0.0921690389070142    0.4051709822464146    0.7749650944590302 O
   0.0980760077983012    0.7398818860574088    0.2709212264990483 O
   0.0961549129750161    0.7422495453388592    0.7715979791664337 O
   0.0951801219920087    0.7393792675689924    0.4745163247727527 O
   0.4278859205129068    0.0696241614375260    0.7702146857647190 O
   0.4302818317326515    0.4024276045715079    0.2722152711451778 O
   0.4285260989278382    0.4038197622678042    0.7754085680862201 O
   0.9326292119266096    0.1001160793561934    0.7317219254295815 O
   0.0939531529353861    0.7397103638781131    0.9807837991994123 O
   0.7641154900285787    0.0680080878799051    0.9838167755525813 O
   0.4291919242926058    0.0684845744653180    0.9797506603941469 O
   0.2619099645985981    0.4301529886120072    0.0255112711486701 O
   0.2603778839684635    0.0910324178369619    0.5215826223788016 O
   0.2634196490041851    0.0963675114977451    0.0283434872574276 O
   0.9066439073815806    0.9270775004389806    0.7262688823949560 O
   0.9040860972961861    0.9289577002513704    0.2211684525907670 O
   0.9056269250654841    0.5965098876498379    0.7291470537010026 O
   0.9047305027516951    0.5983530669800189    0.2245454380389706 O
   0.9017278438669639    0.2665618513503872    0.7291101955947590 O
   0.9030074551744819    0.2662679053722782    0.2281521864780733 O
   0.5642961911145338    0.9306842722368827    0.7279744400163789 O
   0.9057837268370943    0.5972414354825152    0.5238084530309592 O
   0.5680398880426882    0.9310447436320914    0.2233880885802564 O
   0.5755714115806204    0.5974521051513172    0.7409590085675177 O
   0.2636988944737876    0.4310051559970515    0.5144542562525137 O
   0.5737928512885255    0.5943251278773874    0.2312082756781770 O
   0.5708409733466618    0.2609065222483858    0.2369544425770182 O
   0.2333235804658217    0.9268173375176345    0.7237639461980681 O
   0.2352643825999948    0.9296894339042829    0.2257748719363081 O
   0.2419634147780583    0.5962098452412851    0.7322728170116761 O
   0.2355022465450396    0.5966251539616890    0.2253137759435328 O
   0.2375921714375824    0.2617153310924961    0.7388414427201691 O
   0.2372642152087239    0.2616269070359230    0.2235909629696379 O
   0.7349159420126410    0.9018732468719093    0.7754175824196190 O
   0.7363261350944278    0.9104630763728676    0.2667332058607844 O
   0.7456960977906603    0.5697528434308536    0.7731002902463239 O
   0.7407271432949110    0.5676849922859858    0.2718593650329899 O
   0.7427268083637305    0.2416425165322587    0.7726478122805335 O
   0.7406855686519012    0.2404403190763875    0.2760040743014590 O
   0.5727277451362502    0.2621525192791015    0.7384234113483563 O
   0.2622521513625232    0.7639360070190944    0.0226599267923542 O
   0.2626115868119193    0.7629364720449959    0.5229143597102909 O
   0.5881905636101602    0.0942552941161831    0.0217559693368969 O
   0.4305340241170800    0.4042204212827866    0.4764149329058817 O
   0.4309002970135439    0.4018590098084601    0.9778563150515907 O
   0.4292936611375394    0.7350304142989132    0.4712455778746222 O
   0.4324039414674904    0.7364600230157022    0.9762808065032929 O
   0.7630972060581608    0.0778206439646576    0.4767651308547952 O
   0.4011904057422887    0.9018947130551784    0.2709925355513592 O
   0.7650485850303723    0.4051855198047911    0.4720191635213968 O
   0.7689462266636355    0.4024918941550379    0.9768596322134413 O
   0.7653750902741098    0.7369628541150745    0.4811675768933706 O
   0.7654934650163422    0.7350341506859031    0.9741507493618574 O
   0.0671637135180203    0.2345515565228544    0.2709489410075995 O
   0.0689843144980168    0.2373817750466491    0.7731435672542543 O
   0.0666391869963638    0.5725220572292928    0.2703629939929065 O
   0.0697433928802292    0.5704202639538679    0.7713976507666193 O
   0.0688601652657809    0.9014740295623791    0.2704968108414972 O
   0.0694515520582765    0.9036319765260963    0.7727605711323239 O
   0.4010646958133333    0.2340730519395755    0.2691320629302553 O
   0.4062830732970784    0.2386899339645302    0.7700603176049847 O
   0.4044444177742241    0.5702320891847327    0.2703136578801341 O
   0.4071012224391167    0.5704056742558000    0.7724047093668515 O
   0.9283438825156529    0.4299848172061274    0.5233976511682367 O
   0.9314920140687025    0.4339517030675006    0.0269575194856276 O
   0.9339449008261936    0.0988150339556588    0.5163306261441140 O
   0.9272928870272434    0.0972863018329913    0.0200947905572951 O
   0.5967021743981005    0.7651229874452026    0.5176480949155902 O
   0.6036864905755642    0.7691296578058062    0.0190015425706707 O
   0.6005916330390507    0.4260992417278833    0.5122784872820668 O
   0.6019484362046542    0.4320510658215056    0.0189686064532416 O
   0.5958594145376283    0.0900523621691634    0.5168318154722860 O
   0.4301444508425623    0.0684566405424419    0.4765920191428958 O
   0.9041711238367289    0.5973811282355853    0.0247189414480477 O
   1.0323348732678335    0.9903689476898605    0.6248538967134878 O
   0.9046394872781628    0.2652989948474547    0.0216656207178238 O
   0.3665366767930026    0.9898458555596394    0.1253883480634547 O
   0.3672823665931081    0.9897487234567662    0.6254506330637045 O
   0.6944480886064776    0.3317892853939120    0.1256002340954235 O
   0.6980907470689059    0.3316031722305660    0.6242884747850357 O
   0.6942853810581426    0.6553975420301474    0.1242514618073403 O
   0.6896063962704574    0.6646090395303087    0.6255578559063164 O
   0.6919540319016139    0.9933005992008731    0.1223886648775302 O
   0.6827414449114224    0.9912801960308210    0.6255412152686244 O
   0.3538300390282061    0.6574333246363830    0.6241462804915181 O
   1.0291981889341562    0.3255610617027286    0.1249451893472026 O
   1.0302975741402152    0.6602955323208984    0.1264276323559083 O
   1.0318249533849080    0.6584142426058339    0.6255516429359429 O
   1.0286576109089449    0.9919799530694429    0.1238116260252052 O
   0.9292978396174940    0.7649411570332761    0.0286345444933670 O
   0.1923481478480789    0.1634079843978252    0.3725429110614514 O
   0.1938973315329384    0.1685436226088410    0.8769197482866427 O
   0.1902593107873500    0.5075086376656833    0.3721958515483224 O
   0.1921137045481255    0.5014777415169683    0.8779604099753160 O
   1.0190114263033747    0.3278456957307259    0.6259731638825142 O
   0.1955335773932464    0.8411032166524293    0.3748398331209464 O
   0.8979520852983758    0.2665402632161721    0.5209544548510944 O
   0.3550193023478828    0.3252512235108185    0.1222850357833351 O
   0.1370041998198694    0.1591147868659004    0.1244629852859850 O
   0.1371518153085082    0.1595222459173009    0.6258515154781596 O
   0.1332343063111243    0.4911332264691379    0.1251081625570367 O
   0.1426483814814075    0.4973698396291761    0.6268316023334674 O
   0.1359007290987725    0.8275181700495881    0.1250245752085096 O
   0.1339153224791898    0.8226652892069362    0.6241650496222204 O
   0.4692728601103264    0.1581883865674596    0.1265875377625193 O
   0.4805838066807092    0.1576738046891875    0.6234090927338871 O
   0.3525483169261669    0.3351381006215270    0.6239030317115587 O
   0.4740035303695223    0.4947568756629974    0.1253250714003722 O
   0.4707562195776850    0.8270157112976787    0.1248411993244082 O
   0.4724001659492925    0.8239391922949865    0.6253038646949920 O
   0.8140361198704797    0.1608968290132137    0.1256265131887714 O
   0.8146805012321391    0.1656919420768888    0.6227098807229369 O
   0.8040353903632778    0.4943868080812810    0.1244604664095796 O
   0.8119335987689095    0.4929932057827294    0.6240476206979251 O
   0.7975551923572223    0.8264050468446230    0.1235811959092931 O
   0.8050366115822274    0.8255473758123317    0.6263554693794092 O
   0.4771956785059188    0.4970749122715928    0.6251911766295334 O
   0.1940049698517184    0.8417186000596196    0.8760043934323989 O
   0.3539957431255333    0.6611371452509297    0.1221136502333374 O
   0.5158946566442424    0.1716582387501072    0.8752821143353182 O
   0.6375265431674956    0.0052151058588230    0.8759124311081281 O
   0.6395429031995827    0.3412075164229976    0.3727957600342161 O
   0.6436614159112727    0.3397411230598854    0.8770133958307370 O
   0.6378295783512034    0.6712815528498544    0.3721432855263972 O
   0.6398746413826432    0.6728679865815864    0.8769938314497486 O
   0.2368403830788821    0.2623860014664113    0.0234670790866864 O
   0.2357266041674543    0.2557223315031004    0.5139070417491688 O
   0.2362536220964569    0.5946055514911016    0.0269095567100433 O
   0.6364015167373895    0.0066042546689638    0.3740180794446636 O
   0.2356647859210965    0.5962593242576986    0.5191036331169693 O
   0.2360838358386974    0.9292901073337640    0.5285732285100959 O
   0.5719805416459569    0.2612821230487221    0.0113894367641771 O
   0.5722205332244475    0.2608657226689774    0.5112054826122145 O
   0.5745539329051212    0.5943114992060954    0.0172399249212044 O
   0.5704284458636689    0.5951814870245024    0.5103648289298748 O
   0.5673677914289833    0.9315223334100069    0.0263442593393487 O
   0.5641344904785792    0.9307752605738796    0.5200251811930232 O
   0.5232213802028620    0.1719162857796942    0.3746158636269196 O
   0.2368033746922576    0.9300840443651044    0.0265398021063735 O
   0.3148482837442589    0.6674412412425734    0.8835024285957621 O
   0.9327462747126385    0.7647766618916145    0.5240789849082672 O
   0.3105893348778382    0.3351047110373871    0.8821504823933810 O
   0.5270841115575248    0.5053905992123964    0.3728127152732777 O
   0.5244652070120435    0.5050778942343493    0.8771275438746002 O
   0.5209714463336492    0.8456436286606331    0.3732445132694260 O
   0.5301800832128610    0.8417745042512471    0.8761180227553814 O
   0.8618649533123116    0.1753653907914916    0.3750496157975959 O
   0.8606052935949665    0.1741650720612960    0.8750928864589024 O
   0.3040754248028731    0.6717437181493600    0.3732714168698466 O
   0.8635772918162786    0.5084159986413733    0.8774438912889647 O
   0.8608234048356642    0.8422539407596306    0.3732670792318817 O
   0.8662186967521966    0.5101041217956944    0.3752088241101504 O
  -0.0262896174586042    0.0063321474334720    0.3740299265663407 O
  -0.0305601699131456    0.0064874424711000    0.8754914389252433 O
  -0.0325971393726298    0.3424765563117864    0.3745911763041199 O
  -0.0333490086171110    0.3427938636868794    0.8760255384782826 O
  -0.0258345662299765    0.6774384869216549    0.3732847705039725 O
  -0.0289207607652689    0.6764173868930784    0.8759392483049646 O
   0.3070613426902053    0.0060158678596624    0.3745257644752403 O
   0.3067472121871201    0.0079641652504712    0.8755960844388939 O
   0.8643257576235773    0.8424666162460869    0.8756255170563101 O
   0.3114232945407119    0.3382474031504345    0.3732861354713713 O
   0.9982197647029100    0.5140850189375227    0.6253727754058872 Pr
   0.9931270302216951    0.1828358202027986    0.6233000839101575 Pr
   0.1748761873588590    0.6796882125369998    0.6286735490963287 Pr
   0.8351524362032674    0.6823605886813645    0.1253414573179970 Pr
   0.8367235355312749    0.3514296900100001    0.1241041637800328 Pr
   0.3306678736597836    0.8457895684012942    0.6268719026238839 Pr
   0.8255806579802285    0.9877447427364870    0.8749113362484771 Pr
   0.4952744428998184    0.9854349024584280    0.8742622507030031 Pr
   0.3385039106059422    0.8165944631463768    0.3737092879925656 Pr
   0.0018494417973952    0.1520096145027361    0.8740781705655379 Pr
   0.3362975613808915    0.8133563846749299    0.8763222857767189 Pr
   0.0038891311243941    0.4869245194780968    0.8763544462345836 Pr
   0.0038625294503380    0.1519261086156068    0.3771565042889328 Pr
   0.3366631285333607    0.1522832716459452    0.3766239268848984 Pr
   0.1706855102010544    0.0178527760363298    0.6231290758687410 Sm
   0.6690392180372885    0.8140021844026061    0.8743322356790032 Sm
   0.5051881992632770    0.0178857515500457    0.1245624980035097 Sm
   0.5077325003096640    0.0160179045135150    0.6245655866954567 Sm
   0.8374147087724340    0.3508046837262230    0.6276342918559746 Sm
   0.3297976143466988    0.1839191075274615    0.1243749369408456 Sm
   0.8278174236092037    0.3157950855084909    0.8749072026156713 Sm
   0.8282156533961389    0.3173830232479566    0.3764344505175874 Sm
   0.9940786283396716    0.5205098491706721    0.1263291920638905 Sm
   0.4963463115962085    0.9842093758900489    0.3771843413991138 Sm
   0.9960018068501392    0.8496287639411458    0.1252004349981319 Sm
   0.9943668080648274    0.8490849175812922    0.6265617159408365 Sm
   0.4982085048594469    0.6474675139087386    0.3751638496105405 Sm
   0.6583978470928243    0.8527084278333932    0.1253278091411446 Sm
   0.6646759896968855    0.5100117368872085    0.6243984952997396 Sr
   0.1688306393132738    0.3415556135595901    0.6244580067358124 Sr
   0.1671114438255942    0.6551341742894553    0.8765199720365904 Sr
   0.5033540387403959    0.3411829221190747    0.1236441251807518 Sr
   0.5047424849534926    0.3417721851200458    0.6238609365509314 Sr
   0.5037482533187297    0.6724782379042396    0.6256597418902650 Sr
   0.8306590470932992    0.0129233155742575    0.6221142576034161 Sr
   0.6658327727386797    0.1577130127196210    0.8754328159180035 Sr
   0.1635717569784903    0.3189701592392643    0.3775559661096928 Sr
   0.3322047998026320    0.1785031574934830    0.6250814350990628 Sr
   0.6656214070958860    0.1785568137799249    0.1231949975194857 Sr
   0.6655274955386808    0.1792764437119903    0.6232977138967931 Sr
   0.5027080905012784    0.6774224924419273    0.1242356322295071 Sr
   0.6674614918962625    0.8240541101642077    0.3745480746276424 Sr
