La72 Mn14 Cr15 Fe14 Co15 Ni14 O216
1.0
  16.6230944512061285   -0.0008118515692751   -0.0013226158588184
  -0.0008128980348105   16.6490602842432409   -0.0003880980014878
  -0.0012720020661146   -0.0003722147663298   15.9606383731927881
Co Cr Fe La Mn Ni O
15 15 14 72 14 14 216
direct
  -0.0018675116235962    0.6677404628167402    0.7492100849123393 Co
   0.8327227504601714    0.4998974812040667    0.2491751032402282 Co
   0.8341324074628275    0.8334063356898722    0.2502216362949799 Co
   0.8351564987416792    0.8344810633726741    0.0006909645571492 Co
   0.1663119422105215    0.4990634082273102    0.2519466436558123 Co
  -0.0003354235833998    0.6671546884065575    0.0004793437119723 Co
  -0.0001371703371251   -0.0017039006679885    0.2516431020654526 Co
  -0.0006750093956867    0.6678607324376440    0.4986355147991955 Co
   0.5011067475667980    0.4988724384581066   -0.0006876124559340 Co
   0.4998763140684545    0.1667912319492295   -0.0005119886992100 Co
   0.1650322164308897    0.8331232357148737    0.0006146857274885 Co
   0.1673241384357651    0.1652844570383067    0.2510147332481996 Co
   0.6672155708424048    0.6663097652739826    0.4988716910784876 Co
   0.5010128468872315    0.5003482506821009    0.4994505175129914 Co
   0.0004648953700626   -0.0001747656199469    0.7481828944133685 Co
   0.3334599857224797    0.0004730471729572    0.2499035057407125 Cr
   0.0005778806119269    0.3334669307999781    0.7494045360955404 Cr
   0.8328095245596123    0.1671262473444266    0.5002327265676912 Cr
   0.5004991146059861    0.8337396258015092   -0.0000749599822748 Cr
   0.1663846092823251    0.8321484635459605    0.5007231886503664 Cr
   0.1663032122335673    0.5009484134425908    0.4993277774512910 Cr
   0.3330939760064235   -0.0002785965223853    0.7483823445419939 Cr
   0.6665693106273154    0.0003387472043672    0.2496628232034218 Cr
   0.8334215454501025    0.8319512131888503    0.7502255591267700 Cr
   0.6676076301282750    0.3329020658776286   -0.0006555280013775 Cr
   0.6667237077384371   -0.0011184171014577    0.4991781966195460 Cr
   0.4998055294328554    0.1679901400943824    0.2503431565823169 Cr
   0.3341046823479166   -0.0009744921903963    0.5004695776126210 Cr
  -0.0003061952604062    0.3332675882965471    0.4997051240980174 Cr
  -0.0005628078731497   -0.0004921299460532    0.0000508204239855 Cr
   0.6664029053691241    0.6657321213039297    0.2497751523403599 Fe
   0.1655362872883328    0.5004288569275350   -0.0000193170492439 Fe
   0.6668587459529256    0.3334720449737331    0.7496884363335879 Fe
   0.3323083056915055    0.6670796629084571   -0.0003812361218943 Fe
   0.3331929979442907    0.0005756408276390    0.0004039700447831 Fe
   0.3330875983458741    0.6677037710701446    0.5006184528822745 Fe
   0.5010337547806224    0.5000528708443149    0.7511262994650384 Fe
   0.4987912365150522    0.1668202920211609    0.7489604541307110 Fe
   0.0010177698276680    0.3322001804345238    0.2514083835807249 Fe
   0.0000933231135982    0.6669713025545114    0.2504953905842629 Fe
   0.1667159128916918    0.1657068097030409    0.7485015208477609 Fe
   0.6680948414763757    0.6668310341388378    0.7518148426691631 Fe
   0.3329122572936164    0.3338309913449332    0.7499330657645450 Fe
  -0.0000467992446239    0.3324710134188057   -0.0009343955342123 Fe
   0.3355191501849726    0.1545395725024659    0.3775906247599350 La
   0.3349413632570420    0.1560390148384463    0.8770288244742167 La
   0.3350960371905231    0.4890991512465554    0.3777935479328112 La
   0.3340122317995788    0.4860375596526225    0.8772849508294462 La
   0.3334151603873292    0.8251046132467676    0.3735937412976636 La
   0.3339472321680750    0.8242135292919307    0.8766064365484517 La
   0.6725006091580962    0.4875632191421947    0.8755354479923479 La
   0.6711558001605209    0.1530969211293296    0.8704079325195561 La
   0.6708957569339968    0.4897397365398513    0.3771173780767014 La
   0.6728396553047378    0.8213137111285522    0.3760267835108489 La
   0.6719799955914159    0.8241676483538035    0.8757493906130822 La
   0.0009407416263211    0.8218707934966313    0.8757656944673097 La
   0.6683204342027147    0.1542591600519851    0.3771811807220314 La
   0.0013515999904932    0.8236215230162074    0.3758627518277592 La
   0.1689152217036719    0.0114763012414818    0.1265964268031622 La
   0.0008533361277841    0.4892069524663892    0.3762257961942353 La
   0.9960844069008934    0.5128530354814990    0.1242354543403225 La
   0.9959905882248992    0.1779637863082677    0.6246033870924399 La
   1.0006540478259678    0.1753735195100772    0.1262761258265125 La
   0.6667649848403320    0.8443921413495091    0.6253607351206022 La
   0.5024126129643225    0.3457404184622114    0.6231956426766881 La
   0.6689052763748029    0.5124679492403231    0.6242747962260176 La
   0.6662418902201169    0.5094162772325614    0.1237966493979972 La
   0.6648250154050528    0.1763981894617858    0.6254196619565350 La
   0.6634540450694618    0.1781939207663210    0.1240124424253772 La
   0.3302300928791683    0.8441857514757876    0.6247355207845533 La
   0.3276023885212240    0.8455487230481878    0.1255754696326539 La
   0.3300274497199394    0.5099458127516249    0.6250297232306691 La
   0.3302328008678174    0.5099201683337978    0.1238687813245754 La
   0.3290569030321281    0.1808596755969963    0.6189341555676555 La
   0.3282388697611177    0.1796713827565221    0.1224845091352073 La
   0.1675283514597673    0.6799068025954472    0.1257224752844970 La
   0.1647794323156918    0.6742707367056712    0.6250561353870420 La
   0.8372211923500466    0.6759180680081868    0.6214271472403875 La
   0.8379531833999616    0.6802189618942924    0.1239290191261429 La
   0.8392352644480514    0.3500986761606495    0.6260802102763633 La
   0.8364843934292936    0.3465895676683036    0.1242653239854111 La
   0.8367847062314064    0.0123741518701293    0.6243123631462000 La
   0.5022127943702809    0.0135223915595815    0.1247847557820502 La
   0.8372736729895118    0.0091690281635442    0.1261190406963311 La
   0.5042872596690355    0.0145200515788515    0.6237197058812487 La
   0.5050253725645336    0.6759228126201339    0.6246462559357756 La
   0.5019311652155246    0.6768075543789734    0.1234619751973245 La
   0.9963492976153085    0.5138092205014522    0.6246117423067995 La
   0.1694744051552260    0.3472381612668045    0.6232702932036041 La
   0.6674231396781556    0.8441217958328930    0.1252703589330051 La
   0.1696659984093937    0.3447823001684136    0.1243881053550634 La
   0.1670570745533712    0.0130601073733693    0.6212984466387360 La
   0.9998173515795553    0.8452691211024491    0.1262903016033974 La
   0.4975576109728316    0.6564412656727571    0.3761729270480133 La
   0.4975171093976418    0.6541639318717651    0.8767415049262954 La
   0.4966741658693805    0.9904040031383716    0.3759924432136869 La
   0.4988647916502017    0.9910808469505960    0.8738349042655797 La
   0.4960490825900656    0.3205010100678486    0.8781902320437975 La
   0.8310897448978354    0.3234933602747477    0.3765573768626010 La
   0.8314745218965629    0.6547579929267725    0.3755405753187900 La
   0.8334953930923130    0.6530917458780361    0.8762279063559670 La
   0.8324493649856824    0.9856808489828817    0.3775644976720133 La
   0.8307985134442214    0.9894376362425475    0.8705291442449251 La
   0.0040577090215536    0.1502375409330923    0.3781924037876889 La
   0.0023481478422944    0.1532818077904802    0.8734840349988496 La
   0.8308695989648498    0.3216090125788443    0.8717133901341011 La
   0.4950662325767666    0.3204891498130119    0.3795987117411942 La
   0.0011384563298889    0.4894476688952238    0.8710004604408563 La
   0.1617138741236605    0.9872066248247018    0.3767207145020646 La
   0.9951842102193106    0.8459024797129722    0.6220149010032883 La
   0.1642934571900922    0.3186776559256957    0.3778960109849107 La
   0.1635632425245543    0.3195536379093618    0.8752928802632221 La
   0.1627802287079486    0.6560708523810337    0.3737499662463083 La
   0.1624688140952502    0.9896027468143831    0.8773413803787966 La
   0.5017547838039973    0.3444297708152081    0.1218554396693415 La
   0.1608223714905010    0.6543919166867651    0.8739013629894979 La
   0.6672365770726371    0.6666756873602444    0.0004139194209363 Mn
   0.6669812309519627    0.3334293121435918    0.5007262869682069 Mn
   0.6656244189651042    0.3327894185295570    0.2505902129596447 Mn
   0.8332160967433933    0.1665890719548965    0.0002488765829219 Mn
   0.5006586003151916    0.8332531374554872    0.4998414158859198 Mn
   0.6670148858183047    0.0000264214973293    0.0005442543541831 Mn
   0.3332816746888365    0.6669313529607367    0.2493930263735337 Mn
   0.4998574177979770    0.8338743463215330    0.7508617303427285 Mn
   0.8332402097211881    0.1663939596817872    0.2505769843621013 Mn
   0.1657356424620916    0.8335143145836538    0.7493455378208704 Mn
   0.5009399423970180    0.8336486619118774    0.2481683782152340 Mn
   0.3334856179309535    0.3345582799636790    0.2506456399297234 Mn
   0.5001212808457930    0.5002109785145360    0.2495089320370221 Mn
   0.3326651101715323    0.6669174661606768    0.7509010829489292 Mn
   0.3332858173981442    0.3344306250549699    0.4995851645777566 Ni
   0.3323995128295238    0.3335389077530859    0.0008942926956962 Ni
  -0.0007795828655648   -0.0009078411963890    0.5007320273743433 Ni
   0.8341523780087338    0.5014671872130682    0.7504181877373639 Ni
   0.8335372777106405    0.1665384729636047    0.7487565018106013 Ni
   0.1666913564188486    0.8333091245224986    0.2510697909791379 Ni
   0.1665480075721950    0.5002254524362536    0.7499410203322482 Ni
   0.6674366086039667   -0.0017356935907585    0.7488270072066009 Ni
   0.8325525818478525    0.8323098144369021    0.5003883235162041 Ni
   0.8334234168340453    0.5003988952344351    0.4993369652457502 Ni
   0.8346050360481335    0.5000090130030912    0.0003683064327654 Ni
   0.5002228393104148    0.1666000485525296    0.4995268154751357 Ni
   0.1655948981723796    0.1661132586358499    0.4996740264465460 Ni
   0.1660502648334944    0.1667180967662538    0.0004693564463249 Ni
   0.0957197929697954    0.0685370207039378    0.7720282348646004 O
   0.0961101141571879    0.4046589352114237    0.4770815653634378 O
   0.0925453986007335    0.0699434138478918    0.9794403864652474 O
   0.0967742250844719    0.0685053323406409    0.4780806335126470 O
   0.7363258529756425    0.9080930979213425    0.9822845851073755 O
   0.4064152023578006    0.9047543311484575    0.9785297724464433 O
   0.7333673930192869    0.5751802102203011    0.9818147833199639 O
   0.7358278943285584    0.5723282500422060    0.4787693629402797 O
   0.7391610091736075    0.2346832660151342    0.9791473700235835 O
   0.7345798385097008    0.2397493753109589    0.4785158157362411 O
   0.7346050030605039    0.9032954118758317    0.4768567750239827 O
   0.0961892458965400    0.4036411196482454    0.9798485624018698 O
   0.4333506826424955    0.4091705117196828    0.4803887141517194 O
   0.0947236369217123    0.7362849380785756    0.9799969341596095 O
   0.4286424425559981    0.0678747800308815    0.4784555614468604 O
   0.4299071913925811    0.0708377898162278    0.9802307408376306 O
   0.4064079207325504    0.9012149385360683    0.4791376509203510 O
   0.4308266102775353    0.4048171449305450    0.9819508690271797 O
   0.4304578429921841    0.7396288327529472    0.4822150942343230 O
   0.4298201560953911    0.7377947494567844    0.9804198954390472 O
   0.7618736025871811    0.0707888911744797    0.4759380333038001 O
   0.7607668699077982    0.0711991654616920    0.9815338398143489 O
   0.7579718207061403    0.4017397536647173    0.4795636974598274 O
   0.0959492043631835    0.7356703725169221    0.4794268719783518 O
   0.4037702563562040    0.5724297930334393    0.9809174526344138 O
   0.0693115237241899    0.5713603139878569    0.9796262518515145 O
   0.4071687331111352    0.2357275808965311    0.9805076793383246 O
   0.0963759005064409    0.4022333958986238    0.2714840134563947 O
   0.0950902761560710    0.4023018568301243    0.7723784381604861 O
   0.0948204487127968    0.7362371326941118    0.2705206512609953 O
   0.0986098830478243    0.7403071980002204    0.7693207438600788 O
   0.4282859277176400    0.0732933902029165    0.2733044318662932 O
   0.4274577563940361    0.0698800419555569    0.7721647423427037 O
   0.4284950823091910    0.4077863176024557    0.2723619229060472 O
   0.4296784326586525    0.4063340618850306    0.7737862335161818 O
   0.4289979291150964    0.7389551754543582    0.2685843653495411 O
   0.4270168972238721    0.7389148178417665    0.7745322706322558 O
   0.7636644836233494    0.0723050858572851    0.2703379605196727 O
   0.7624829946855891    0.0707066199147315    0.7720455161476487 O
   0.7564777451551903    0.4019622747408031    0.2698542156812665 O
   0.7607937301258155    0.4029940596809524    0.7700621712876555 O
   0.7593908960172231    0.7372974479613822    0.2683629844614536 O
   0.7613138252945648    0.7376657482227212    0.7754542034879168 O
   0.0680707719132440    0.2377752309613736    0.4759617474939813 O
   0.0674749995586005    0.2370181303016417    0.9785981176089895 O
   0.0703918452092053    0.5733102362761531    0.4769953019672932 O
   0.7609868288652082    0.4028824637883660    0.9773359513191917 O
   0.0716990760630609    0.9004988217130996    0.4811214898286223 O
   0.0706061824047172    0.9043668313007123    0.9793953159670178 O
   0.4051878880781501    0.2391235569657510    0.4768910922841555 O
   0.4048971093524115    0.5745981946434147    0.4805089649377259 O
   0.7585098072750528    0.7349488961858301    0.4779002609193366 O
   0.2638717298038646    0.7616232439958683    0.5205706431082487 O
   0.0702208219847687    0.2358854980642355    0.2720483188077384 O
   0.5660274576751483    0.9256969808082934    0.7308123934619752 O
   0.9011791972471866    0.2592043110123345    0.2297552963408031 O
   0.9045150086633417    0.2642621898416025    0.7290721805916837 O
   0.9045171373711137    0.5962617816027513    0.2287209321993388 O
   0.9059094528995267    0.6004493008355264    0.7301336481841533 O
   0.9075188655793109    0.9307911667591803    0.2297922237569711 O
   0.9041010399701965    0.9277795587972665    0.7289892073763701 O
   0.2636566092227885    0.0938921998083968    0.0207845219976226 O
   0.2657581099396625    0.0945801963885725    0.5194365534151936 O
   0.2613184462820177    0.4318006956618665    0.0219272293777491 O
   0.2628441075497519    0.4323798637662449    0.5198164441449611 O
   0.2636136885395899    0.7630134656532865    0.0177186994943482 O
   0.5961108253675076    0.0927528221904911    0.0210842772550837 O
   0.5974373427357850    0.0944645503535392    0.5219447968160014 O
   0.5968674782432548    0.4278035951489431    0.0221026052398484 O
   0.6001874779649222    0.4276005360055445    0.5197187241227497 O
   0.5968920384949148    0.7608800866700101    0.0220463649969188 O
   0.5924653379102300    0.7632899377681217    0.5190317672204555 O
   0.9247699841237033    0.0962242595102276    0.0220738266630516 O
   0.9274895980952753    0.0984512231045810    0.5193149654929307 O
   0.9301966621985548    0.4254637692517590    0.0245477806610576 O
   0.9304618072684510    0.4293798108619639    0.5214258288066599 O
   0.0915218409346401    0.0670406644675248    0.2699848461321912 O
   0.5718247906350035    0.9258191962137937    0.2252316388409304 O
   0.5697796716615264    0.5985287039022413    0.7325953126296064 O
   0.5694032928303376    0.5931268658258546    0.2278074661700394 O
   0.5707043858834543    0.2635090996597503    0.7288186370857325 O
   0.0702745122950905    0.2367344744449259    0.7732233532980928 O
   0.0706527154200927    0.5706816370513496    0.2713941967883139 O
   0.0698902903131766    0.5772442669244894    0.7702842047288397 O
   0.0690624063337493    0.9049500190941282    0.2698146164366951 O
   0.0738649007694947    0.9020190433828894    0.7697235533129777 O
   0.4045405615811558    0.2426199790429433    0.2735126617979360 O
   0.4053478060481110    0.2385755480171410    0.7751638100045329 O
   0.4057143786866936    0.5739653039772821    0.2712525197730505 O
   0.4018612675694833    0.5753796214460853    0.7727676972077449 O
   0.4087523344916104    0.9037390492908273    0.2698720066552970 O
   0.4062124501068021    0.9023749164790684    0.7725952897807978 O
   0.7588485741915845    0.7364614018827550    0.9819621017408081 O
   0.7390517351017390    0.2351761803904103    0.2692925514368854 O
   0.7355926230442142    0.5706812215713705    0.2685273382143593 O
   0.7347808242281192    0.5725051287687163    0.7723969395779866 O
   0.7375129841529221    0.9058384225520016    0.2701363408897461 O
   0.7382262578023463    0.9012518992046330    0.7705622050974024 O
   0.2430396233781679    0.2658005193772993    0.2299420761353738 O
   0.2379410316298179    0.2618303321168297    0.7263633020678472 O
   0.2423811152126662    0.5967809057119823    0.2297286883528816 O
   0.2429887546617554    0.5997804155090743    0.7288712654799887 O
   0.2417775451088541    0.9276876961704688    0.2263886511945897 O
   0.2371073864825557    0.9249576506872517    0.7261885012616789 O
   0.5735679041418144    0.2631707808329862    0.2274920228745623 O
   0.7352693335280125    0.2382765809428719    0.7697557174440027 O
   0.9311940365914266    0.7626650110266876    0.7300571418557505 O
   1.0247936962780153    0.9935976446190804    0.6290687311171005 O
   0.9324050350932158    0.4295511941471764    0.7274838963524950 O
   0.6888680220655253    0.6643609059165689    0.6261076219981312 O
   0.6923592588615993    0.9951020266277315    0.1238912969942396 O
   0.6922777069383594    0.9897749484818906    0.6208535269474461 O
   1.0254463339708877    0.3227604659534616    0.1259797302552692 O
   1.0276729524289707    0.3254701232255995    0.6244995444367508 O
   1.0259337433706230    0.6617323366254475    0.1259245565310159 O
   1.0237814517203792    0.6625750013640089    0.6236308479560208 O
   1.0253550254884600    0.9979508735911470    0.1238883702757632 O
   0.9306470328423950    0.7615754095258912    0.0218199089580962 O
   0.1919423626005008    0.1699556155047982    0.3677025479566953 O
   0.1938336178030447    0.1704396870707664    0.8716355273874159 O
   0.1940445583982625    0.5084779369524380    0.3753112887752008 O
   0.1930790286914748    0.5088914057286200    0.8770452551959370 O
   0.1929061781440561    0.8376994344295766    0.3784933151941122 O
   0.1906924408683671    0.8385308230845695    0.8689916050056015 O
   0.5274903426678981    0.1732891976935378    0.3718096056876669 O
   0.5267345046324347    0.1688670233508121    0.8749063542875218 O
   0.5257778758019411    0.5074945184161633    0.3695055136803909 O
   0.5275160488633573    0.5073467585110267    0.8738471502181782 O
   0.5262785305859234    0.8357687246543272    0.3655331796191473 O
   0.5266583065385815    0.8394232232524517    0.8750330488941817 O
   0.8581632289720692    0.1743289927027851    0.3724682728289642 O
   0.8571193202678908    0.1698306319742078    0.8820462937271555 O
   0.6906824086391341    0.6622286259679692    0.1215019480280050 O
   0.8545557122066167    0.5028395777753450    0.3683724384469603 O
   0.6928137199857926    0.3289996705500323    0.6203269317177260 O
   0.3624679349819905    0.9904317573829822    0.6249970810145893 O
   0.1433510797544898    0.1613794047350074    0.1325983177196302 O
   0.1384520848961717    0.1589007507257349    0.6275948113810556 O
   0.1408584742441818    0.4954078005628046    0.1258722106111049 O
   0.1403672206421105    0.4991321038933043    0.6222956353887459 O
   0.1430987485084237    0.8264172029220671    0.1236343050152726 O
   0.1410879606033658    0.8238773030727429    0.6277398703583815 O
   0.4735016718692347    0.1628630514410878    0.1260368516639822 O
   0.4727953088636573    0.1624637330101496    0.6269795872447931 O
   0.4745164800024590    0.4964316030583629    0.1297695820839800 O
   0.4750377705678437    0.4978233304552145    0.6274252463157357 O
   0.4731868327430747    0.8276793664919249    0.1249350620900508 O
   0.4751048096031126    0.8248044029128120    0.6341895849643517 O
   0.8075874097865627    0.1610473230017483    0.1253570179927757 O
   0.8056510446171169    0.1585408965867285    0.6205313748153506 O
   0.8083037266166516    0.4946576885721824    0.1299289879924246 O
   0.8085464330842109    0.4999314915107222    0.6247964746654843 O
   0.8094490945354635    0.8307103856014706    0.1294008779066412 O
   0.8069520690809564    0.8216437581803686    0.6284934033322951 O
   0.3599484210786347    0.3303733003876048    0.1320628460501287 O
   0.3617228970230241    0.3295126256691066    0.6273893623578572 O
   0.3582919415800783    0.6619749429070596    0.1282488267855334 O
   0.3602347163845199    0.6640054915856445    0.6302721528628841 O
   0.3605728908947958    0.9935672707987669    0.1256581657756318 O
   0.6931021738209617    0.3285076469964894    0.1223582500468468 O
   0.8598103480728598    0.5085457216894019    0.8756071847103736 O
   0.8563742948722700    0.8358983456818678    0.3690178320395399 O
   0.8582274112785091    0.8397619731306626    0.8743768207335860 O
   0.5737513818054480    0.9289621869854109    0.0222565308217898 O
   0.5686470067252819    0.9272523844552966    0.5185427220335511 O
   0.9008055344263454    0.2590183652102118    0.0202434747005704 O
   0.9012250851644699    0.2647606308530419    0.5207437261325359 O
   0.9068272973067422    0.5990039760480561    0.0219038637792920 O
   0.9067467006981065    0.5995139666243798    0.5151222033966629 O
   0.9072958045423717    0.9294707368422345    0.0235729676343272 O
   0.9024751579505531    0.9289075342444260    0.5209351831230500 O
   0.2630543430943802    0.0947830242114610    0.2280714256195696 O
   0.2627920834379664    0.0930248698054266    0.7239838684128163 O
   0.2657994730858125    0.4269981355331682    0.2292973189727362 O
   0.2645573759382923    0.4295240782030323    0.7281372846630833 O
   0.2664030089164928    0.7583183635900731    0.2301226442474539 O
   0.2631096197771358    0.7615672127569020    0.7305504160333532 O
   0.5941027646588388    0.0950414534559311    0.2257814227454611 O
   0.5937175548468079    0.0948244513625208    0.7299153452439903 O
   0.5912190326644033    0.4296354160668527    0.2287251034824389 O
   0.5971653899957197    0.4299977213038184    0.7273549736349458 O
   0.5904305408017233    0.7609082357495980    0.2254311609615872 O
   0.5925700934504904    0.7643189502417741    0.7336705649166958 O
   0.9254474868609438    0.0971305823862825    0.2302320686412612 O
   0.9316717273474979    0.0937555821017007    0.7313913770229999 O
   0.9280573660657752    0.4267264508743447    0.2283793627133754 O
   0.5713004300817038    0.5942832226598797    0.5183992112562910 O
   0.5738278077250781    0.5976377917872864    0.0207690945374037 O
   0.5751709434987695    0.2663589939412400    0.5209017554997925 O
   0.5720449396562328    0.2605007414125244    0.0211708456390972 O
  -0.0261287488983128    0.0016790988876818    0.3725692997437354 O
  -0.0253576125274547    0.0025057608546986    0.8757866711216072 O
  -0.0277611154755545    0.3413887061592026    0.3753287048382734 O
  -0.0278619567085308    0.3404650227075265    0.8741381183168476 O
  -0.0262648209226947    0.6729361453966048    0.3734072652418416 O
  -0.0242580434502760    0.6746045758840156    0.8757724483112691 O
   0.3076491015128435    0.0012000052083559    0.3749324960757025 O
   0.3068124159692117    0.0038449115636351    0.8730050236361785 O
   0.3093361265431478    0.3420193295269287    0.3685128897591999 O
   0.3062921075834913    0.3390432285796986    0.8732493020935492 O
   0.3113220387677555    0.6733087098622146    0.3717512570170618 O
   0.9283345252272835    0.7626400808041414    0.2277770482327316 O
   0.3076963109406951    0.6733106526369008    0.8712991959779833 O
   0.6427632378312302    0.0032802549003684    0.8819242086594991 O
   0.6410099464204237    0.3379883314026642    0.3797420631735800 O
   0.6390725545819117    0.3385499027523192    0.8761608179773779 O
   0.6392156095296238    0.6709844073369809    0.3725045558873173 O
   0.6409941011472238    0.6736467123212494    0.8810873840918412 O
   0.2373812962317323    0.2623012689605815    0.0236801145212354 O
   0.2356804236926826    0.2633743177080350    0.5190424711365129 O
   0.2375636352953615    0.5980655512623242    0.0215202007142939 O
   0.2391749242238567    0.5970163025562401    0.5206556280895246 O
   0.2384088860586104    0.9285298658704647    0.0187505338669832 O
   0.2384135045005140    0.9271249625465966    0.5231749938875214 O
   0.6389467243598532    0.0065102565122821    0.3727640271180931 O
   0.9314027656556916    0.7601119377176297    0.5181668804844713 O
