Ba15 Sr14 La15 Nd14 Sm14 Fe58 Co14 O216
1.0
  16.6429649723167579   -0.0035431522345067    0.0001807451868943
  -0.0035441813042020   16.6496066071603579    0.0008508098541751
   0.0001736666399687    0.0008184437560082   16.0080322265199158
Ba Co Fe La Nd O Sm Sr
15 14 58 15 14 216 14 14
direct
   0.1704379552494279    0.0009499620377596    0.1257509724139954 Ba
   0.4942624898290360    0.6636080607349527    0.8767098754089508 Ba
   0.4997010157683760    0.6630494970643929    0.3749715951419043 Ba
   0.8315478512415254    0.6690683797126648    0.3744617859209080 Ba
   0.1662632684675633    0.6626430093243594    0.3746879675203399 Ba
   0.3304265189401482    0.1618714930106693    0.8727220364077044 Ba
   0.8338477108386546    0.3338831428412222    0.6249290649309707 Ba
   0.3283326729933990    0.8327721400463344    0.3768589162490756 Ba
   0.1649492642399988    0.3288170470957293    0.8744327384915412 Ba
   0.1684645664561256    0.6682327110546252    0.6270157571363839 Ba
   0.1680036703411253    0.6710351981398109    0.1251563649687781 Ba
   0.6689972037635324    0.4964365775361085    0.3733230038534017 Ba
   0.6644887110196521    0.8365647935241514    0.8776296713588769 Ba
   0.5007725514650296    0.0009034242766362    0.6212481283921557 Ba
   0.8373229496099106    0.6688190226211037    0.1241804643093402 Ba
   0.1708261196664764    0.4962407628952166    0.2492051273575911 Co
   0.1635855662868438    0.8335763883281286    0.2488290591475865 Co
   0.3349007105124152    0.6677975326741413    0.7501113159614953 Co
   0.8362569024523888    0.1688061260806581    0.2439787976913215 Co
   0.3367126063777536    0.0022319484352165    0.2498507345641134 Co
   0.8331401143865721    0.8368481492051736   -0.0045836019932915 Co
   0.8316965295395845    0.1669964757618909    0.5000204841706816 Co
   0.6674017833951299    0.3323952021427117    0.2492806020272457 Co
   0.8333365907250085    0.8388594473325761    0.2534057199055924 Co
   0.5013511888930009    0.1636692446279129    0.0022233378043795 Co
  -0.0041409522892788    0.0060172889223734    0.0017137242343198 Co
   0.6673841918100483    0.6676577294697857    0.4999504936666673 Co
   0.6697263564273558    0.3320854437072661    0.0010996334524071 Co
   0.6669295418043564    0.0007719841746421    0.4994115960086827 Co
   0.3355249262450045    0.3321409734337292    0.7491101632464645 Fe
   0.3366421388558454    0.3299797892177241    0.2503374740028236 Fe
   0.3294240182483949   -0.0023179550209594    0.7477971049034979 Fe
   0.3343913299394605    0.6637600275582360    0.5018459429783032 Fe
  -0.0039564677173900    0.6677863597196216    0.7485038051372978 Fe
   0.0002185698241049    0.6662201180379642    0.2492631811263310 Fe
   0.0008453485024974    0.3331123063233564    0.7512532521521322 Fe
   0.6636763970619380    0.0036933021653921    0.0004067726562380 Fe
   0.0008423946719014    0.3325847141356345    0.2506543019507210 Fe
  -0.0025771782217787   -0.0009216132928287    0.7471866872084189 Fe
  -0.0038632145440983    0.0020323875132978    0.2477655010182670 Fe
   0.8330810622594459    0.8378727233965396    0.4988521827677350 Fe
   0.6652294108596742    0.3341040012708696    0.4996312386348935 Fe
   0.8348785239248530    0.4980035819964321    0.5003480225831595 Fe
   0.8361365747684880    0.4984194384195366    0.0000348495759557 Fe
   0.6662355824789790    0.6657273008492840   -0.0026462800376549 Fe
   0.8342377648585984    0.1695307794051844    0.0039943004991367 Fe
   0.5015625388712709    0.8336650055107114    0.4975751904929192 Fe
   0.4956057735656324    0.8379009433634792    0.0007764888088020 Fe
   0.5006165726167278    0.4969904781181677    0.5020079531121519 Fe
   0.3357074448611773    0.6633390045477622    0.2496994950464964 Fe
   0.3349203655041462    0.6672880902546269    0.0008099719317456 Fe
   0.6651783006285542    0.0024212182968545    0.2480148098225853 Fe
   0.3352826498943385    0.3324544701238960    0.5010935611746408 Fe
   0.8327205083655106    0.5008480659701521    0.7491576649355236 Fe
   0.8368310447500241    0.4978259241390264    0.2500738239099629 Fe
   0.8335539944434746    0.1660226351131587    0.7518352499663593 Fe
  -0.0024906116227096    0.0002170357419898    0.5001913738351386 Fe
   0.4991204767912924    0.8349272027671200    0.7529839838679333 Fe
   0.5002110853084168    0.4999146370964720    0.7513485914990254 Fe
   0.4990131727934698    0.4938316631046498    0.2500594464714661 Fe
   0.5002342888072592    0.1674903363428795    0.7470252008561528 Fe
   0.5008434029306071    0.1671291151997043    0.2509496984339817 Fe
   0.1639012245261213    0.8365063181936711    0.7502437241891891 Fe
   0.0013754265790772    0.3335034546650029    0.0023043898532060 Fe
   0.8344870197317606    0.8359358774216773    0.7520192927743038 Fe
   0.0004015089118576    0.3317794155199391    0.4966021057703031 Fe
   0.4989272797403664    0.4978886171317037    0.0005060292746458 Fe
  -0.0016328380630661    0.6658359677803382    0.5013825405341356 Fe
   0.1644813755738392    0.1631493988939518    0.7476423120218997 Fe
   0.1694583390509466    0.1652395880671050    0.2529183318785154 Fe
   0.6681835662174608    0.6672644873998552    0.7548381058082188 Fe
   0.3330833373310162   -0.0013686036751334   -0.0000698057874248 Fe
   0.3296579466433732    0.0000338686714020    0.5005511070267360 Fe
   0.6668920663484654    0.6676416556440292    0.2507750416739754 Fe
   0.6672655795154846    0.3338443490125078    0.7506579347259247 Fe
   0.3351209517516288    0.3322967344191821    0.0000486522969388 Fe
   0.6675634353772070    0.0015404963982451    0.7513652896428917 Fe
  -0.0010817650386920    0.6651923096574931   -0.0011873110325644 Fe
   0.1677506448630414    0.4971500833827284    0.7502100118382844 Fe
   0.5015757943873430    0.8377075494606790    0.2497886480720230 Fe
   0.1643491855434711    0.8360274521694681    0.5051401930109409 Fe
   0.1662779297910592    0.8349750470441526   -0.0010606287717761 Fe
   0.1697162863853622    0.4963433683380424    0.5007873234499981 Fe
   0.1678475426131765    0.4977747226539572    0.0004564308461819 Fe
   0.1679986824972549    0.1651171783265891    0.4992735580441617 Fe
   0.1664054845890191    0.1641357597243202    0.0001334805349702 Fe
   0.4976962194405272    0.1684263885498543    0.4978829138157775 Fe
   0.1719112044258039    0.6622113945457500    0.8749342617953283 La
   0.1675472345404883    0.3260403266913348    0.3774092384806723 La
   1.0091478882678651    0.4940645141966371    0.6242338219756869 La
   0.6718549025542234    0.8274963677845002    0.6208326605379387 La
   0.6681196210716834    0.5102010564348952    0.1237856275943519 La
   0.8270117088538707    0.0080136709026698    0.6258937486871570 La
   0.6695946182906853    0.1724148172350494    0.1271305015869415 La
   0.4977237436123474    0.3279628972675938    0.8739030711916901 La
   0.5020244258467268    0.3386527471049626    0.1227011095068076 La
   0.1719325606813899    0.3363380313499323    0.1270173433549767 La
   0.6613275218012455    0.1696523460082670    0.6213217641989432 La
   0.8331045903423033    0.3317274021579542    0.8743321569482155 La
   0.3406095491173146    0.8307411345705205    0.1285983555492711 La
   0.3304305561223223    0.4981466690409183    0.3774498176594933 La
  -0.0044515297824438    0.1592630584119588    0.3742814961006937 La
   0.6617119786757559    0.5164291277827794    0.6279003307049282 Nd
   0.1724044009418583    0.0068709581699622    0.6233859412225364 Nd
   0.8317185654390363    0.6673174103245395    0.6246057583750233 Nd
   1.0081031002137382    0.5109102935162831    0.1266178737633905 Nd
   0.8416670107985020    0.3429815345805992    0.1249157823956981 Nd
   0.9947622418545670    0.8355445226903817    0.6102843822995589 Nd
   0.1594894614155280    0.9918159533101530    0.3739944549016994 Nd
   0.0079568902027620    0.8219123730421226    0.3703736491934219 Nd
   0.4949088610338682    1.0073300339898046    0.8724830572234636 Nd
   0.8303206965532522    0.3237318825661529    0.3740454087908349 Nd
   0.5031064318234773    0.0032755473168338    0.1286840675135816 Nd
   0.1692403981595728    0.3324169960390047    0.6261050447811098 Nd
   0.5019504305630131    0.6732429984421550    0.6257487127372566 Nd
   0.3222101034060102    0.8437384673284368    0.8723391851589182 Nd
   0.0725570313085330    0.5711853290560184    0.5017724906547475 O
   0.0700554911370488    0.5659660657714269    0.9935924026753157 O
   0.4023280931045464    0.5673499507034024    0.9902112069415746 O
   0.0652684789012022    0.2327783927865829    0.9809081797928156 O
   0.0624408796299371    0.9054844332758429    0.4817960604894486 O
   0.0651653074174051    0.9080835390685335    0.9741384512887048 O
   0.4045463196958042    0.2428006172051516    0.4818118359087024 O
   0.4146793980546519    0.2315341977939797    0.9980395696212936 O
   0.4087787088102703    0.5668948068545622    0.4873061535776466 O
   0.0739079571420008    0.2385364434689253    0.4721998723755473 O
   0.9293015910425432    0.4308076089038340    0.7312962838481694 O
   0.3915950222772395    0.8953800172643763    0.9945000120618743 O
   0.4348838950671861    0.0645844015387940    1.0026380441649765 O
   0.4212176132981612    0.0768296783269029    0.4912724267801211 O
   0.0901565656422315    0.7383413155066353    0.9850144446528324 O
   0.0845422785552840    0.7499903070980204    0.5037163779819526 O
   0.0966691975809952    0.4022144186139696    1.0125943261647958 O
   0.0997375131505401    0.3999876552318981    0.5006729550282026 O
   0.0882303784717374    0.0680684654998965    0.9984331667174871 O
   0.0956328635869751    0.0667182290421356    0.4927540093434618 O
   0.7357163453982194    0.9102503887758405    1.0204159308715637 O
   0.7465358500698079    0.9144708154743895    0.5166852992073026 O
   0.7422091314827990    0.5733371789082775    0.9928641401348908 O
   0.7396912091467850    0.5847840149507296    0.4965796459838979 O
   0.7378994874018633    0.2431083889805002    0.9824297831163582 O
   0.7422889850908273    0.2428825505478657    0.4812797898109599 O
   0.2638245502927630    0.7697280349289999    0.7288493714476495 O
   0.4093584894644030    0.9104815161763327    0.4985509767174378 O
   0.7640160329079063    0.7401171428201592    0.7556886896868480 O
   0.7659189915276956    0.4007086139000843    0.2615801133486994 O
   0.5962622702813892    0.0982295097391018    0.2437306493778607 O
   0.9238032315553647    0.7648924181199026    0.2524893776041177 O
   0.9309779360259534    0.7710073365874464    0.7637863602829111 O
   0.9318390153302327    0.4243149909460712    0.2209037883099921 O
   0.0937268662036811    0.0748951375132054    0.2632257302571689 O
   0.9290540028415776    0.0961508252409676    0.7353084220573111 O
   0.0961495604622515    0.0644616918340194    0.7472991935478183 O
   0.1020170306497996    0.4049890268771313    0.2495037522471303 O
   0.9344417945925185    0.1055581723669123    0.2324579952342955 O
   0.0934803557566716    0.4032787362059686    0.7390322521364987 O
   0.5907054608513396    0.7580089060561792    0.7347501129754296 O
   0.0867253532020741    0.7540377786126438    0.2523184670609797 O
   0.0921376286229594    0.7387794477185800    0.7628695302006806 O
   0.7551544169012554    0.7579587464276957    0.2441841702538491 O
   0.4333425748926741    0.0664356861723967    0.2556982901165948 O
   0.4253346576507711    0.0734987576567640    0.7488805072956713 O
   0.5947118226393463    0.4264540063003788    0.7264520870770745 O
   0.4388907717808397    0.3901014834130805    0.2609291435034481 O
   0.4362618971753940    0.3969794769089019    0.4940068570107015 O
   0.4340643080269431    0.4025784218218676    0.7568356271215025 O
   0.4265582872272830    0.7411598260779900    0.2325022566221616 O
   0.4230725807499409    0.7370016059222926    0.7364401227962408 O
   0.7651533258460819    0.0775843130410355    0.2318051392144675 O
   0.6014635115705494    0.4199933187193765    0.2237133934093650 O
   0.7672164809300078    0.0686159458445860    0.7567566610700696 O
   0.7592038917311473    0.4067302848908945    0.7668447542313223 O
   0.5969076451470274    0.0992717341498138    0.7429582449138918 O
   0.5903949680199807    0.7608056884841464    0.2264484438411200 O
   0.4343950003458976    0.3973209827327409    0.9926420944563725 O
   0.4078711951617551    0.5722782007582254    0.7648169476399364 O
   0.4284337424539395    0.7366723401993663    1.0229333044099325 O
   0.9265371082392405    0.0917519794467536    0.5118513674929293 O
   0.9355075384072198    0.1083682257724488    0.0173715926695559 O
   0.5908734444150449    0.7488365744240651    0.5173466062406056 O
   0.5890495822685837    0.7640943607437655    0.0216717909703206 O
   0.5952803795699493    0.4272029128315181    0.5270957384707218 O
   0.6000151947147760    0.4212810746112753    0.0243734597492642 O
   0.5952741047342721    0.0940247174481058    0.5022661712311831 O
   0.5953748145465672    0.1044189460830648    0.0073277749990556 O
   0.2571377047463008    0.7552573505558725    0.2375093240146316 O
   0.2588156800775588    0.7633321049069891    0.5221073876812510 O
   0.2641072296919598    0.7652357895177253    0.0154658305182865 O
   0.2653898345898652    0.4229551265723631    0.5128836257448544 O
   0.2646874847285882    0.4279705802957173    0.0186918548465685 O
   0.2564877315930098    0.0898721157367065    0.5255441872438493 O
   0.2665578996475031    0.0950396729001912    0.0209542419995177 O
   0.8953233814804223    0.9392885467511607    0.7489548682779732 O
   0.8987811213257001    0.9304467193643415    0.2367381510895747 O
   0.9001540277385636    0.5992615282826039    0.7377175612631007 O
   0.9189403655675860    0.5830487908998416    0.2414554831800758 O
   0.9097625889387094    0.2584291262131305    0.7631746836440434 O
   0.8978037695990071    0.2667071634731327    0.2489238221147431 O
   0.5691375986498066    0.9325273830517651    0.7634635608137218 O
   0.5710352120705510    0.9317877592611334    0.2507529860019301 O
   0.5743200310972392    0.5921082000559280    0.7294453864786102 O
   0.5735204824554013    0.5884792783115775    0.2318115214556571 O
   0.5710203216209272    0.2647889066468741    0.7447618792136960 O
   0.5766131991181825    0.2582690860090617    0.2234237120369920 O
   0.9317135242431297    0.4270645733548546    0.0293815241270915 O
   0.4242936350861501    0.7417547415515052    0.5113819675626844 O
   0.9292732581963917    0.4273250463089695    0.5183163948896888 O
   0.2337010964196260    0.9160919798238270    0.2529592275109952 O
   0.7637691135846084    0.0817372587551928    0.4954719440109948 O
   0.7675458050449442    0.0720924825098296    1.0118760916659757 O
   0.7598230606187376    0.4045970693037709    0.4838457516826939 O
   0.7652359568332270    0.4035211576121691    0.9868948910051148 O
   0.7546894100124123    0.7504101917618317    0.5050642061401353 O
   0.7540874722893022    0.7484648581160086    0.9979201869310059 O
   0.0724695809899063    0.2408205916060089    0.2770685445717413 O
   0.0696649253371124    0.2346886639846789    0.7705792023022685 O
   0.0790100226923873    0.5725837698076987    0.2535231266360940 O
   0.0661434211366754    0.5670565508202011    0.7515029485676417 O
   0.0702579498163987    0.9120744492233646    0.2675992139707538 O
   0.0661315702144581    0.9066887561829798    0.7837094544114652 O
   0.4018787665324051    0.2305221430262578    0.2543519736725704 O
   0.4134503089770856    0.2438404793224952    0.7583182436169691 O
   0.4020326126222478    0.5619812679802105    0.2599564318589301 O
   0.4021693236699858    0.9125655851920703    0.2580676433455040 O
   0.3975598557483445    0.8981919312942389    0.7516333499785069 O
   0.7342877174065972    0.2479116974853314    0.2689674653236511 O
   0.7441980312021260    0.2421450169294601    0.7672579808321188 O
   0.7455427445867123    0.5795289366984840    0.2504770438390342 O
   0.7375245338085908    0.5721135398756833    0.7617578974153224 O
   0.7397771320422684    0.9116318306681673    0.2262695009752211 O
   0.7372397044162552    0.9037298096846874    0.7332282517709162 O
   0.2361140820498630    0.2633752810198596    0.2459490636174640 O
   0.2410832420422400    0.2564830541590462    0.7379206993999643 O
   0.2434794006520267    0.5769956130770766    0.2521130410644996 O
   0.2438708505268342    0.5957915400803760    0.7600192447821345 O
   0.2315217931761831    0.9318744663320729    0.7752058999763645 O
   0.2594972188776414    0.4213912828761909    0.7422956344887275 O
   1.0162779159379316    0.9842607488841085    0.6254323566927801 O
   0.2560245068501533    0.0873225980696821    0.7254103056580988 O
   0.6974075496242244    0.3226022288980626    0.1213302374484040 O
   0.6743356890810009    0.3175466068466796    0.6250015853183652 O
   0.6727917522861788    0.6692517069925311    0.1241610174762447 O
   0.6845758161393566    0.6662613182859604    0.6282187472851511 O
   0.6546351195029311    1.0082688432413731    0.1233272321303215 O
   0.6749981648157616    1.0130248625634903    0.6242732225903871 O
   1.0158516628149987    0.3072848295772092    0.1284671205767768 O
   0.2678821717987532    0.4245624691783288    0.2255450613625941 O
   1.0044607391333531    0.6637085918795322    0.1236784452752961 O
   0.9922142489846021    0.6843793425464502    0.6262191863166003 O
   1.0055104498995013    0.9973955709057737    0.1237645963587771 O
   0.9267066750009912    0.7660213134047675   -0.0112063714404989 O
   0.1862476935309848    0.1548336857707227    0.3757851792054971 O
   0.1692471347717948    0.1428325950301936    0.8754950542729981 O
   0.1798603986239179    0.4812447303032313    0.3740219434441989 O
   0.1603748075144306    0.4963514930682593    0.8743112261041464 O
   0.1605389350607436    0.8321826354006938    0.3765844559872388 O
   0.1764659423413407    0.8134476133759724    0.8753643586034106 O
   0.5121267390528677    0.1808108481975591    0.3727499139203510 O
   0.3212309605883487    0.9693623518987646    0.6263093761134876 O
   0.3459850764802993    0.9835441258374713    0.1262907425426894 O
   0.3487556256572079    0.6542647228932080    0.6256679696477513 O
   0.3362572207140413    0.6459986928285143    0.1266712714410356 O
   0.1472964392687942    0.1763302130779802    0.1271379942389171 O
   0.1487089544293105    0.1786600335314561    0.6224574734860070 O
   0.1574380364521767    0.5027723403677354    0.1267689599839698 O
   0.1623506631025370    0.4965576344453371    0.6259661818186552 O
   0.1542363081922141    0.8412442367520739    0.1197691201052926 O
   0.1431605309821880    0.8575960208309211    0.6292251397374438 O
   0.4836138279441542    0.1567746858957282    0.1250778255952323 O
   0.4972191588080710    0.1754875389863069    0.6222637466443386 O
   0.4746913659386992    0.4879907550720607    0.1258972597839257 O
   0.5079260064270126    0.1584588876284058    0.8773263011829217 O
   0.4846238991211417    0.4954139477938521    0.6258631054305321 O
   0.4962219490813580    0.8337169440025618    0.6257899607741183 O
   0.8213023644447681    0.1919025102439607    0.1292210912287454 O
   0.8156827589813260    0.1657635593338832    0.6259083677209286 O
   0.8127285430972286    0.4922087519344770    0.1252991708266248 O
   0.8074597729436218    0.5064215555366784    0.6241647800316223 O
   0.8353768845565228    0.8370838470552683    0.1121251995259740 O
   0.8420545919122799    0.8177294571322091    0.6268687096231439 O
   0.3496861520894268    0.3180586217285137    0.1240182976421697 O
   0.3533899537885658    0.3306090847399622    0.6254322354934990 O
   0.4897788093983982    0.8555515104070555    0.1254014298888538 O
   0.5094649764025552    0.4859428155118495    0.3755919948603581 O
   1.0150416440207350    0.3217421513257051    0.6221141693389529 O
   0.5078071786012371    0.8293444435120788    0.3743922726863801 O
   0.6558319676369914    0.6669995215168966    0.8769813211608174 O
   0.2420513759459838    0.2566948714245404    0.0123140245753763 O
   0.2362395780806931    0.2648489304445757    0.5069545186441795 O
   0.2395859156810588    0.5932504384187673   -0.0094804006639193 O
   0.2470606757246233    0.5851905456166234    0.4973108574704906 O
   0.2332364148969809    0.9325793947518135   -0.0239349421182326 O
   0.2274997580079222    0.9323663774768078    0.4949814018923987 O
   0.5721665645986812    0.2605760838449832    0.0146738084097571 O
   0.5686683854171914    0.2658802660967128    0.5108079365732819 O
   0.6608587933707399    0.6770078172343278    0.3716778715515552 O
   0.5719241571256420    0.5906665641238150    0.0221789251324561 O
   0.5605403499509565    0.9396458801501144   -0.0091608287725361 O
   0.5181765630142913    0.4881006161803224    0.8765640089136008 O
   0.9004621275899019    0.2695293498730498   -0.0005160827555986 O
   0.9050678722793937    0.2511550488464442    0.4914122733143769 O
   0.9129593899075928    0.5872626148120483    0.0044436417728321 O
   0.9051235322644713    0.5949349351554860    0.5153168861619905 O
   0.9005768771705948    0.9492204655879071    0.0036381498223177 O
   0.9053943202877530    0.9282934063260988    0.5181916349802215 O
   0.2709162162203957    0.0936161099752659    0.2282890188243483 O
   0.5762888259873459    0.5898688513708980    0.5202438441256204 O
   0.6453566427091538    0.3368272836418043    0.8788410039744843 O
   0.5871088992721318    0.9166781027052188    0.5006259399906977 O
   0.6797448715203426    0.0061930798142115    0.8787022173044474 O
   0.6367142682222207    0.3348556232965963    0.3738503451219805 O
   0.4888309768975277    0.8289951231218955    0.8760149821679019 O
   0.8444807552546466    0.1636024125515272    0.3618738941534587 O
   0.8499435128103342    0.1528251928867597    0.8794429574404614 O
   0.8480591317770867    0.4940703193181219    0.3743832547751263 O
   0.8589439242895001    0.4938927289330212    0.8753422476507003 O
   0.8307033619685681    0.8481739648890161    0.3735401172842419 O
   0.8305223256209366    0.8584628228683785    0.8820841636805716 O
  -0.0160727474115901    0.0101148929506860    0.3731531336944635 O
  -0.0145271242068726    0.0252517634401638    0.8771297953812064 O
   0.9264584398618683    0.7681206801773274    0.4907777563754452 O
  -0.0106409487627535    0.3594048394253503    0.8770327935254602 O
  -0.0008084119493358    0.6722819686563584    0.3744006216300284 O
  -0.0044475202251152    0.6568493399143418    0.8738285462221009 O
   0.3097752415989296    0.0049763521726849    0.3713011217699519 O
   0.3498381707160910   -0.0005864428922914    0.8741964289624566 O
   0.3195913746101159    0.3454185271962397    0.3737778497163495 O
   0.3325139192751682    0.3342030239062730    0.8767827173593884 O
   0.3311659521089618    0.6666764402642086    0.3744068562651632 O
   0.3234651820699120    0.6919524432754778    0.8744092475534591 O
  -0.0200757454242169    0.3477901728481063    0.3735147898193626 O
   0.6737553621902811   -0.0005962341761844    0.3715428916739825 O
   0.1413299753754503    0.9956972051323201    0.8761105020130445 Sm
   1.0082718394139383    0.1662006318154474    0.1226206478918859 Sm
   0.6828127861459941    0.8188640643999838    0.1236135325675980 Sm
   0.3489087999205547    0.8268447581481998    0.6242830007183940 Sm
   0.5146612351826892    0.6808975786104077    0.1255805454081017 Sm
   0.3401386472700686    0.1730184769977509    0.1218814954291137 Sm
   0.8182647803843792   -0.0128246915499243    0.1221540650890504 Sm
   0.5061744709365559    0.3443208324522562    0.6281811457096890 Sm
   0.3352525622802265    0.5082509227557829    0.1233383545847188 Sm
   0.4962701255714572    0.3266408553384530    0.3824711425528580 Sm
   0.8358402927076293    1.0059393960705396    0.8749692872398257 Sm
  -0.0063275109238367    0.1652469309672178    0.8731251496929824 Sm
   0.0020622081552639    0.5045320226916794    0.8750180363279357 Sm
   0.0133423931219227    0.8113574292139165    0.8762169277878753 Sm
   0.5029877475009941    0.9961555518699629    0.3785069700251023 Sr
   0.6667605112701354    0.8378904260572529    0.3719696549915494 Sr
   0.6698923699777326    0.4922939826615226    0.8780933678272984 Sr
   0.6630495061337439    0.1672273390022983    0.8735678622977923 Sr
   0.6656110808902572    0.1614727964269413    0.3757409420239098 Sr
   0.3376090356162508    0.1747055165048695    0.6252671760630735 Sr
   0.3342533486996783    0.5014602330372209    0.6288579329432631 Sr
   0.8310679831819462    0.6615451999429702    0.8756552301506786 Sr
   0.0005557858770902    0.4998509170599807    0.3733196712516100 Sr
   1.0003439565745966    0.1702014724572483    0.6239740475849480 Sr
   0.9969912410240533    0.8400672168402359    0.1230321635316541 Sr
   0.8302242456639185    1.0025404718501318    0.3729080586626511 Sr
   0.3366917252385450    0.1553728491605497    0.3731576211095720 Sr
   0.3305099921543058    0.4937137194601040    0.8744680234662354 Sr
