La15 Nd14 Sm14 Gd15 Y14 Co72 O216
1.0
  16.3320229149113771   -0.0166007245872794    0.0048447644086449
  -0.0166505919174773   16.4970065366876497    0.0036634741627430
   0.0046772969304858    0.0035151777074391   15.6033429291561401
Co Gd La Nd O Sm Y
72 15 15 14 216 14 14
direct
   0.4964448241257384    0.8320916663691417    0.2499959758952700 Co
  -0.0022510907200702    0.3339871828675723    0.2501961686585946 Co
  -0.0022117488059134    0.3314411408642741    0.7527144695997836 Co
   0.0025578135004924    0.6667148837251264    0.2476895701961967 Co
  -0.0018148503033133    0.6670510727149662    0.7525751780381683 Co
   0.3333787510394718    0.0017936013080095    0.2510454177093655 Co
   0.3309905795860577    0.0016604124183907    0.7487884087300883 Co
   0.0035402762705575   -0.0011854282086031    0.7502059518779691 Co
   0.3337113658851496    0.3339225516527000    0.2506516387979295 Co
   0.3323607429706212    0.6665192850604773    0.2514023285420662 Co
   0.3367206324385505    0.6650802722170388    0.7513064589635595 Co
   0.6643409556362908    0.0012780367773902    0.2501704278715478 Co
   0.6658942040892852   -0.0018949432323317    0.7505247959325940 Co
   0.6671405414068587    0.3323528695546834    0.2483835318394243 Co
   0.6659023325779290    0.3330735912067622    0.7488347015219113 Co
   0.3329680147957061    0.3339597726450426    0.7500935040302767 Co
   0.6651508538565588    0.6669503592105089    0.2482568131373335 Co
   0.0055758322542931   -0.0005436762874387    0.2488190202006860 Co
   0.8337937378572509    0.8322985838049695    0.0022823206146558 Co
   0.1676583586643377    0.4994778604962362   -0.0024002844838921 Co
   0.1692882658490648    0.4989060078637551    0.4992746029488329 Co
   0.1699885961935594    0.8359171443570697    0.0018903531780436 Co
   0.1696856585855765    0.8328456843533851    0.4983452783481724 Co
   0.5006974272850712    0.1674515169749703    0.0002408167732427 Co
   0.4994118936749923    0.1660916732419598    0.4993371125322753 Co
   0.8346839770776077    0.8318704779090755    0.4986808967330817 Co
   0.5016128229443994    0.4999965347410266   -0.0011930918485039 Co
   0.4969045654997442    0.8335036353226081    0.0028259063876842 Co
   0.4985518874312806    0.8300322944273890    0.4979991194327665 Co
   0.8318537550718410    0.1665667423994076   -0.0002956487126189 Co
   0.8315142627371382    0.1652867777170322    0.4981764215647929 Co
   0.8284198106857272    0.4994929098637382    0.0026228011092896 Co
   0.8343124494677021    0.5002692315725644    0.4976078880923036 Co
   0.4971847356065521    0.5008558313574210    0.5009809836063587 Co
   0.6662360656487898    0.6671959102913702    0.7507044495028939 Co
   0.1698251202189100    0.1688456417148011    0.2499926044373039 Co
   0.1649890932740929    0.1675267971584083    0.7505619149578727 Co
   0.0001822625590307    0.6669053616472573    0.0020734623947444 Co
  -0.0000846227261717    0.6671687109277069    0.4988219318833417 Co
   0.3338150371493190    0.0026086663886448    0.0032050749578193 Co
   0.3300993818144434    0.0011611069733881    0.4984699125537100 Co
   0.3339188091748645    0.3345385747247462   -0.0031478304092424 Co
   0.3326897346314449    0.3334838348556610    0.5013303628637346 Co
   0.0006536492496342    0.3323620807660644    0.4989896726690267 Co
   0.3340808795144982    0.6668938156263386   -0.0011121244830789 Co
   0.6659271851867336    0.0004319430310896    0.0018842211456088 Co
   0.6646924906831556   -0.0011164695748294    0.4973340515119588 Co
   0.6676362756122390    0.3330741528499276    0.0001458201606407 Co
   0.6656443396463344    0.3322818874426962    0.4996884267497996 Co
   0.6651572114216218    0.6665813764709303    0.0014320943406935 Co
   0.6658696576301011    0.6672421899153320    0.4998868795610464 Co
   0.3344887555694698    0.6654075722735351    0.4991572578808771 Co
  -0.0048175361221306    0.3329964996605015   -0.0034749694224273 Co
   0.0044245877964908   -0.0009493491367542    0.4994510278326348 Co
   0.0031707141114035   -0.0004577503305913    0.0025387301963915 Co
   0.1689634583601095    0.4990787310395842    0.2519380433043516 Co
   0.1680977917693637    0.4994985250933112    0.7507551492644698 Co
   0.1704409659036697    0.8348711421047500    0.2507192459969353 Co
   0.1700655766591058    0.8336177210544776    0.7522297556855247 Co
   0.5008858271150639    0.1673750911198792    0.2503308591748111 Co
   0.4998242759760656    0.1669518873000133    0.7493156877897736 Co
   0.4982049924430594    0.5008153993350785    0.2486582336323339 Co
   0.5004840974171485    0.5001498400258099    0.7512031854168102 Co
   0.4992877099335847    0.8311958956401639    0.7495801558879650 Co
   0.8299193039786916    0.1663223385790152    0.2475771501096722 Co
   0.8330463085655542    0.1655013281725671    0.7524721499493096 Co
   0.8311271845078629    0.5002051617660869    0.2483888860397506 Co
   0.8321375409116093    0.5003487766877126    0.7499404032745507 Co
   0.8353030538768081    0.8327004460319776    0.2494920175340827 Co
   0.8331318604190497    0.8310257285123617    0.7510091512669776 Co
   0.1686787413450787    0.1686101102383297    0.5005263767198194 Co
   0.1658474037095906    0.1678379556760940   -0.0000433119693336 Co
   0.1741281297780467    0.0262313270772370    0.1277629709075325 Gd
   0.3289963235143639    0.5186077678448439    0.6242221524072790 Gd
   0.9986606955384125    0.8512213641022395    0.1267390396725581 Gd
   0.3272674814647812    0.8588381134603537    0.1257705968497336 Gd
   0.0063971818864143    0.4774113180414919    0.3766943626657501 Gd
   0.6603172067645163    0.1871629946879916    0.1243812754252163 Gd
   0.0089257176191082    0.8145339835169692    0.3733192911715521 Gd
   0.3330281396683551    0.1874411268023581    0.1244466866210607 Gd
   0.3393824589257163    0.4787001648849328    0.3750951978170924 Gd
   0.4943682129477073    0.6461090116425167    0.3742621764030681 Gd
   0.5029534733054681    0.3531798421404146    0.6244920244417310 Gd
   0.5085100357396459    0.0208949635080302    0.1261441854031174 Gd
   0.6714587814504142    0.1434234212039788    0.8758557540213838 Gd
   0.6591839014600038    0.5201854465974417    0.1247776407035303 Gd
   0.8233932013527558    0.6458675535074816    0.8777323098607356 Gd
   0.8315501605196028    0.6520749624276460    0.3734346021054897 La
   0.6627186508853231    0.1815413334266309    0.6243214081936311 La
   0.6654105497049773    0.5178251131407656    0.6241493732685345 La
   0.4934807970092744    0.9847262850708037    0.8744577904805152 La
   0.9933576891515160    0.1792871837971393    0.6260621347540343 La
   0.9983876673744541    0.5152120004645193    0.1252892004754611 La
   0.1687261573236284    0.3469929842294144    0.1233532287527533 La
   0.0055349934687682    0.1517338969641075    0.3728377211875901 La
   0.6690648478501228    0.8200588442412794    0.8775555671783494 La
   0.0018017703191620    0.4849965319015043    0.8731741649297994 La
   0.0023211177737757    0.8171162700267134    0.8772313850672369 La
   0.8347208724955580    0.0107065193480984    0.6264502443277945 La
   0.8354868253887190    0.0133964896186352    0.1235036644152676 La
   0.1703521565947324    0.6810522790381709    0.6282189618085978 La
   0.8338146123662120    0.9850609447472519    0.3742313543823433 La
   0.3273101550183676    0.8543381765200769    0.6244187652948762 Nd
   0.5041143938126432    0.0150694029396471    0.6242051304684322 Nd
   0.9934460348824721    0.1865815603415845    0.1233046978615717 Nd
   0.1691319032013243    0.3512796634259044    0.6267984197531785 Nd
   0.9932889479799640    0.5192465033693958    0.6235799229758409 Nd
   0.3270324329072940    0.5185589205583409    0.1239806137368916 Nd
   1.0002400031340246    0.8496614578569359    0.6239822300031870 Nd
   0.3346781629140121    0.1504872315653688    0.3749394201055383 Nd
   0.3350590270520421    0.1514369288906851    0.8753056868878106 Nd
   0.6697607042044682    0.4809850429904154    0.3733912355436556 Nd
   0.1645088311613549    0.9838425170487091    0.8755026799187173 Nd
   0.4967338352860390    0.3149693897107078    0.3764518466221261 Nd
   0.4977998470979964    0.3151738170649421    0.8732180325388909 Nd
   0.4943865156097274    0.9792119504395277    0.3758128457947086 Nd
   0.0670678671805487    0.5731696612733899    0.9751175741235268 O
   0.0978144417494907    0.3983581816893927    0.9722985218703852 O
   0.0667029512545870    0.5669791376073031    0.4731233452158262 O
   0.0627645763952468    0.2331621683655604    0.9734727180522686 O
   0.0709655487541287    0.2390083625195907    0.4766686879414951 O
   0.0702939423679304    0.9003012486469710    0.4723405084280614 O
   0.1044606902316294    0.7341142764065498    0.9757559271446016 O
   0.4259938037408803    0.0657439694016417    0.4743001262732214 O
   0.7651827700262192    0.7314446477431507    0.7765200885105493 O
   0.4292661186276160    0.0707669438860164    0.9777536905968101 O
   0.1003654253676260    0.7365806388550451    0.4723935986172086 O
   0.0756186437730428    0.9007452065180832    0.9784234526627703 O
   0.7305590331992067    0.2332553816690564    0.4712345894150348 O
   0.3963881068153280    0.9010839324988464    0.9789385260038042 O
   0.1031496156221766    0.4013152001294165    0.4722680728279788 O
   0.4003760303890374    0.2390465667178480    0.9761305810126452 O
   0.0984742653616040    0.0698172755395192    0.9786367332979480 O
   0.1056319532752268    0.0687884968259775    0.4768992212351211 O
   0.7355192047232944    0.9068758122065448    0.9841198304444549 O
   0.7325045885715762    0.9033844752362613    0.4754104106482666 O
   0.3985869458274121    0.5674085563866144    0.4726483245723569 O
   0.4057959044345997    0.5652327561373250    0.9712631329176510 O
   0.3964379965483880    0.8979268467005733    0.4734565303702499 O
   0.7299654322325984    0.5646022097644268    0.9748332118756623 O
   0.7305742345724102    0.5703171420150878    0.4751318091848248 O
   0.7319607855482446    0.2321835098844995    0.9705692702107409 O
   0.3983227710630318    0.2365266031231782    0.4773204552224229 O
   0.7630481240239924    0.7393933304823601    0.2723529108387312 O
   0.5706106553639190    0.2685113395576252    0.2221206210358166 O
   0.7636080358440758    0.3971850100050851    0.2735648620733079 O
   0.2676452381969875    0.7681467796621344    0.7299267602311654 O
   0.5979433960481396    0.1010264127807583    0.2242340591771540 O
   0.5978809105021102    0.0919922775174039    0.7298293305474729 O
   0.5994615820338192    0.4317959875214607    0.2230173344246435 O
   0.5933185767333309    0.4325475847748744    0.7246374490548424 O
   0.5933388567429833    0.7668350648526920    0.2228054870668299 O
   0.5999818030791855    0.7640582810200831    0.7222420118287897 O
   0.9326505901250581    0.0974849085133028    0.2249533538219551 O
   0.9307564161974363    0.0961771210776178    0.7329451049200169 O
   0.9240445621064062    0.4323314996756544    0.2259799955518916 O
   0.9314992882155270    0.4304927684760036    0.7259567870102402 O
   0.9354151814844103    0.7626717228012967    0.2222637071881718 O
   0.9330940079416196    0.7614919747595008    0.7249698985814736 O
   0.7629139338212947    0.4025438584005283    0.7745669015579481 O
   0.1075332236003430    0.0672942067886086    0.2732015528239027 O
   0.0983857909220784    0.4026793684686570    0.2781146847983738 O
   0.1013627182383124    0.3972377602044265    0.7760983026443784 O
   0.1026884373009810    0.7363182119618641    0.2760490575070592 O
   0.4291567317037420    0.4014530522263404    0.4748830193920440 O
   0.1023657497213358    0.7332800368085644    0.7790435740761829 O
   0.4284184823736182    0.0668981542329468    0.2771184432412812 O
   0.4254596084627353    0.0687330116469958    0.7707743414198799 O
   0.4302260610715802    0.4010295373684918    0.2749094066043365 O
   0.4317365363908721    0.4027545063184775    0.7758777603983346 O
   0.4298404127513682    0.7303714902591796    0.2761254125172575 O
   0.4350922709372076    0.7304921754705037    0.7770404223178140 O
   0.7624165649905789    0.0704768881240971    0.2733671928294791 O
   0.7666898161281172    0.0698099441244876    0.7767986564482150 O
   0.0959862735126373    0.0692029760341328    0.7743119563979786 O
   0.4357964380210522    0.4024975152071910    0.9747203991326876 O
   0.7318068097198953    0.2319052320464486    0.7779615018801528 O
   0.4312618959925182    0.7293736979911680    0.9733965311710852 O
   0.9316382033857673    0.0928744531182856    0.5179595689542734 O
   0.9328931289057264    0.0984917199145653    0.0224294864853207 O
   0.5989687090568893    0.7627998495225176    0.5255005887024217 O
   0.5982272256679853    0.7654582514569599    0.0299142090343957 O
   0.5946565227298610    0.4315711698839080    0.5233767007728656 O
   0.5981640990988718    0.4332441359536215    0.0278424856217386 O
   0.5967740512767693    0.0931040109229233    0.5197497370485737 O
   0.6021601200185948    0.0978353643213992    0.0242441481214289 O
   0.2661854497751675    0.7708975709674215    0.2244454063628289 O
   0.2699267695631311    0.7638242371634532    0.5218886509726600 O
   0.2654950137712805    0.7726505527496571    0.0272738475673175 O
   0.2687016040519454    0.4303536062973329    0.5281861365195614 O
   0.9236779935068846    0.4311397017869740    0.0249638519530300 O
   0.2708685433244646    0.4309697158339072    0.0177369412380361 O
   0.2678840132362804    0.1019484104462731    0.0277793273747470 O
   0.9097011621509605    0.9290108815475288    0.7287115670772244 O
   0.9063783103966881    0.9267584967435543    0.2247170790737634 O
   0.8975432650243838    0.5980610559805161    0.7242702202683610 O
   0.8973599387044984    0.6012425649984204    0.2215117128037127 O
   0.8950373586228952    0.2642099737750676    0.7282776905298431 O
   0.8960845905932291    0.2638897598283585    0.2237110062149602 O
   0.5671982892404409    0.9259587453476956    0.7262402843041759 O
   0.5638581578724081    0.9337152415626387    0.2260407791234360 O
   0.5662100491365537    0.6030677514530520    0.7239181267245172 O
   0.5661858425080916    0.5976759560056507    0.2226158111256996 O
   0.5672416414754858    0.2692177859890129    0.7248753605013455 O
   0.2646949422996369    0.1023847401985861    0.5259500625638234 O
   0.9361131765776325    0.4290195255635221    0.5205229420695509 O
   0.2336411827357372    0.9388097240550345    0.7234836925305275 O
   0.2368383777251810    0.9378181427516685    0.2220587787730421 O
   0.7621449070246149    0.0710333251635964    0.4751304253516889 O
   0.7678609252146694    0.0690122314431597    0.9728002027281618 O
   0.7658337596268390    0.4015775921155166    0.4736758689379305 O
   0.7612822728688297    0.3993251357121524    0.9731071301219082 O
   0.7621376532537197    0.7407828702924993    0.4724822932392198 O
   0.7649840342736165    0.7298884083135959    0.9793321845187790 O
   0.0737100871680112    0.2371870099704922    0.2700971758732205 O
   0.0648334358440730    0.2330718741200961    0.7814092061015184 O
   0.0662952939036682    0.5667627084382020    0.2778657105280536 O
   0.0686004153237817    0.5736972170335731    0.7712598900430196 O
   0.0756010656547585    0.8990715593208689    0.2777571836406298 O
   0.0743951942368030    0.8991574008656230    0.7734512128996697 O
   0.4046156797810366    0.2353794677137254    0.2744779249138742 O
   0.3981055730779283    0.2371737397719150    0.7726798578853264 O
   0.3986397383691653    0.5670847448423119    0.2759618233490460 O
   0.4080862811622019    0.5665599442724304    0.7800301313817258 O
   0.3988862999541281    0.8969820924436531    0.2783091608467572 O
   0.3981024214030127    0.8991109944877473    0.7699668407524637 O
   0.7299407702772691    0.2327616497337585    0.2759676229811614 O
   0.7363129229950871    0.5649062366797737    0.2725139646281626 O
   0.7299819534006246    0.5676514771190093    0.7782352789816387 O
   0.7325795275787499    0.9026773178905606    0.2723788167833222 O
   0.7372773634941957    0.9068217629573611    0.7708270981108921 O
   0.2396555383971461    0.2656828723479654    0.2281188633209916 O
   0.2316302843472164    0.2656869760380756    0.7296173719140605 O
   0.2343239606052224    0.6030274254092278    0.2268225491403468 O
   0.2440167966696891    0.5966272041983780    0.7275007418375979 O
   0.4339959316548935    0.7328415417061787    0.4711479563977873 O
   0.2704476470609662    0.4313856629799803    0.7248224499347677 O
   1.0369887194962655    0.9936204483527263    0.6251813107929332 O
   0.2622320149793448    0.1010534777279933    0.7245857725448691 O
   0.7032202236560463    0.3217415393208724    0.1232035930229264 O
   0.7012574827815838    0.3268340964110459    0.6245627720125244 O
   0.7012149646245606    0.6566958487165669    0.1265595609717639 O
   0.7051246840100373    0.6614975118936975    0.6251917581395350 O
   0.6907955652050295    0.9934838848536385    0.1294737994541595 O
   0.6901126699387701    0.9912838589005576    0.6239219636140684 O
   1.0234579618611950    0.3313773545969524    0.1253678080746569 O
   0.2668006487257407    0.4325102762573255    0.2284738704790715 O
   1.0370738588511739    0.6582561684443055    0.1266483776007135 O
   1.0268122830852811    0.6612060282864705    0.6215151548551023 O
   1.0369384932097203    0.9908625064169175    0.1291331236892961 O
   0.9359884808197677    0.7624325689719939    0.0305190325922483 O
   0.1946289182496050    0.1811791919100087    0.3747221412569053 O
   0.1931148257736973    0.1729908948086426    0.8736606126135568 O
   0.2025990520973080    0.5088622723863878    0.3773103092312809 O
   0.1960092114590172    0.5131997658741265    0.8750729206485124 O
   0.2059331759438670    0.8466658979180869    0.3747667807431155 O
   0.2038421125660539    0.8450265115146058    0.8781536711870819 O
   0.5346191477060251    0.1737039634025443    0.3732217449504908 O
   0.3618219446185247    0.9962907007940707    0.6226196966031806 O
   0.3706032330316359    0.9944509741488362    0.1280360975329945 O
   0.3703226672923936    0.6560769299074992    0.6250954707189592 O
   0.3629442899389680    0.6589343180213542    0.1224046289390541 O
   0.1377560335960551    0.1657411054051741    0.1246949272205645 O
   0.1376666437073591    0.1606793624844280    0.6278664785740211 O
   0.1438676743630509    0.4923404578304986    0.1221660100229860 O
   0.1368228781444134    0.4939877598162353    0.6245028734028059 O
   0.1356342748910630    0.8259954284091379    0.1264443118336269 O
   0.1417583748425936    0.8247338835250876    0.6234434616068891 O
   0.4693114820455674    0.1590367485883144    0.1266539960669803 O
   0.4719156157882923    0.1572807658220611    0.6247152941102760 O
   0.4683387122983343    0.4918221844621684    0.1244553250274626 O
   0.5327024849231375    0.1721469312670728    0.8742965261282600 O
   0.4645248822842639    0.4891893906986052    0.6248768494342259 O
   0.4686482144887570    0.8215776165561117    0.6223721769903410 O
   0.7970770548032298    0.1568861100906110    0.1217316205194245 O
   0.8069416238887737    0.1565673328359017    0.6249964908237544 O
   0.7950156857774819    0.4859078386191718    0.1233645372233018 O
   0.8086243174558958    0.4890636252157687    0.6223396220835644 O
   0.8026609385279508    0.8253232103968388    0.1253873416369370 O
   0.8030835241226256    0.8245809026914270    0.6244487737171969 O
   0.3635474389323745    0.3250880640676190    0.1241760153546982 O
   0.3654767362175801    0.3232008114231785    0.6266843578705700 O
   0.4627344941423874    0.8236141450708750    0.1246269852152732 O
   0.5284437639707281    0.5086909310106359    0.3750547057604579 O
   1.0261145979935165    0.3245720252112332    0.6279691508276976 O
   0.5306438334222735    0.8380756131370545    0.3743120977392013 O
   0.6309323539729769    0.6774809653076495    0.8765930692399501 O
   0.2322752253544884    0.2650070376135520    0.0149621441303323 O
   0.2348779702824178    0.2651537457986111    0.5255687081001010 O
   0.2378568028551004    0.6033696871525879    0.0220776528569400 O
   0.2366829157535779    0.5951979003954054    0.5254983930614702 O
   0.2349723939978926    0.9390697316629245    0.0304668201496434 O
   0.2330604603260240    0.9379916811568021    0.5258555595510311 O
   0.5709909348561363    0.2677080817463370    0.0261486481133596 O
   0.5660567779253221    0.2687406239502949    0.5242320221890071 O
   0.6326274081288332    0.6757651290324772    0.3715625939418278 O
   0.5666550878403755    0.6005375135226182    0.0254948835378683 O
   0.5663401764699083    0.9318807797693239    0.0287277966899625 O
   0.5396542619141420    0.5098325597761765    0.8754825103220990 O
   0.8941468666751535    0.2651353619277614    0.0276372238557383 O
   0.8973939610147800    0.2630585043282381    0.5193191912336188 O
   0.8953198414783110    0.5995650644908137    0.0284826381422315 O
   0.8980672882986717    0.5998059200467087    0.5262795507511275 O
   0.9111317542147503    0.9290000444773221    0.0244974283291727 O
   0.9042423385450483    0.9263988937151907    0.5232509122249485 O
   0.2674870250057053    0.1047537571563777    0.2233089022028175 O
   0.5623929291246790    0.6014469302643682    0.5268269088893912 O
   0.6374847850497779    0.3446844541292908    0.8752350714709878 O
   0.5648248017608709    0.9271987923985900    0.5206520621965205 O
   0.6395440322463986    0.0028143342426838    0.8768936361145888 O
   0.6369779098872123    0.3410211578628963    0.3739469947423086 O
   0.5240428248483930    0.8402112764898764    0.8794525608130169 O
   0.8600663760279029    0.1716058142088490    0.3726664610948506 O
   0.8686913308619431    0.1743720064148099    0.8785056354268318 O
   0.8681767827334747    0.5076777012217276    0.3755708876083984 O
   0.8574773518930577    0.5092294908470906    0.8772626780207970 O
   0.8692050613419601    0.8381961897192443    0.3730852164166499 O
   0.8571856577146888    0.8424590799818439    0.8785613640095975 O
  -0.0209100126773707    0.0051871993036035    0.3691264240958582 O
  -0.0266181514886789    0.0054221751000423    0.8769008269498686 O
   0.9304793124280688    0.7616865500759281    0.5254299050754589 O
  -0.0370169380329208    0.3411776715997055    0.8748054080576148 O
   0.6362565718925886    0.0099471310581802    0.3699888982882881 O
  -0.0316014361382373    0.3375438557253170    0.3717089934826478 O
   0.2994207726472218    0.6767651161933649    0.3746789923773291 O
   0.2985415116612598    0.3414082388333130    0.8717627643152428 O
   0.2994098611282913    0.6750177212674939    0.8784194007579554 O
   0.3046472742039370    0.0096433805686184    0.8763447316244284 O
   0.2947267308353381    0.0109193108481273    0.3745029829057032 O
  -0.0377327139496229    0.6725530902029105    0.8773396275923218 O
  -0.0251104205638732    0.6774029399511042    0.3748786459240084 O
   0.2980186229256915    0.3417837324728981    0.3768989213690641 O
   0.6610365176423713    0.8529710240972110    0.1281896614719562 Sm
   0.6626265439330825    0.8497139252341719    0.6221467245842125 Sm
   0.8417663187158763    0.3510043401140107    0.6229669303649736 Sm
   0.1601282068286926    0.6462529354239268    0.3743935838375841 Sm
   0.5022325217297632    0.6860929534704798    0.1247886929731946 Sm
   0.8260584676377322    0.3119897241628098    0.3742732966419747 Sm
   0.3355499197372751    0.4807259349280630    0.8736497260437749 Sm
   0.8320824621560138    0.9832249570836574    0.8746816154812231 Sm
   0.5037091382386923    0.3535152182608138    0.1236848662002725 Sm
   0.3321332104095207    0.1847983764392405    0.6266454521092506 Sm
   0.3417428276211265    0.8127799194950457    0.8751569504613544 Sm
   0.1755799065119279    0.6890675567502820    0.1236535871193695 Sm
   0.6703345431343356    0.8156421629505299    0.3734911776561434 Sm
   0.8238970022747929    0.3118663291800627    0.8736956252023108 Sm
   0.5057550290849657    0.6869669609409439    0.6259484054320132 Y
   0.8380275665502092    0.3527385246885321    0.1265429015469240 Y
   0.1734696700021628    0.0243967939016640    0.6237644459952595 Y
   0.8382333802758470    0.6876412881758512    0.1245253983915470 Y
   0.4968068183336324    0.6436975293009769    0.8760726055471353 Y
   0.1618741417703192    0.3159351874820914    0.3738510027962353 Y
   0.1594762019168534    0.3107894393491101    0.8748562745042701 Y
   0.1627248693665735    0.6490662860146519    0.8778941272599121 Y
   0.1603445469703323    0.9797822363535811    0.3766563971656289 Y
   0.0043056370032206    0.1437877008484994    0.8768317927830587 Y
   0.6712410718726730    0.1461632165705294    0.3735436295507360 Y
   0.6745315321782119    0.4789277767211904    0.8756133649982504 Y
   0.8414446838080424    0.6876157784223424    0.6267068595881461 Y
   0.3398044207336346    0.8102774983507511    0.3758553100810758 Y
