Na27 Sr14 La10 Hf4 Mg6 Ta1 Ti69 Bi29 O240
1.0
  15.7749170397522995   -0.0034943022229495   -0.0013196942717089
  -0.0034949513933710   15.7820875938193872    0.0018678170795735
  -0.0016501243903279    0.0023351402698233   19.7179786730733753
Bi Hf La Mg Na O Sr Ta Ti
29 4 10 6 27 240 14 1 69
direct
   0.0170087378575466    0.0189405338473135   -0.0104131263488019 Bi
   0.7690312781421837    0.4888663257911016    0.1917493109264454 Bi
   0.7684783540949138    0.5072184826623819   -0.0120341653616167 Bi
   0.7579805756077757    0.2743087592895725    0.7881262714047099 Bi
   0.7795313698103141    0.2646670639566780    0.6000825279843934 Bi
   0.7661835561978279    0.2344531445116669    0.4101304668736333 Bi
   0.7482953473937624    0.0173125698614433    0.6209670998589644 Bi
   0.7417558364770628   -0.0080518920207150    0.4157355132553538 Bi
   0.2313642401809810    0.7550657098241920    0.6140058756036056 Bi
   0.2417005583919112    0.0295176171043336    0.7891047761122523 Bi
   0.7456166156906869   -0.0284423317276884    0.1870578565840731 Bi
   0.4909157476519285   -0.0282472148114927    0.2010152849853915 Bi
   0.4779534267343407    0.7607679448110999    0.6045784504107391 Bi
   0.4989646081049375    0.7310496015241221    0.2182366563333266 Bi
   0.5017869905964429    0.0271105703401884    0.8148173553031903 Bi
   0.4737456987005629    0.2609151128949756   -0.0107454458838478 Bi
   0.5113545658724709    0.2210128025052968    0.1917292389604315 Bi
   0.4999107832004084    0.2716335767556378    0.6213952711323317 Bi
   0.4806123798274354    0.7467141494228035   -0.0159508088402531 Bi
   0.7713386491161787   -0.0091060297613363   -0.0180267604046575 Bi
   0.2570677672045211    0.0173254512957126    0.5814499439989284 Bi
   0.4700554862976570    0.4966848639667278    0.3953523256257230 Bi
   0.0230358055204016    0.4817710408373073    0.4009653482575546 Bi
   0.7517573753963718    0.7515643872297771   -0.0120667451892763 Bi
   0.7711827495243130    0.7401379630427345    0.2033018879038916 Bi
   0.0248623238128711   -0.0005019621455349    0.2134540044233063 Bi
   0.0143239263534782    0.7508971013894677    0.2122160977357961 Bi
   0.0268218413897746    0.0197184533240029    0.5963231526994460 Bi
   0.7499458544093156    0.5253158746808479    0.6121820998887091 Bi
   0.8721554914229999    0.1257221483382043    0.0989666254351854 Hf
   0.6274214465753347    0.3725869606042457    0.9017322029026301 Hf
   0.3710081274364894    0.1196153490135951    0.2994720658272935 Hf
   0.1241568255484808    0.3767638317083482    0.7004721477083404 Hf
   0.4962456716098584    0.5060074541662477    0.6013106167430349 La
   0.5033650111731179    0.2468856548697150    0.3974915391129132 La
   0.2399203199225072    0.2483714635219217    0.1985342336314250 La
   0.0001418045841714    0.7486196062725408    0.6015724084208486 La
   0.5075184739169407    0.4980473247632203    0.2057394840156174 La
   0.0035899714278217    0.7461647119307554    0.4047393046157518 La
   0.7470666649005741    0.7547191742740775    0.6044519991687830 La
   0.7534384810160705    0.2441804657382402    0.2039017087576938 La
   0.2473287295307979    0.4971178959081654    0.0062941178112332 La
   0.2472182382107451    0.7477158185684833    0.0042324494156230 La
   0.1218063622797738    0.1274053761621863    0.3022447019746503 Mg
   0.6272243240855474    0.3773646976161254    0.6986243672619329 Mg
   0.3692723439883139    0.3773271797238335    0.8965887492150502 Mg
   0.1226992841271469    0.1325224791010627    0.7011763931334671 Mg
   0.1237405362770491    0.1303588902996192    0.4963477215657385 Mg
   0.3709869628804842    0.6240845630542619    0.3004363119326386 Mg
   0.7447084914851442    0.7605411852943673    0.8029197980991677 Na
   0.7584167569053661    0.2564235611444897    0.0001692679819975 Na
   0.7455484412532907   -0.0002796606509412    0.7986333114583121 Na
   0.7517260370936103    0.4961302364811356    0.4032507573439754 Na
   0.7505682092446182    0.7499246742443776    0.4063219896890266 Na
   0.0097412841854396    0.4977194423754893   -0.0005048255230435 Na
   0.0044949891659754    0.2603961071964317    0.7952044580088328 Na
   0.0143361770730466    0.2606827382467563   -0.0038878298849704 Na
   0.0146002806551466    0.0164866773526068    0.4014851296908666 Na
   0.0020486542379100    0.5091915418388514    0.5967945094683058 Na
  -0.0006102093631379    0.4987492693797541    0.8060457999916394 Na
   0.0047159031001350    0.7476375119869729    0.0038820980463310 Na
   0.0093292169851165    0.2520070574456573    0.6014157838585440 Na
   0.0063400148293387    0.7481864486158617    0.8068643280044827 Na
   0.2460910606896933   -0.0048494200823088    0.1985984761289644 Na
   0.2483389990278446    0.2583855463336276    0.7997476610295133 Na
   0.2490147253845632    0.4943735667994814    0.2009590992726560 Na
   0.2172262205116827    0.0154718012740208    0.3999753828996119 Na
   0.2395956124105246    0.5023863852860468    0.6053349938614837 Na
   0.2454404627582489    0.4914134127055082    0.8030588655491674 Na
   0.4893454969540864    0.2534280865326911    0.8009540674513477 Na
   0.4980796797733781    0.0056548448685550    0.6034256202376593 Na
   0.2520919851306780    0.7496238940232525    0.4055907683609211 Na
   0.0099206518488078    0.2399158021089332    0.3974033379597646 Na
   0.5037332585348705    0.0071188702282679   -0.0022366606184067 Na
   0.0033368271209424    0.2479389026110500    0.2038408182778730 Na
   0.5036979425464526   -0.0054292253284810    0.4039527913237302 Na
   0.6234286591995669    0.6280604244718415    0.7991764286140766 O
   0.8465425051340034    0.7467509339069313    0.8985108565266161 O
   0.6323591311320454    0.6164535890800669    0.5979837569229506 O
   0.6336326773923743    0.6303647935361297    0.3993530315095541 O
   0.6045760978354160    0.6301806744145946    0.1987445666856025 O
   0.6044988127084556    0.1284894124429216    0.3983747304278698 O
   0.6154688993275274    0.1224204479747092    0.7996368048517349 O
   0.6508474446993630    0.3686077029897827    0.7994316500176615 O
   0.5986814081589424    0.3753116000009915    0.5958241882330007 O
   0.6393646719414915    0.1117376630550170    0.5979557398204201 O
   0.6389978922752245    0.8730234868042512   -0.0011700719976430 O
   0.6485549954738266    0.3757503428066523    0.3989428912398280 O
   0.6078600082911566    0.3729918901119086    0.2029554424340161 O
   0.6190259202773394    0.3848583416684275    0.0062818814483565 O
   0.6321430047951648    0.6185806922214461    0.0003698479504382 O
   0.6100788367489931    0.8915669014373714    0.1974581982587029 O
   0.1417856352394199    0.3708120583664424    0.8042017265646196 O
   0.6436031385463050    0.8755957622229970    0.5981932920975750 O
   0.8499820560772864    0.8601111748309933    0.0020818080548390 O
   0.8827359650514568    0.6181332869931059    0.8016778693962205 O
   0.8735607198426244    0.6166467725972673    0.5992078369930720 O
   0.8757675034839545    0.6474280923142196    0.4004182804348379 O
   0.8677844754944370    0.6083680372093062    0.1973224434936781 O
   0.8542758844010822    0.6364748563012410    0.0022026379301587 O
   0.8561120876156210    0.3752462655402512    0.8008749795551368 O
   0.8881814751847125    0.3666804492504365    0.5994989315457313 O
   0.6253878501706934    0.8685019423489453    0.3987428595202054 O
   0.8557927452019475    0.3616457583289748    0.4003246746162658 O
   0.8761888316046524    0.3610905136031137    0.0036966414378770 O
   0.8890903843011645    0.1196534018629295    0.8006841705516219 O
   0.6351688199870582    0.1417372531463604    0.2000033629430630 O
   0.8492552970371957    0.1177954467249690    0.5964288105369649 O
   0.8839624959846409    0.1471928202732350    0.3999124028372156 O
   0.8510545402130486    0.1106865623409559    0.2034339664038801 O
   0.8574927618676571    0.1274682095375792   -0.0048361935998069 O
   0.6130387733891658    0.8654806555050464    0.7977875305420581 O
   0.8794579213003414    0.4011191284092812    0.2016590064506048 O
   0.6181660317925388    0.1208929143203082   -0.0029329109189507 O
   0.3744810129342364    0.6060405726784527    0.4026679941724380 O
   0.3656830938986058    0.8511573060793094    0.5972718097525918 O
   0.1188052572562235    0.8603306076861580    0.1978252569011228 O
   0.1422827119620309    0.8756754122749382   -0.0014017993559127 O
   0.1173565142100889    0.6398943810973640    0.8014452002114454 O
   0.1301602879565600    0.1132058425601186   -0.0022515275501691 O
   0.1252967752261218    0.6301543760416481    0.5987720852640314 O
   0.8748960279401957    0.8986729113130146    0.1959494442553839 O
   0.1195499646076259    0.1230949639975914    0.1951180908168779 O
   0.1120616475970645    0.8753501527316588    0.3981304194359085 O
   0.1188084973272514    0.6295121440851611    0.3983975713476605 O
   0.1405649563453260    0.1044784992558351    0.6003549489880061 O
   0.1194420924803669    0.1166142914362509    0.8044789583887160 O
   0.1207816860176326    0.3818256513237788    0.0032512026392246 O
   0.1252769515945033    0.3804314297571099    0.1998903188043998 O
   0.1299946489810118    0.3829238606366481    0.3985454475989738 O
   0.1117734115950380    0.6376799080591116    0.1983455581966307 O
   0.1428257931133408    0.6179657622747535   -0.0015961616352285 O
   0.1176302726185673    0.1331570052468611    0.3998636496886310 O
   0.1354421742775278    0.8662481315967847    0.5978791979192117 O
   0.1132328782600011    0.8611090747702717    0.8006669273133510 O
   0.3782050233723013    0.1158014144287420    0.0003551527702954 O
   0.3879590260071948    0.8838243128824851    0.4011796159584849 O
   0.3886393436826618    0.8657083620028340    0.1952985342491052 O
   0.3608535894992657    0.8791907177649186   -0.0020731443110023 O
   0.3809742744503167    0.6286469834145721    0.7991188533118356 O
   0.3866729904664112    0.6334587259681035    0.5991442443222338 O
   0.1042517102199624    0.3954326862910478    0.5968665432475170 O
   0.3853114978010648    0.6378556672795341    0.1966052726427773 O
   0.3598273572690905    0.6181828838466532   -0.0005155242725096 O
   0.3593360499812810    0.3786380255749275    0.7957251851479147 O
   0.3971907979951798    0.3691454810993631    0.5943437871969032 O
   0.3658194360065280    0.3963745231935929    0.4003974838733331 O
   0.3739212996337797    0.3548693830956273    0.2010130240953655 O
   0.3871258808958557    0.3779468485732612    0.0027015185186292 O
   0.3811439080898190    0.1142066864929503    0.8010051913770756 O
   0.3547292049014013    0.1249050962485124    0.6022884253455403 O
   0.3992015219514502    0.1144478387118241    0.4026360265737311 O
   0.3681709990479524    0.1513066274381528    0.1960581987084355 O
   0.3849531142887684    0.8670656202777346    0.7984293376315549 O
   0.8825785560499244    0.8508407330968508    0.3966572739407889 O
   0.2512642874982093    0.6087962512967015    0.5022326177293112 O
   0.8905783032313042    0.8723561493271922    0.8011493744536757 O
   0.5014018906053340    0.8975230851062144    0.2995371449422617 O
   0.4976182387820746    0.9018567065670007    0.0910153021386455 O
   0.5006464846874792    0.6441919633114759    0.9064038938633784 O
   0.5037381508787501    0.6070980544832868    0.6987507474184207 O
   0.5057949666254276    0.6398878378546879    0.4996734165294931 O
   0.5043802441973042    0.6221174661677468    0.3013111466198025 O
   0.4950863359680468    0.6033363780745781    0.0945518274749852 O
   0.5038725693144125    0.8567349275378433    0.5066506942989367 O
   0.5009025870254346    0.3490230718120205    0.8953838446866867 O
   0.5029773165300415    0.3586955989933157    0.4785149852153043 O
   0.5035522760870840    0.3876895198530885    0.3141520996728537 O
   0.4955314981247392    0.4049733807997912    0.1073621056335341 O
   0.5005126104383704    0.1344754290198312    0.8929603939908300 O
   0.4984376867530189    0.1081573572924194    0.6950112435567699 O
   0.5017281996240619    0.1420460248769359    0.5131574004503678 O
   0.5043799230985584    0.1162403978573777    0.2817912991050654 O
   0.4960902016582251    0.3798996641410043    0.7015408861268921 O
   0.4999835677986867    0.8807269856700430    0.6823025324407825 O
   0.4999448124880297    0.8488909196152262    0.9070912972928807 O
   0.7432367222900036    0.1592027366186665    0.0960511598050710 O
   0.7538912495689738    0.8857860614795797    0.4903239367735929 O
   0.7485653204294513    0.8633057214874669    0.2866317390039649 O
   0.7408107635927742    0.8584709971213987    0.1170315268328918 O
   0.7492160673372049    0.6008228746195071    0.8987352804393327 O
   0.7539745789731117    0.6342843172227564    0.6922032192402208 O
   0.7531084888212140    0.6054108397518199    0.5037834525134335 O
   0.7491300915262108    0.6458491796152709    0.2913763729410632 O
   0.7430787742236324    0.6500586664407981    0.1085568451398843 O
   0.7562439052089941    0.4003314442340893    0.9099063066419983 O
   0.7560231761729830    0.3559696156109587    0.6911229170701453 O
   0.7510035763521036    0.3825995453124416    0.5197402147320120 O
   0.7498119795580201    0.3660604494998187    0.2829665704760516 O
   0.7451953690979943    0.3629691786998563    0.1164166635083871 O
   0.7510159592095700    0.0953698721966429    0.8930052378900009 O
   0.7477281514354762    0.1242509329872008    0.7024403918291282 O
   0.7482146013829430    0.1126552338890037    0.4794507025101865 O
   0.7481028489842813    0.1482870245583691    0.3114840899623679 O
   0.5002804510936627    0.1145653784624451    0.1127738999540305 O
   0.8666710137561713    0.8769047256227291    0.5986970831470285 O
   0.2509784929990004    0.8892442734704672    0.8889016274640729 O
   0.2511112488242320    0.8930025450425714    0.4909859345506620 O
  -0.0027592076958072    0.8871134480723445    0.0897578432111331 O
  -0.0011358895616452    0.6451950150517080    0.9097948451111375 O
   0.0006347864911592    0.6137998213060467    0.6937209204725587 O
  -0.0002282821732341    0.6482108161978212    0.5024188336552119 O
  -0.0071971096051249    0.6244565196831129    0.2968003987020901 O
  -0.0037939701109760    0.6084799384292385    0.0912562384254764 O
  -0.0024311088849856    0.3598431494749846    0.8949117925001283 O
  -0.0041767441126267    0.8900782453112599    0.2904556392285865 O
  -0.0041508512031684    0.3926242366616053    0.7184590701027063 O
  -0.0035215343272401    0.3902540764882164    0.3071052953231436 O
  -0.0008643133821625    0.3937495311260347    0.1021723336017853 O
  -0.0022751576991711    0.1295667477047510    0.9133077893751429 O
  -0.0053948689719173    0.1059569340930330    0.6878333067261940 O
  -0.0046960730261505    0.1267457669736738    0.5237002711175254 O
  -0.0094182044489008    0.0992008458633386    0.2896747318937451 O
  -0.0001782238881245    0.1124988760992491    0.0887644305200109 O
  -0.0007317340673785    0.3679588274432375    0.4812624474638030 O
  -0.0013344775420114    0.8499424244938061    0.5042850361693554 O
   0.0007647754184379    0.8827567115827050    0.6902654646699052 O
  -0.0006126304535606    0.8488247207299089    0.9107251250697439 O
   0.2499576374938847    0.8562330290251742    0.3044120795001494 O
   0.2498680803158278    0.8574967122004349    0.1034630129460271 O
   0.2486815576624137    0.6045589270190026    0.8919438162532697 O
   0.2531162303923536    0.6471478161456323    0.6996337706569635 O
   0.8891770200360946    0.7467557152697983    0.6907357744985697 O
   0.2439820373455093    0.6352532948036447    0.2959669058796844 O
   0.2473138299720661    0.6459272647592267    0.1037099031114233 O
   0.2438381583706313    0.3939235838797676    0.9165198362781821 O
   0.2538431417005401    0.3684532040318912    0.6811987195596705 O
   0.2515370094001479    0.3904941713690168    0.5085928497865374 O
   0.2497431383612132    0.3625096318910888    0.2968012495651311 O
   0.2499944516305648    0.3618838375187132    0.0982660635571956 O
   0.2505049929714736    0.1062175869901442    0.8959852501750368 O
   0.2538521178491721    0.1353048357023229    0.7175664523056560 O
   0.2584184377006580    0.1059261932769516    0.4937623285988311 O
   0.2495924296383738    0.1492626768372808    0.2973147905463710 O
   0.2494864547321866    0.1430468351353829    0.0981777699332161 O
   0.2522772998908811    0.8470446547142405    0.7032646123262615 O
   0.8589801780962498    0.7487315941674032    0.5133479103519732 O
   0.3616684608685397    0.7488669037409591    0.9113012752868959 O
   0.8852673104301209    0.7501320028239309    0.1159247269554480 O
   0.1490157010406468    0.7484472030709253    0.9073997634797810 O
   0.3557575377566629    0.0021151804713436    0.1081661825637557 O
   0.3590864224721010   -0.0056935019436320    0.2843678434097475 O
   0.3895784909006987   -0.0036344918970377    0.5149879672605002 O
   0.3534593341560091   -0.0060147750911896    0.6972219103375036 O
   0.3975393504872200   -0.0035755346474205    0.8983296787421367 O
   0.3919701135401181    0.2523599513157193    0.0872312301565177 O
   0.1164560542023817    0.7489602758015014    0.6884422778318592 O
   0.3906639578310951    0.2537311385879104    0.3177197162858173 O
   0.3873282812098822    0.2476421983395338    0.6979259908416816 O
   0.3633083075381304    0.2438661046115019    0.9117462925039037 O
   0.3515623830902890    0.5009609952160172    0.1052503885324861 O
   0.3814803296185944    0.4939106014208975    0.2900739529235594 O
   0.4007040417529995    0.4979045141363021    0.5056134189265461 O
   0.3713133359929711    0.5030935263656784    0.6920665208381591 O
   0.3952417838570630    0.5030496680323392    0.8985414431949010 O
   0.3618521839405366    0.2487408478621071    0.4894255832838417 O
   0.3846856772895090    0.7518852642488261    0.0861722405524594 O
   0.1394366769702431    0.7498386442246303    0.4957931669332751 O
   0.1099419719454235    0.7486323811357034    0.0894786929222439 O
   0.8858288993511150    0.7550872342323128    0.2786746007873474 O
   0.1350732000824921   -0.0042920419310251    0.1007267251334251 O
   0.1331673627409743   -0.0067751002514301    0.2877533469841599 O
   0.1096062406511549   -0.0071237617131830    0.5025437544714960 O
   0.1387980407844427   -0.0082054161342436    0.7083138732941572 O
   0.1030884276350977   -0.0087501434337331    0.9000155329232731 O
   0.1168348681164340    0.2509206743509124    0.1006185279967567 O
   0.1004152225559189    0.7526583192543989    0.3022870313772920 O
   0.1114763811438669    0.2560330165128047    0.2914022648274469 O
   0.1136177246689660    0.2538006477758307    0.6887214097260288 O
   0.1375849157109367    0.2490332687083053    0.9048772407731112 O
   0.1414680462811415    0.5035525881416186    0.1025669888478000 O
   0.1237923882635975    0.5046708396332160    0.3027042823036134 O
   0.1114209751395763    0.5056291327822742    0.4901605527866328 O
   0.1456598045742198    0.5086050426795046    0.7082376750058225 O
   0.1045846875075616    0.5024690022789050    0.8966038014772650 O
   0.1390820165969209    0.2583691488800915    0.5102544636056719 O
   0.3933413880692861    0.7564805890345248    0.3026832066139726 O
   0.7476203123477346    0.8918529117288735    0.8931912103950596 O
   0.3988167591866943    0.7467867221144679    0.7002697093703280 O
   0.8458033005768119   -0.0041760644252898    0.0894985306776067 O
   0.8534188729030799   -0.0010061198495610    0.3195997394391022 O
   0.8828154898711201   -0.0019001655801809    0.4838469296505420 O
   0.8578745028146429   -0.0044529913577103    0.7032940170685748 O
   0.8910103817200621   -0.0109535808729765    0.9150174088650559 O
   0.8864494095608264    0.2546793468231855    0.1209563958900143 O
   0.8827420617067502    0.2539051786154888    0.2846374290867118 O
   0.6139551196131369    0.7480540250290336    0.6898056892647928 O
   0.8593038168111502    0.2477710604505524    0.5043297664209887 O
   0.8551919316047472    0.2498870293890182    0.8928879671097933 O
   0.8497840172508930    0.5014132587881054    0.0932761946908671 O
   0.8584010063574679    0.5042702444435689    0.3131776562047831 O
   0.8914139076053677    0.4995192820482386    0.4900910662788518 O
   0.8572329143602403    0.4997670766847954    0.6980646761615232 O
   0.3667250865716680    0.7473782874358673    0.4882202642056045 O
   0.8883834130874875    0.5023993838344740    0.9174135440194492 O
   0.8797394041374645    0.2454619252100843    0.6974046511781767 O
   0.6461354454234820    0.7488893774853211    0.5047507703987750 O
   0.6467745834644697    0.7466765564055864    0.9016240858292951 O
   0.5961988037927911    0.7524458961319557    0.0964250952977318 O
   0.7535045458707733    0.8539042904042866    0.7043217882176465 O
   0.6498538758616086    0.0060878918832153    0.0979169003144468 O
   0.6459777750751613    0.0023744134143124    0.3045205939152835 O
   0.6194504787130929   -0.0020290628540447    0.4898836474543009 O
   0.6395252460882911   -0.0059072314730894    0.7022715592431810 O
   0.6030505896595995   -0.0051166819742730    0.8955821547523349 O
   0.6073502679950539    0.7547107148122449    0.2956084190981642 O
   0.6110088884798743    0.2532432068447716    0.3031149131266814 O
   0.5974865305477479    0.2555568540547753    0.0981588335691298 O
   0.6111491316234358    0.2440291115610944    0.6956622541286427 O
   0.6570580691803010    0.2438985698527912    0.9038695008489829 O
   0.6405443241062279    0.5044220060263256    0.1111494480837439 O
   0.6341168364719856    0.5034907643227380    0.2925890163428500 O
   0.6080310085079362    0.4992643292223076    0.4987905986916851 O
   0.6432310089070857    0.5041932614134124    0.6973110735231808 O
   0.6040034272055819    0.5020844127934471    0.8933214370115055 O
   0.6416722197179534    0.2469569921349940    0.4967317313152463 O
   0.7508136752391300    0.5036558400335205    0.7982238954968254 Sr
   0.5009368728563138    0.7479360897770989    0.8003942224133864 Sr
   0.4990431432847993    0.7490564975569970    0.4022077565472003 Sr
   0.5009399876573054    0.5006944462267056   -0.0019125814842969 Sr
   0.4951583678782393    0.4963976554949527    0.7981615192167908 Sr
   0.2477191778265875    0.7476613257111332    0.8056752452292945 Sr
   0.2445807198774559    0.2548655437199692    0.0018624861730733 Sr
   0.2439025605876809    0.5019213563109179    0.4000945972393380 Sr
   0.2473210589222000    0.2464288798511616    0.6029284391808791 Sr
   0.2331283153902578    0.2461785847096220    0.3994537650744258 Sr
   0.2593254767685505    0.7498274342689986    0.2037129712301438 Sr
   0.2500685535105940    0.0014335087416513    0.0018311769453379 Sr
   0.0077844636257984    0.5019786407316633    0.2018892570684981 Sr
   0.0018029743743927    0.0009828714756121    0.7985280009832287 Sr
   0.6278550266750929    0.3771830893008839    0.4971848150507867 Ta
   0.3790783362424572    0.3740968766092409    0.1025406263644510 Ti
   0.1288850498881539    0.8760952679392822    0.4977135132852220 Ti
   0.3761843797119989    0.1293536054722081    0.6988001321127655 Ti
   0.3790641273661635    0.1281726981270604    0.4953321976326991 Ti
   0.3729366991613645    0.1176579079330469    0.1010022045386890 Ti
   0.1250414934501364    0.8687636194400419    0.9018340412311033 Ti
   0.1183169471553639    0.8745302593078935    0.7063802462644813 Ti
   0.3686954177544534    0.3761461878155075    0.5012760426301573 Ti
   0.3670512696471142    0.3814776457549202    0.7056234619880791 Ti
   0.3702725342455886    0.3714991116641405    0.2967311389084916 Ti
   0.3732557263074407    0.1268120610352745    0.9027173358460232 Ti
   0.1206235415581652    0.6197216474473136    0.7081886587695787 Ti
   0.1288524603748893    0.8754376627036017    0.0989037376388361 Ti
   0.1213557263063804    0.6201698042358683    0.9005882307489440 Ti
   0.1270033241673708    0.6256248567954186    0.5043750252642712 Ti
   0.1301973610023129    0.6238379969728591    0.3028337530130067 Ti
   0.1278467080297865    0.6280496013618186    0.1005270381022078 Ti
   0.1284167070197170    0.3810235640993513    0.8964418505994247 Ti
   0.1248892572192263    0.3726963973554773    0.5075806153907015 Ti
   0.1218607602486743    0.3686102154872400    0.2952668667022865 Ti
   0.1229695408965604    0.3791038289551758    0.0978480533610547 Ti
   0.1252417169332761    0.1356370505469278    0.8980280591135761 Ti
   0.1233911987180936    0.1294562866554932    0.1023037405181281 Ti
   0.3782019788450314    0.6193916639149838    0.1021637957886707 Ti
   0.1336151638318207    0.8761977390992487    0.3057084152145638 Ti
   0.3674383419833540    0.6310495089670569    0.4992957981249009 Ti
   0.6281427319168249    0.6239224130438347    0.8999576492150955 Ti
   0.3666464068951527    0.6138896249322807    0.8969663899433241 Ti
   0.8823515889904608    0.1184648210330022    0.4998625733465719 Ti
   0.8802781829777577    0.1264338668086518    0.7059236492987492 Ti
   0.8727255729190306    0.1363439434513482    0.8989320631001424 Ti
   0.8854830292518483    0.3699535366593213    0.0987961670416138 Ti
   0.8757667560361198    0.3677797855181740    0.3018563492882425 Ti
   0.8830574187767050    0.3818403258938435    0.4953129906279150 Ti
   0.8846191078811109    0.3849455331803583    0.6976150364386303 Ti
   0.8841659922740657    0.3739738492929603    0.9048436877635700 Ti
   0.8829533330294665    0.6252795916170436    0.0981436498813442 Ti
   0.8740373526947006    0.6176277904936599    0.3070330730114177 Ti
   0.8708674786308307    0.6246438441477205    0.4997692119434312 Ti
   0.8832439580119422    0.6287515283118656    0.7042899846027303 Ti
   0.8852718810540561    0.6274589760353675    0.8980577483617803 Ti
   0.8759776178108830    0.8772761398722968    0.3055250421463901 Ti
   0.8764335156417384    0.8740767148144603    0.5034361475775091 Ti
   0.8707776833252721    0.8767539549952718    0.7034733126326341 Ti
   0.8857360296616998    0.8658395939512731    0.8958786710742955 Ti
   0.8744274824987127    0.1134623281074962    0.3011121916832322 Ti
   0.6266646129808550    0.8782736748435971    0.8956907591329840 Ti
   0.6190810572815933    0.8772366680002885    0.7015795082107849 Ti
   0.6212708867863529    0.8729792966668206    0.5046069527056023 Ti
   0.3770835077035797    0.8720106696503113    0.0971722522812925 Ti
   0.3735121839777712    0.8759151352918603    0.3090395361055775 Ti
   0.3705574220977927    0.8818528652393034    0.4979392914226287 Ti
   0.3713147574616739    0.8784879543689340    0.7038881320880870 Ti
   0.3704477069709983    0.8812962190100876    0.8983408563065250 Ti
   0.6311735640788594    0.1208771232506758    0.0921398481168488 Ti
   0.6271753240100856    0.1175240621548500    0.3037701882828545 Ti
   0.6182648475325707    0.1229258683878266    0.5042082262573229 Ti
   0.3694879325315021    0.6255735790070307    0.7012083205670429 Ti
   0.6213401802748392    0.1286541803543983    0.7042900369081653 Ti
   0.6249468697850887    0.3721199480577796    0.1013696554801422 Ti
   0.6281919625123052    0.3711776086989351    0.2999754727408360 Ti
   0.6284317529765973    0.6231713739434109    0.1004652765089706 Ti
   0.6303238905063312    0.6199825311400996    0.3051626489488056 Ti
   0.6230446642446057    0.6286205151591091    0.4975232297140411 Ti
   0.6207216997084699    0.6271512641530159    0.7031771904226677 Ti
   0.6183735162269119    0.8654850407442716    0.0927641718400033 Ti
   0.6263186722230352    0.8722698202949493    0.3045684849176637 Ti
   0.6348314042329416    0.1304334234970099    0.9026543029809564 Ti
   0.8840879024370655    0.8729754032970115    0.1005412486756192 Ti
