La13 Sm13 Eu13 Gd13 Y12 Zr64 O224
1.0
  10.7105833656610816    0.0045123429674834   -0.0008118636282212
   0.0090244903178744   21.4198655641090561    0.0022460834616660
  -0.0016232174106914    0.0022459020214646   21.4212513676048886
Eu Gd La O Sm Y Zr
13 13 13 224 13 12 64
direct
   0.3748097453283153    0.4375143826567877    0.0632600882675000 Eu
   0.1283392498373267    0.1888513122728158    0.4349907642599169 Eu
   0.8757262587282438    0.4385479615807820    0.8140793409802898 Eu
   0.3743005369595147    0.5615699845528480    0.4370698694441879 Eu
   0.8783575388512159    0.8115824734524936    0.4365526581170921 Eu
   0.3721222228475984    0.8131814333758614    0.6887128911785507 Eu
   0.6244496190326941    0.1893796400193660    0.1880947265957971 Eu
   0.6273458139558684    0.9385369579894163    0.9371908815009491 Eu
   0.3754083461771446    0.3125089335593657    0.1879073362247881 Eu
   0.6317720803682896    0.3124926726454623    0.8115633346748089 Eu
   0.8721101758375389    0.0613309248936136    0.6881763021453851 Eu
   0.8771638935590549    0.5596995918057245    0.1888016656179897 Eu
   0.3751550678551756    0.0644760496616124    0.4385552896968454 Eu
   0.6249052236845486    0.4378962340264317    0.4355044632111440 Gd
   0.6260682266655994    0.3140122155257791    0.3113914511320566 Gd
   0.8777310952985249    0.9396613701931024    0.3136936564299053 Gd
   0.6285102381904899    0.5580097656810178    0.0619063232855507 Gd
   0.1276304180193654    0.0635601047180900    0.3130646002291883 Gd
   0.1255262859528761    0.6889930693037692    0.9360096760921853 Gd
   0.1243452148615097    0.6852902463065023    0.4359935378774380 Gd
   0.6237713841146244    0.5605184965562213    0.5612349199123895 Gd
   0.1265815354461268    0.1866715448444661    0.9398162346544040 Gd
   0.8737586549325023    0.0675034603511725    0.1931664782624276 Gd
   0.3742019380516302    0.9398078062292732    0.5646300171653647 Gd
   0.1264440190472993    0.4373836989993805    0.1892894964505697 Gd
   0.3695427034748937    0.6862783659293989    0.3134249068048228 Gd
   0.8763039669189209    0.6875464741455524    0.0616576910399340 La
   0.8749309727392508    0.1863965155451295    0.5611993751210221 La
   0.1251392422261173    0.8122804278721776    0.5623212720086981 La
   0.6249618724920422    0.8120019244575436    0.8143142388738502 La
   0.6250853914365333    0.8122809978937773    0.3126064198779207 La
   0.6260592968974444    0.9389626819443699    0.4394843431967675 La
   0.6215960652399775    0.6867532491755143    0.6869848287908759 La
   0.6220319478539006    0.6844161142250281    0.1875032263649162 La
   0.3785572430551707    0.3128733162311913    0.6863191780043976 La
   0.1236025953861284    0.9377482276493617    0.1865537485904368 La
   0.1246094120523554    0.4386732696705087    0.6873908070260024 La
   0.3776290264987040    0.1868971401259576    0.8139729596498713 La
   0.6248407213560377    0.0628668310729242    0.0629482557120946 La
   0.5368927245524067    0.1261774577887902    0.3738359617700220 O
   0.5420423276408330    0.1246841858725226    0.8757791276163613 O
   0.7520568550523782    0.1261401824800939    0.4768393042796143 O
   0.7506300676023799    0.2330062128225996    0.3747219531795922 O
   0.7523539463263759    0.1252484559179298    0.9813699112111868 O
   0.5298602119537904    0.6260963332062565    0.8743301600075796 O
   0.9660017414914901    0.1247938177132967    0.3739385583266402 O
   0.7509630977814606    0.6244858976056865    0.4803926043136201 O
   0.9638399581510629    0.1244993061877524    0.8743591856249804 O
   0.9673374197960202    0.6238211313780796    0.3748538985460452 O
   0.9673092740214853    0.6245318873263841    0.8750855016814504 O
   0.5369024766508507    0.6248327110850291    0.3743988654776217 O
   0.7482285537884585    0.6238697141602552    0.9794527393578918 O
   0.7893431581731464    0.0016088399749076    0.5004218659491424 O
   0.7514237282242011    0.7279285382700595    0.3752796681406953 O
   0.5020292978472441    0.4986557375695110    0.3564516521564187 O
   0.4969075399305690    0.0015977161785607    0.8564117441520803 O
   0.5002697621003461   -0.0001080545513861    0.3544272739273355 O
   0.0017947478064178    0.5005863503471294    0.8945410109612727 O
   0.0003949885403575    0.4999212980470117    0.3922168424794479 O
  -0.0002760488051498   -0.0001906971906700    0.8931206525360028 O
  -0.0012330123388227   -0.0008298782839182    0.3915876744277885 O
  -0.0014286398124817    0.6060320699176611    0.4996649625205481 O
  -0.0002291384968793    0.6057776539490952   -0.0001773184521320 O
   0.7517610378543734    0.2314054830684190    0.8752565609394705 O
   0.0008571417042631    0.1014722065055460    0.5001687870389482 O
   0.2111773936868796    0.4978457626769286    0.5013740951889132 O
   0.2140915908152996    0.5003220523377651   -0.0005309524791354 O
   0.2135630621584271   -0.0011139016202466    0.5013000093733992 O
   0.2131167062703216    0.0000843058923899   -0.0005622280525438 O
   0.7858400104588056    0.5000328619592694    0.4991480073412438 O
   0.7870195576909779    0.5000183542508098    0.0000604421661681 O
   0.7510256526756978    0.6246418132640088    0.7708884346953102 O
   0.7925750397402591   -0.0004380151458866   -0.0008367434727834 O
   0.7489492386573504    0.7281339289966289    0.8753426422134609 O
   0.0013112964404010    0.1080089172730245   -0.0005660964717256 O
   0.7501134194203418    0.6246473303696713    0.2711668611673200 O
  -0.0007462938850832    0.2512737170248062    0.3548366175491035 O
   0.7519610043551880    0.1247058992348252    0.2700460369571245 O
   0.7109254826374647    0.7487648601138227    0.5009789993754928 O
   0.7080473092831557    0.7501933936194624   -0.0006878566983499 O
   0.7095672288541258    0.2514736637975573    0.4982806830907234 O
   0.7184622862064860    0.2495909196981148    0.0003938062025097 O
   0.2884455378005449    0.7488489091367282    0.4994374241607784 O
   0.2804301851451119    0.7505365010412793    0.0002192768492110 O
   0.2932591809725862    0.2508173394881603    0.5004324785372886 O
   0.2837573069814269    0.2504805683396395    0.0005439727662470 O
   0.2491698757409022    0.9826145530539080    0.8759167851293473 O
   0.2479154259740952    0.9829822827695486    0.3742754200400392 O
   0.2488181659467180    0.4840928549838091    0.8751076312777644 O
   0.2484196388306987    0.4809687318975617    0.3740956757136280 O
   0.2474320188190102    0.8749807540658288    0.9817799103102073 O
   0.2488937569074093    0.8747715259449166    0.4794509678255042 O
   0.2495167503546549    0.3748231481770828    0.9824587742959777 O
   0.5024900262418462    0.3561188347105241   -0.0003827769459057 O
   0.4982064743287684    0.3579500590616054    0.5003373131545031 O
   0.4957200483529350    0.8560083621383301    0.0007697509179732 O
   0.4977860195979854    0.8554100659448538    0.5006530357557689 O
  -0.0008798977245597    0.8968154788680818    0.5000457774088530 O
  -0.0004483108054423    0.8914610868744436   -0.0009521920907608 O
   0.0001761663157738    0.3937253614573825    0.4994745934519205 O
   0.0016642346613779    0.3934182852715494   -0.0000932871068698 O
   0.7490974656837402    0.5190638651606605    0.8754177403968093 O
   0.7512102180947959    0.5172182859563630    0.3747822120707569 O
   0.7527916553798207    0.0187957044857528    0.8742039299503144 O
   0.7477665251579707    0.1263787500931164    0.7691013554286072 O
   0.7510039814924996    0.0192433134097829    0.3734385622673230 O
   0.0026254074735327    0.7488175965205511    0.3557268662600055 O
  -0.0005547623555598    0.2499394227460720    0.8574757106202615 O
   0.5001502934841546    0.5003912085859775    0.8586159882771612 O
   0.4973324502004096    0.7499334001707294    0.8965439817704722 O
   0.4997992777600370    0.7493252634577517    0.3954182970155090 O
   0.5003069279238047    0.2501460543158547    0.8970830514874197 O
   0.4990331876120496    0.2495578754841840    0.3915406674923348 O
  -0.0021526044493639    0.7509529602733845    0.8588039356719137 O
   0.7527946851810821    0.2702309599018338    0.1245758104697417 O
   0.7516224493068183    0.3752276641399818    0.2333396679488929 O
   0.7497605518613959    0.7709654576372591    0.1249628055750378 O
   0.2486627115313972    0.1229708696722925    0.8781474503365924 O
   0.2530366420592342    0.1266270641412942    0.3721840986470569 O
   0.0002031457779170    0.5030801259597401    0.7527607226904726 O
   0.0030534622413644    0.4980964362470555    0.2529438952537290 O
  -0.0033090184228860   -0.0010657489511149    0.7526266551836082 O
  -0.0028548637465791    0.0029501103481416    0.2515782109169026 O
   0.2521638615273852    0.8773348059118757    0.6258681343985317 O
   0.2488292119689202    0.8724039849713435    0.1216416192392933 O
   0.2536448362684942    0.3772873527716129    0.6199711863592401 O
   0.2488327042342353    0.3757596024289349    0.1268005544946897 O
   0.4991357830236718    0.7493852780024793    0.6042306242148946 O
   0.4972918097656687    0.7508313252898431    0.1039660349994477 O
   0.5033342749921401    0.2492364649271228    0.6060209342622680 O
   0.5009663832054170    0.2501702254963614    0.1023335492834793 O
  -0.0007802887290952    0.7493783634088028    0.6452099055506819 O
   0.2461987659314060    0.6237167817829121    0.3733685169389825 O
   0.2465062726000270    0.6259612803586441    0.8737886086833264 O
   0.0027664008274249    0.2495813103081579    0.0001549450999511 O
   0.0024209958426813    0.2512173629813712    0.4973885777316563 O
   0.5089691239261893    0.2484136639958336    0.7486772199443782 O
   0.4995662939433723    0.2504298552560230    0.2523917701199505 O
   0.7484564654445690    0.6224811031934326    0.6226673496078940 O
   0.7487100882050880    0.6205097014304612    0.1237202070250212 O
   0.7419322292415748    0.1241618692268478    0.6258258673945054 O
   0.7543366619900277    0.1259452444923353    0.1278140298242955 O
   0.5015163025009336    0.4979762523014144    0.4998222176722245 O
   0.0020495171778406    0.7499481792924868    0.1453248720067127 O
   0.5009790675010147    0.5004471289181799    0.0006408589395089 O
   0.4946236231767808    0.0003819669313763   -0.0020546324091629 O
   0.7592699346205432    0.8760080079567725    0.8757958389429984 O
   0.7566504456559564    0.8763884820776163    0.3741596710360194 O
   0.7509529245580828    0.3751569029676263    0.8749106932527342 O
   0.7499296662687421    0.3768547935891592    0.3729845835830754 O
   0.0004151247627845    0.7467399878602038    0.4980158588229537 O
   0.0031640882834544    0.7534015969776999   -0.0020789027606188 O
   0.4982394348149483    0.0023750777046335    0.5045793493418540 O
   0.0017530103029956    0.2506457836533919    0.6428748561515734 O
   0.0007101535240036    0.2502009914284371    0.1444300793356170 O
  -0.0009903886948475    0.8575309748581169    0.7508553416496646 O
   0.9643783167027320    0.8732915267323341    0.1232210853010153 O
   0.9605991753969293    0.3746927557039336    0.6235994435610687 O
   0.9633915502647702    0.3747712653237290    0.1247040926440688 O
   0.5387410349386320    0.8755236296100928    0.6251990258448031 O
   0.5355855238081653    0.8757052154985496    0.1244309116288451 O
   0.5384444710246247    0.3762078894064966    0.6234922717927324 O
   0.5455269348261034    0.3746093612341568    0.1255352750481250 O
   0.9611866458550405    0.8759967543139480    0.6259697167569355 O
   0.7491424477135805    0.8759377550259059    0.5217733761854001 O
   0.7497951582294943    0.3751259819470908    0.5170327432697949 O
   0.7518960934460056    0.3748711162268306    0.0162552269242699 O
  -0.0000357001518075    0.6413270833547540    0.7506122866310946 O
   0.0029292516539331    0.6415548719325987    0.2507886744399806 O
   0.0019731161120790    0.1444058611192986    0.7507646672611195 O
  -0.0019034023849164    0.1437967769965559    0.2491798982365524 O
   0.7505939091794464    0.7696673036415327    0.6251059940680449 O
   0.7512447447382625    0.8740135238828767    0.0171926648267796 O
   0.7484517475779213    0.2683821098301037    0.6252408110706117 O
   0.2492879156705340    0.3741741335538582    0.4784514965114911 O
   0.7515576277843188    0.8758150385219268    0.2302663828176631 O
  -0.0004605240083368    0.8563640476977064    0.2510591221823119 O
  -0.0008700115972575    0.3541555311457203    0.7500565164115656 O
   0.0010175951444731    0.3581906297822406    0.2497316154222560 O
   0.2046673518276536    0.7488805208353715    0.7514369703885568 O
   0.2136993848069585    0.7499434869977768    0.2498023537699845 O
   0.2102908079378158    0.2500167517190295    0.7503308559179938 O
   0.2116050179464038    0.2495321974913849    0.2510369442716758 O
   0.7484608777724706    0.3751782445410073    0.7275441124278393 O
   0.7926535661520671    0.7502547158175189    0.7509767598058094 O
   0.7905253084826804    0.2488934735144646    0.7484669011725751 O
   0.7884363613590679    0.2507946237579913    0.2503909403672954 O
   0.7471988381325343    0.9833458088576147    0.6244574216062792 O
   0.7490052630395386    0.9774675144998237    0.1238693715928275 O
   0.7486054722550614    0.4817776596521012    0.6238650548640426 O
   0.7480526750914458    0.4786165056108767    0.1235415282478716 O
   0.7503345939092070    0.8755400434135184    0.7308044682270211 O
   0.7940363520674866    0.7494100151682479    0.2501258981384450 O
   0.4559836453970421    0.8748193871854779    0.8749299689922490 O
  -0.0031246827174987    0.5006781489070610    0.6056732174892762 O
   0.4589610667795614    0.3766005022690404    0.8767272187601577 O
   0.2831476620565556    0.0000982749392824    0.7501005386600337 O
   0.2858168037208705    0.0009927279288521    0.2504890148003428 O
   0.2497995957861888    0.7274864047257263    0.6255480756408552 O
   0.2501199454403791    0.7308893674176298    0.1252037020709096 O
   0.2503997719691464    0.2310859060224911    0.6243204559299286 O
   0.2492419078636425    0.2306228793529072    0.1246617987173700 O
   0.2506572032012351    0.6254784309325768    0.7335708025295592 O
   0.2510042396226532    0.6248182999467993    0.2344927415187295 O
   0.2494212641766077    0.1244597148515964    0.7303061839070626 O
   0.2496819927220852    0.1255827311592239    0.2332467679920407 O
   0.4598871747378458    0.6241567460441444    0.6247037906468034 O
   0.4531881794729406    0.6249980983453084    0.1252831337458243 O
   0.4640189092216213    0.1241572844462924    0.6251006155347886 O
   0.4566225086427719    0.1257008864657408    0.1251943147891991 O
   0.0344443629381113    0.6246194671606654    0.6248840738814430 O
   0.0459602646017101    0.6253122912908379    0.1244275340425243 O
   0.0404716214823857    0.1251251046775568    0.6247354951181706 O
   0.4572606106477575    0.8748708708945461    0.3748745162653025 O
   0.2512694507384960    0.0204251610315100    0.1241533835168299 O
   0.2516082417057926    0.0168499445285387    0.6254130391586041 O
   0.2482214429778409    0.5184032762364287    0.1258441638131510 O
   0.2487336917222001    0.5214406489413853    0.6248719758558079 O
   0.5014078118409251    0.3938821097575697    0.2506324724429367 O
   0.2839251092092090    0.4996193858605901    0.2504507164983037 O
   0.4985884454781708    0.3981832848552269    0.7497508362119315 O
   0.4990311652764211    0.8977802481108892    0.7503205047267919 O
   0.2507379898855325    0.1247909055302067    0.0162102918198412 O
   0.2520793041304880    0.1245577514607329    0.5205384154913829 O
   0.2490293843460251    0.6250259683399315    0.0164678866666630 O
   0.2475579731188699    0.6248733218125015    0.5173397135458894 O
   0.0394026125390547    0.1252547802100694    0.1249789448090086 O
   0.4985266728244651    0.8946049798449700    0.2495183405027619 O
   0.2874564397432591    0.5009267332202719    0.7508974076636570 O
   0.4903263548962187    0.7482645522577719    0.7527335317593197 O
   0.7137230866045459   -0.0014504080564201    0.7515910531151669 O
   0.4658267983107212    0.3751487775276880    0.3747956660633115 O
   0.7126038405957024    0.0015141494021494    0.2486388066100032 O
   0.0347400535164396    0.8752331602687677    0.8756756527528218 O
   0.0431506152535022    0.8748601531410291    0.3750578023585469 O
   0.0384332429355018    0.3746708057782088    0.8759255829468545 O
   0.0332719214667535    0.3752912358666544    0.3744945279360474 O
   0.2477176696119153    0.8754334390980458    0.7710983638048791 O
   0.2514494181621204    0.8740069857328414    0.2683910187620085 O
   0.2497129035460362    0.3757584437096465    0.2693295981988210 O
   0.5016931425494799    0.6415468703988213    0.5007497312653909 O
   0.4992489123736024    0.6423730195987526    0.0004252765327390 O
   0.5040736957351093    0.1445049800002949    0.5011690856833848 O
   0.4997254031057231    0.1445856800740723   -0.0005194398864748 O
   0.2488546624674813    0.7669353658285408    0.8746905617976856 O
   0.2508145534623086    0.7657383796066967    0.3746894106447616 O
   0.2492709321957500    0.3756338372277821    0.7720153296457181 O
   0.2518741477959271    0.2700322657105245    0.3740428480352039 O
   0.7173010407945486    0.4990749668085435    0.2508530882016639 O
   0.2493024486636744    0.2688153263732163    0.8761621472218235 O
   0.7074640521758933    0.5023086654230465    0.7482573821183954 O
   0.4981025830623205    0.1077666980734371    0.2507615524539210 O
   0.5017062027491113    0.1039535258202923    0.7493632158450741 O
   0.5001247410315647    0.6028078908082202    0.2502530323576337 O
   0.4989161488753384    0.0003682551005129    0.1454791377709396 O
   0.4985428494036997    0.6049253910033083    0.7504210680908382 O
   0.5022689951423569    0.5008126585853613    0.1461308606386372 O
   0.4968575606446826    0.4997517183157608    0.6405483369268022 O
   0.0001905184570961   -0.0001901028086835    0.1026578021454473 O
   0.0021064451743136   -0.0005539124849971    0.6083408101378184 O
   0.0004738426320550    0.4995074093144475    0.1055775136290976 O
   0.4925786340041016    0.7479770651293595    0.2507357811782682 O
   0.5007451722517339    0.0006047944246060    0.6424522407109436 O
   0.6231496875494177    0.4365824977419329    0.9374107788127327 Sm
   0.8729426343762600    0.6855433417738463    0.5603181413946225 Sm
   0.8773907688370458    0.1886327980718443    0.0635342859209605 Sm
   0.1217794793736601    0.0629848438824881    0.8130704599862748 Sm
   0.3737494289660757    0.5631991845815515    0.9378764352676968 Sm
   0.8735930470069569    0.5626223664541115    0.6880638800651204 Sm
   0.3752634580298653    0.9359081680595291    0.0609253199211398 Sm
   0.1279237625967558    0.3131920603099752    0.5592122359587839 Sm
   0.1264427612161431    0.3128257716581772    0.0627215014431984 Sm
   0.1228925485843745    0.9382475148602217    0.6887874597143729 Sm
   0.3712926175392893    0.8107661793796509    0.1863193344481359 Sm
   0.8771646993562480    0.3122850221682378    0.9374615121066334 Sm
   0.8746554942124991    0.3135410370854004    0.4356097536782432 Sm
   0.6162294316057003    0.0626081729006829    0.5678248850857149 Y
   0.8823890872690648    0.8166863939735489    0.9378858999235363 Y
   0.6320238580546126    0.1882281891689055    0.6883424286848299 Y
   0.1261139358504140    0.8127265036896392    0.0602515604303305 Y
   0.8757912053666698    0.4373181980783654    0.3121591488424986 Y
   0.1221635155922528    0.5632589466172122    0.8148199278830813 Y
   0.1244627536105550    0.5610624962481917    0.3130306978154495 Y
   0.3703638047741362    0.0605320318619520    0.9378194626619237 Y
   0.3672038896859103    0.6863460021888619    0.8119837001459864 Y
   0.3774204626314239    0.1879663034645991    0.3124838759754605 Y
   0.3783857295362041    0.4374959781863503    0.5600431640397500 Y
   0.8743689961867012    0.9390805113928198    0.8133445636424725 Y
   0.1241325306480425    0.5625728620476645    0.5620290385372912 Zr
   0.1257097470852603    0.5617638271911460    0.0619337307338537 Zr
   0.1262687576884511    0.0617739798507216    0.5632589160112882 Zr
   0.1252613644609004    0.0632847052496113    0.0620862918155182 Zr
   0.6259431525154640    0.9374956013248450    0.6871514682556462 Zr
   0.6243189546788536    0.9374693274731708    0.1876916088067996 Zr
   0.6238936243576372    0.4389545160898415    0.6863423327942680 Zr
   0.6266219055591757    0.4374644805928281    0.1886048137826271 Zr
   0.3741449963235808    0.0633095475067479    0.1882175751351511 Zr
   0.3721286800652097    0.5618134219061808    0.1880550553143733 Zr
   0.3741928961807476    0.0623120358704372    0.6878295979147896 Zr
   0.8747290832538724    0.9391148781696987    0.5630957136233198 Zr
   0.8748209418721571    0.9364872632459357    0.0622374412566375 Zr
   0.8736133318166970    0.4374514506229681    0.5614921352858926 Zr
   0.8763909534102226    0.4367862505709320    0.0620618907236062 Zr
   0.8751945631402356    0.1884612222869046    0.3130222137722503 Zr
   0.3737540765027613    0.5623804815599341    0.6878340457095075 Zr
   0.8762941020538030    0.1874591803951267    0.8126070623647008 Zr
   0.3733605007634696    0.9380924278043887    0.3123615011667704 Zr
   0.8769372383751618    0.6871719792033718    0.8134823734267067 Zr
   0.6231195240259407    0.0628676430183315    0.3119375282585374 Zr
   0.6258828136415935    0.0621036124896456    0.8127638146967585 Zr
   0.6259221524010687    0.5615913635456887    0.3129924419692511 Zr
   0.6233488607698867    0.5630864708254439    0.8138034245226601 Zr
   0.3740928922016930    0.1876466406933494    0.0615029484873022 Zr
   0.3772710671065134    0.1873379352903684    0.5628648288308074 Zr
   0.3730915417336470    0.6872398291836466    0.0612640215808540 Zr
   0.8761648843879761    0.3130672808458936    0.1878985757632407 Zr
   0.8757922695999055    0.3125285034227782    0.6863582380407045 Zr
   0.8765475363736559    0.8128393426861878    0.1876062866435609 Zr
   0.8753985484590863    0.8128525447811880    0.6876576046444327 Zr
   0.1264061219712634    0.1877552376944588    0.1878796985976827 Zr
   0.1250282444893785    0.1878729808893012    0.6869925897031083 Zr
   0.1263506193775753    0.6868057744344165    0.1883621012857638 Zr
   0.1232422989598149    0.6858931433922991    0.6878564026635469 Zr
   0.6278505377444609    0.3127734638125247    0.0616735133085985 Zr
   0.6251795347857718    0.3129909565954505    0.5616906739668055 Zr
   0.6246839907473719    0.8131905031984876    0.0619336221282443 Zr
   0.6244142629507848    0.8125937886063043    0.5627863060833082 Zr
   0.1240542764562746    0.9378350755126251    0.9375433228813234 Zr
   0.8782449103533166    0.6862088047009687    0.3126990265600580 Zr
   0.1255562727324024    0.9386599878547378    0.4375442908479438 Zr
   0.1243513010203345    0.4372706862074673    0.4366262629192201 Zr
   0.3775936670731114    0.3124467263148172    0.4365228127015680 Zr
   0.3746122769531750    0.3129141234863327    0.9383411991443811 Zr
   0.3740838133272217    0.8119563778101905    0.4376887400323556 Zr
   0.3725208157018373    0.8121321925283921    0.9378686421952277 Zr
   0.6244967540765228    0.1879795409872412    0.4364649251785404 Zr
   0.6272000722042322    0.1879198225403327    0.9379967127903769 Zr
   0.6240886741767901    0.6865647518289667    0.4378149553825607 Zr
   0.6225856211271290    0.6866592262076635    0.9377417752749135 Zr
   0.1252138473319153    0.3133091783930115    0.3121274537179802 Zr
   0.1240702831071462    0.3119651374228956    0.8136162795469263 Zr
   0.1262125907212419    0.8119574033244713    0.3127782879021846 Zr
   0.1225390515839549    0.8127013648175785    0.8129198187076442 Zr
   0.3753140382464570    0.4374465153083600    0.3125649640843491 Zr
   0.3743946082655165    0.4388534447957267    0.8138524766816390 Zr
   0.3730628284543520    0.9388342263628996    0.8129303749251220 Zr
   0.8757630157722459    0.0626158056319216    0.4362392954094536 Zr
   0.8763360999839548    0.0630143273551978    0.9373975230304434 Zr
   0.8753464429019981    0.5617573498735856    0.4367499887727644 Zr
   0.8755689545155462    0.5622624874111143    0.9373413046534247 Zr
   0.1266001482027817    0.4376188648617401    0.9376619033881416 Zr
   0.3745999526549175    0.6862844853459786    0.5616429917649304 Zr
