La15 Nd14 Sm14 Gd15 Y14 Mn14 Cr15 Fe14 Co15 Ni14 O216
1.0
  16.2936776508328691   -0.0013027927366282    0.0058428336571159
  -0.0013497379123580   16.7105574323490451   -0.0005681176490607
   0.0056245111163159   -0.0005378310087325   15.5852070410185295
Co Cr Fe Gd La Mn Nd Ni O Sm Y
15 15 14 15 15 14 14 14 216 14 14
direct
   0.4990541209840232    0.8317131702724118    0.7491636282763309 Co
   0.6654258548852657    0.6668380310894872    0.7504382325685199 Co
   0.1680619932851861    0.1679542666647731    0.2476664106740258 Co
   0.1678712380164321    0.4999753818919983    0.0009787757579122 Co
   0.3359918991778901    0.3349283976605454    0.5017166754166911 Co
   0.1654479872543859    0.8312712630785180    0.4998723236856357 Co
   0.6646485894533271    0.0003562601777070    0.2495221449252565 Co
   0.1691094759539573    0.5016611597641810    0.2470898704186408 Co
   0.4949133469705242    0.1669743410808753    0.0037045704824067 Co
   0.4996437676919840    0.8319694904652903    0.0002522972315214 Co
   0.6662070525891081   -0.0025793418839428    0.4973883633310606 Co
   0.3322571372448518    0.6661812950006110    0.2491732305645794 Co
   0.3342567027547934    0.3339012622473408    0.2484021522106871 Co
   0.3337296881376974   -0.0003422182721745    0.4962132057561259 Co
   0.3352538969893161   -0.0020932139439127    0.0034015144373873 Co
   0.3325341460676394    0.3335404974508317    0.0023704876344115 Cr
  -0.0019584840118916   -0.0015137438182924    0.4976919760175491 Cr
   0.8336201652709339    0.8332344275884004    0.0014774669389519 Cr
   0.5016858021721951    0.8322007958495765    0.4990842125992977 Cr
   0.8342110138977767    0.8320220397919775    0.7489164760065379 Cr
   0.4960778866237299    0.1675988317987712    0.2502267888818450 Cr
   0.8346050133501400    0.1673554115856417    0.4979349072459009 Cr
   0.8334392940426391    0.8323470319997547    0.4978774890980294 Cr
   0.6679116661887126    0.6676438695815590    0.2474541290303636 Cr
   0.6634072383221329    0.3340139475328689    0.4987525803298511 Cr
   0.3329718863606732    0.6662914059951529    0.7490264933511079 Cr
   0.3346192979402712    0.0007213137486223    0.2504527966968150 Cr
   0.0018420173823145    0.6663672823589154    0.7495597685580313 Cr
   0.1667621235843095    0.4999366650080198    0.7513414754017109 Cr
   0.0025027519105357    0.3345598911042376    0.7500030322739755 Cr
   0.8338531888847213    0.1670693129305491    0.7509275124177839 Fe
   0.8346745963699170    0.4985786457802159    0.7530721866482439 Fe
   0.4978481114768648    0.1668426238744401    0.7499831634942425 Fe
   0.6624434276915057    0.3354258560953948    0.2493806287208792 Fe
   0.1680635487141817    0.1672029137816154    0.4983648258954426 Fe
   0.1706753415416861    0.5009567462127232    0.5009083085478195 Fe
   0.8305390471605086    0.4976297812519803    0.4994474817730074 Fe
  -0.0005517047939546   -0.0022336764692306    0.7503783922251283 Fe
  -0.0013002497512937   -0.0024081229512665    0.2523646714205506 Fe
   0.6648406301937565   -0.0000213142054938    0.0011145057163167 Fe
   0.1663733200574132    0.1665002916874996    0.7515034475229622 Fe
   0.0013044166956617    0.6669241473069170    0.0007362859245543 Fe
   0.0033830330907629    0.6667122392212927    0.5004670594838860 Fe
   0.0030526840248435    0.3358718423112561    0.0014199228789585 Fe
   0.1598581929976150    0.6471435309811883    0.8777161314780214 Gd
   0.6671452733655512    0.4813081324428984    0.8741409347253223 Gd
   0.8425358609565547    0.6869662877464715    0.1261102301817605 Gd
   0.3307733316834249    0.5197297174561966    0.6262341561718647 Gd
   0.8231195984343820    0.9770576183023004    0.3741719968552338 Gd
   0.1755739813231651    0.3537852881764034    0.6243324801849409 Gd
   0.1700772390827034    0.6892102432171248    0.1268242936994921 Gd
   0.1725491526976099    0.6860802075492297    0.6243877198416941 Gd
   0.4975228546362920    0.9766006994748663    0.3710966209656400 Gd
   0.5027140842448570    0.3583046887563796    0.1242532878312823 Gd
   0.4890895090454770    0.3161651165689979    0.3734626306675889 Gd
   0.5046308727552322    0.6854092217201826    0.1262360709782922 Gd
   0.5107459459561675    0.6882508301708505    0.6268330848529601 Gd
   0.9925996083377708    0.8521407539542627    0.6234777971560947 Gd
   0.6609838028542279    0.8535875618834682    0.6260365334891036 Gd
   0.6686582243337645    0.1498387956176660    0.8746106498106052 La
   0.3397068377132692    0.4839686311913138    0.8768389903145651 La
   0.6700866582220993    0.1492168286346052    0.3743886302935153 La
   0.3333298636858833    0.8182411881796453    0.3729058667408366 La
   0.1685894564231435    0.0142015645919631    0.1280671581762620 La
   0.8327935367638679    0.6808524530568719    0.6230100288203581 La
   0.6616591757128818    0.1835218412294378    0.6275792081719342 La
   0.6622684121246257    0.1823878215206294    0.1232384037529268 La
   0.3325415664959069    0.8477560601562577    0.1251241933699330 La
   0.8298186579652228    0.6488523291478442    0.8762667198047180 La
   0.0065902300813380    0.1499070549041770    0.3727359622259666 La
   0.1642400548252802    0.9802353834966842    0.8790386159191448 La
   0.5013986533268796    0.0123681460916265    0.6252320554183544 La
   0.0047246129785473    0.4876538754425095    0.3730363502819830 La
   0.1735313634765488    0.0141924310084784    0.6222622263457960 La
   0.6647143784721873    0.3363528084506383    0.0009877358293162 Mn
   0.3327338167103258    0.6666511651807215   -0.0008907881657042 Mn
   0.0031431176574227    0.3334137324770960    0.2489072068567847 Mn
   0.3342821855696603    0.6668122673645633    0.5025524011947563 Mn
   0.6664994699402373    0.6662423800260402    0.0015168044352265 Mn
   0.3334663742143148    0.3333103897490446    0.7506449278884357 Mn
   0.8357421877545151    0.1684233631370516    0.2497823919363606 Mn
   0.0015774207582539    0.3342123928225746    0.4995924524404819 Mn
   0.1661453162838978    0.8300220671986347    0.7502361746545601 Mn
   0.8318157482096029    0.4991648929732699    0.2481856381122723 Mn
   0.4983152774115133    0.1678933058925478    0.4980282644806875 Mn
   0.8345708716167832    0.8332409808040925    0.2490363218274978 Mn
   0.1666583958813036    0.1687475917201437    0.0035248009694192 Mn
   0.4988516897834715    0.5002334640297463    0.5007986588934173 Mn
   0.3280145369829130    0.1847969931758170    0.6250195855784331 Nd
   0.8409741608193158    0.0213712034048726    0.1216373117235083 Nd
   0.0026330169950675    0.1470397746417809    0.8788827291589623 Nd
   0.8338087037165985    0.0173369628645802    0.6247606762933210 Nd
   0.8365599762807449    0.3506513836731161    0.1227478779331461 Nd
   0.6685139542840578    0.8171942384072320    0.8731397552707972 Nd
   0.8273226831910212    0.9814520737917067    0.8756207571540316 Nd
   0.8289406071682374    0.3174531539307326    0.8755569005532809 Nd
   0.4931458182711240    0.9796597875110753    0.8753803925312305 Nd
   0.4964300665972546    0.6503060126541329    0.3705007213283999 Nd
   0.6585712241770818    0.8535395244652296    0.1271931475927185 Nd
   0.9956184156091490    0.1849731181987638    0.6256903175209394 Nd
   0.3384245062884815    0.1445206787467377    0.8783269761669318 Nd
   0.8285019895855164    0.6486254611893250    0.3747894522545700 Nd
   0.4984477040112495    0.5013551985374540    0.2484238988888478 Ni
   0.1649002186106609    0.8315146131955639    0.2498011440567476 Ni
   0.6646220419031795    0.6661350425784073    0.4994616505631743 Ni
   0.4993541873501148    0.5009535594169782    0.7495128730532953 Ni
  -0.0005511420610718   -0.0013352914683912    0.0003831921279214 Ni
   0.5017195890770869    0.8327284643809862    0.2503889797609951 Ni
   0.6660442108530223   -0.0013977189040090    0.7502521744320149 Ni
   0.3322867518421422   -0.0015367207159075    0.7507469420744209 Ni
   0.0016956263787125    0.6661722469617475    0.2485815303810975 Ni
   0.8331977340715353    0.5013518800644610    0.0009315981028715 Ni
   0.8348935953648524    0.1691105453473960    0.0006752448600109 Ni
   0.4993609890828032    0.5008596296780872    0.0006110824450960 Ni
   0.1666230930277807    0.8304279825527112   -0.0006856441721093 Ni
   0.6655877712477551    0.3352395786542102    0.7501388748597615 Ni
   0.4055464335791755    0.9045023883988466    0.4734993029349103 O
   0.4000708023076751    0.5754162104500430    0.9728889744410890 O
   0.4010554809383156    0.5667514558894710    0.4754916167259678 O
   0.3983942792820009    0.2336349312482823    0.9791885990283744 O
   0.4015958535589964    0.2327214938712744    0.4755931438764068 O
   0.0760011570987796    0.5708884427292980    0.4748546330881360 O
   0.0649416508011528    0.8998918584900535    0.4741217566017051 O
   0.0663129327874391    0.5646060579516015    0.9743384702954986 O
   0.4021320861658524    0.8975861659968172    0.9755969741633177 O
   0.0712611759195694    0.2352961367174027    0.9767931288148450 O
   0.0684127124768941    0.2392306535866232    0.4761396043322300 O
   0.0655888149386511    0.8979835994398719    0.9752223991955533 O
   0.7366069212347219    0.2389923840536222    0.4713941160242633 O
   0.7349586359544731    0.8982353979277062    0.4689160838485870 O
   0.7349926312820177    0.5661903124148802    0.4753498418154380 O
   0.7271773358094096    0.5686512846003302    0.9744768285035901 O
   0.7625993430442953    0.7337430585504061    0.7731294928499637 O
   0.7337016597774131    0.9002828123343505    0.9779086547344696 O
   0.1009825607120219    0.0646633777386213    0.4717974350290924 O
   0.1038340475998022    0.0741991370742022    0.9774162542240564 O
   0.0982883824464507    0.4008088717802073    0.4743580024039286 O
   0.1034964183411702    0.4000394013953695    0.9738835556078810 O
   0.1050066937216730    0.7326837333601746    0.4746838256359474 O
   0.0984657612430393    0.7311260759028049    0.9728301934381595 O
   0.4372882344360176    0.0719390719341056    0.4701565236378559 O
   0.4286979619211551    0.0639148244524274    0.9802708349604303 O
   0.7312275978255948    0.2417112652300426    0.9780920930259726 O
   0.7700539534990417    0.7360338410459564    0.2727256967521520 O
   0.7674461779242111    0.0689595555929619    0.7711439447586004 O
   0.7674867935085189    0.4015673114206555    0.2760406147578381 O
   0.2628710217242476    0.7647987531315382    0.7212081132295961 O
   0.5958401715500381    0.1006907540437557    0.2268250308479227 O
   0.5951923664890169    0.0994843934079717    0.7289731496368064 O
   0.6008876030395017    0.4339799633030175    0.2259247303503432 O
   0.5972273239910036    0.4328160874976515    0.7239734077065572 O
   0.6019418212937360    0.7639246610133784    0.2257291255760231 O
   0.5980185208922385    0.7676870178913474    0.7269368001716803 O
   0.9331997378018329    0.1031242920221255    0.2238384465632439 O
   0.9325610633029114    0.0978888098421451    0.7259562052680477 O
   0.9321963056931660    0.4309105227298041    0.2236763685549530 O
   0.9330408749242775    0.4298591603937372    0.7215630880217131 O
   0.9313190454825274    0.7702385142441150    0.2216318881780008 O
   0.9349210651920548    0.7642326320831575    0.7212083148793507 O
   0.1000413436826997    0.0643096591963150    0.2763789158153114 O
   0.0976861569431079    0.0681240450303372    0.7746642884301537 O
   0.0991434316757075    0.4000497910760903    0.2718261676017787 O
   0.1015100368615683    0.4012849456939250    0.7802965635430753 O
   0.1009559375919013    0.7311503936537408    0.2783848313265642 O
   0.1030659920521830    0.7335729470122114    0.7761444498649470 O
   0.4335567497038930    0.0675196819738558    0.2800420390097825 O
   0.4315965047999544    0.0700084873361003    0.7735664692425009 O
   0.4293066774759102    0.3982419383565339    0.2735825028616249 O
   0.4289752275211456    0.3962675457610602    0.7747769354193609 O
   0.4283021164074220    0.7314382473729414    0.2684828206093092 O
   0.4320326112824197    0.7348173610378994    0.7747684461314999 O
   0.7705092194901420    0.0705049005092274    0.2737543280759796 O
   0.4345130180420029    0.4050055619402251    0.4719219683567649 O
   0.7670361588302378    0.4029623546828861    0.7751810315197923 O
   0.4313886301484754    0.3975077153731615    0.9755725012131247 O
   0.7633566585250376    0.0688382436823119    0.9805241574901195 O
   0.4278846085431691    0.7327488691622217    0.9725987563125735 O
   0.9335968617005943    0.1000409388094593    0.5236284429429405 O
   0.9362972993259998    0.1017530091696972    0.0256667826744131 O
   0.5979049762216124    0.7655600554384734    0.5288950798857189 O
   0.6007645707781684    0.7610440483896531    0.0257189870671030 O
   0.5955514950518136    0.4340439210746671    0.5261042025586911 O
   0.6015907045725510    0.4308492433023969    0.0268440007925507 O
   0.5949158035045981    0.1031460537256152    0.5176562648590014 O
   0.5912109314526343    0.0977831710633248    0.0258712993595051 O
   0.2692748017391010    0.7604481810382002    0.5297422282540550 O
   0.2670974656105752    0.7593329439801271    0.0247049939405446 O
   0.2666715310294732    0.4336413097324598    0.5283702403027059 O
   0.2677106228484509    0.4340109403053329    0.0312547077177228 O
   0.2669176283187889    0.1002336173436312    0.5196992984542491 O
   0.2639408192894668    0.1072328465296115    0.0265005120435945 O
   0.9025345563539591    0.9296660296934404    0.7229532065040085 O
   0.8950402182699914    0.9299912982380053    0.2263676956710702 O
   0.9042976076926308    0.5963150456069753    0.7228896637718708 O
   0.8986416771974906    0.5945929544835574    0.2238415719049827 O
   0.9037403203520195    0.2664097702064659    0.7231418455828519 O
   0.9070947166522214    0.2651132973396789    0.2238622609078038 O
   0.5663073447437903    0.9251833330178946    0.7280086116380698 O
   0.5673646914613063    0.9370917741687292    0.2237872466579407 O
   0.5681498292542434    0.6043573566671064    0.7280914162949403 O
   0.2669188256260332    0.7592502633708615    0.2268735074721534 O
   0.5692433742798181    0.6016023280302751    0.2228703380821750 O
   0.5616098622120670    0.2671379026696680    0.7287419566630352 O
   0.5637001239389998    0.2673435886043233    0.2237251970739018 O
   0.9357815939590265    0.4318251518329780    0.0269564264501638 O
   0.4299598890359160    0.7329646832808046    0.4744550003399369 O
   0.9330273305510464    0.4281402315447365    0.5245128631354328 O
   0.2369987048269688    0.9318390097083842    0.2304078388227696 O
   0.7681409641441264    0.0679274743051693    0.4736540580089311 O
   0.7636729240197606    0.4002737629518676    0.4696161749239444 O
   0.7610350618056021    0.4006070610390510    0.9776751624614084 O
   0.7667883100774652    0.7358959648956082    0.4723260507859015 O
   0.7631221335018226    0.7335804063926351    0.9785646473547339 O
   0.0695079165853067    0.2411845884525792    0.2741819419458293 O
   0.0698622921254993    0.2359398307744093    0.7780493725242200 O
   0.0750180569396780    0.5658137100001077    0.2714494146538322 O
   0.0666958389627277    0.5657184201469648    0.7789272680295641 O
   0.0652436113777940    0.9028286527460051    0.2779200726050431 O
   0.0685982322250192    0.8942524274517504    0.7747087728805533 O
   0.3970046968346156    0.2340439682011254    0.2757658108990264 O
   0.3949724154904637    0.2366025345683842    0.7745841163359840 O
   0.3956445847745237    0.5701440243652914    0.2717577040740945 O
   0.3996455468633626    0.5703485555687542    0.7721883542610086 O
   0.4035092580493526    0.9045917209117201    0.2765960518182884 O
   0.4027257508488684    0.8972184018324368    0.7705390837153645 O
   0.7401532213233925    0.2398426454943452    0.2724735273547186 O
   0.7364507283933900    0.2364086308221604    0.7728663556130111 O
   0.7354264703362163    0.5659728820276567    0.2742223543493725 O
   0.7327239318583614    0.5659014056800958    0.7743084919882915 O
   0.7355692614641345    0.8959096524590557    0.2767162821633830 O
   0.7377462495361028    0.9001402790115135    0.7740108229287994 O
   0.2367333309310096    0.2722951003350779    0.2221743689597110 O
   0.2347810649533173    0.2691163453923852    0.7255072672724637 O
   0.2355234026162198    0.6018403392742189    0.2234035316404468 O
   0.2334687728341895    0.5985315547799662    0.7220177672345990 O
   0.2309558504558469    0.9233260444167792    0.7254002252828365 O
   0.2679835485263545    0.4310491624136933    0.7228869627960707 O
   1.0300357165277003    0.9882621244172357    0.6238381629396766 O
   0.2634597753038991    0.1005364125185180    0.7310110031959831 O
   0.6942876945786861    0.3276303637330603    0.1226363938341239 O
   0.6967117792112025    0.3258732388510941    0.6206302965865567 O
   0.7038386477887691    0.6568822793192181    0.1218254391873478 O
   0.6914402044746604    0.6565574332901435    0.6275533991703605 O
   0.6967579665252346    0.9963161832345980    0.1288353512203885 O
   0.6922440345611653    0.9911731762664091    0.6206251284239653 O
   1.0367532280318170    0.3236123166849684    0.1281902613631080 O
   0.2654659161875407    0.4365444748840205    0.2224708076011188 O
   1.0339572890042841    0.6570062006534028    0.1233255313463195 O
   1.0360009803323058    0.6539848402062977    0.6253775597563774 O
   1.0248173131978315    0.9867754448030354    0.1286458953191085 O
   0.9336438617344057    0.7665815873354344    0.0275718065876117 O
   0.1971823894203787    0.1808128017438892    0.3753715342830535 O
   0.1968370451087331    0.1791088890256684    0.8808705510771794 O
   0.2004310455436543    0.5102120999008140    0.3754191518805163 O
   0.1970213396454999    0.5119971034496916    0.8769577905424230 O
   0.1915306639584787    0.8422465209562122    0.3780992238648894 O
   0.1997521397352398    0.8372132115464265    0.8682628377360114 O
   0.5274366851888976    0.1819309272882237    0.3771349362662920 O
   0.3554838400707216    0.9920441926683250    0.6202755439468327 O
   0.3690489620116537    0.9906099882904320    0.1260975099833098 O
   0.3704832259555453    0.6566099754847023    0.6234833041215639 O
   0.3667347198266238    0.6570907795769264    0.1166296562309218 O
   0.1303758163764555    0.1586525024036558    0.1214707353342699 O
   0.1376238397987804    0.1586868640156451    0.6243740611417332 O
   0.1350994557729252    0.4901540518694468    0.1214416161898975 O
   0.1345970177231689    0.4884466196115983    0.6261626772722271 O
   0.1319588911336566    0.8229959489025582    0.1253462224606740 O
   0.1316169558497687    0.8215957892729212    0.6278555970924937 O
   0.4626958406567642    0.1540179502392994    0.1276183731491109 O
   0.4693588232796855    0.1573880687158334    0.6192303048575389 O
   0.4626740650154758    0.4906463524223371    0.1236501373101832 O
   0.5230014419633715    0.1757717221109050    0.8778206466770919 O
   0.4659555275276434    0.4866906056115968    0.6196015610429821 O
   0.4678756922797769    0.8239500309170649    0.6234503493244651 O
   0.8074923827207833    0.1643728168258729    0.1312251840069565 O
   0.8063918174343166    0.1607293966635307    0.6223741380679279 O
   0.8004952640626154    0.4897655430862772    0.1302895186116970 O
   0.8015585473719857    0.4896688165960731    0.6242018830677558 O
   0.8014829849331179    0.8236049920091354    0.1286887440397136 O
   0.7991044711740986    0.8249206969272878    0.6230494916118064 O
   0.3672461113007987    0.3213447209099313    0.1256593526737760 O
   0.3691227049088108    0.3247480447586123    0.6315867335836970 O
   0.4757103462728171    0.8209353979645522    0.1195712343650998 O
   0.5295052468902511    0.5108047885015067    0.3806188471759258 O
   1.0367901974726326    0.3255646935502498    0.6238472235164747 O
   0.5365442790800825    0.8400863093886900    0.3768749784738846 O
   0.6362259004878924    0.6760758091339110    0.8807696401797607 O
   0.2296284767618570    0.2672592065817470    0.0303641292004314 O
   0.2347321794831405    0.2671679314129388    0.5272874147921892 O
   0.2361380455243332    0.6001981472100266    0.0269320882985513 O
   0.2407733701744864    0.5990222298009027    0.5314566257015162 O
   0.2393308109252977    0.9331455274119554    0.0233023347053448 O
   0.2332263798175098    0.9219532915060155    0.5216069183903829 O
   0.5668690049803552    0.2714437462224643    0.0242091694437926 O
   0.5616242761670929    0.2671515096989998    0.5268804327033301 O
   0.6377591422270615    0.6768059781186034    0.3714088543814008 O
   0.5715538211828166    0.6032188821180071    0.0286030124031542 O
   0.5659566097472487    0.9328180487805906    0.0282071236192761 O
   0.5319803586392560    0.5107515371163677    0.8760592937354030 O
   0.9071904186339670    0.2670601733070000    0.0250871664579263 O
   0.9038220675593702    0.2679913949132505    0.5227766278040884 O
   0.9012783062978366    0.6022840866987083    0.0278670546985209 O
   0.9062861415106204    0.5926775650131006    0.5221933802045994 O
   0.8983754215738107    0.9295717892958937    0.0253057355931205 O
   0.8989815075843131    0.9315435755354974    0.5244807365222947 O
   0.2709445045837648    0.1023446559561207    0.2240488049318294 O
   0.5619236507312001    0.5944260866321386    0.5290717487238690 O
   0.6342460453516289    0.3445594599099051    0.8818408984906888 O
   0.5691306179824072    0.9289065599965607    0.5231860955331956 O
   0.6356190031516450    0.0053568067146227    0.8784486784300396 O
   0.6290837360579530    0.3436916571551696    0.3740633312877976 O
   0.5267530920695825    0.8384285888413858    0.8798191451401598 O
   0.8628045467278065    0.1820163831980218    0.3712036813253748 O
   0.8628727237364037    0.1772461779717741    0.8735968957061457 O
   0.8608075720028429    0.5062192686327408    0.3710533673569299 O
   0.8724452129745311    0.5071144809560448    0.8740515063304608 O
   0.8680188466453918    0.8407375928260507    0.3702132749316888 O
   0.8684097507624146    0.8395790080512830    0.8752484626317211 O
  -0.0396704815219775    0.0091960871237802    0.3745460261332077 O
  -0.0301960592093112    0.0072353639254567    0.8729440812777501 O
   0.9359915369131827    0.7656365829204943    0.5231312461875530 O
  -0.0284522653727708    0.3449229180782773    0.8751348165677774 O
   0.6366492723117539    0.0061573457447564    0.3706016347267918 O
   0.2982156877764997    0.6723988194758714    0.3843741159553214 O
   0.2963865341625491    0.3407924893881680    0.8741302939673795 O
   0.3042744268343758    0.3442354297140069    0.3717890292507861 O
   0.2985761132840992    0.6759756450013378    0.8754703392356374 O
   0.2967694779772663    0.0082896286810754    0.3747456185218943 O
  -0.0279971999432835    0.6804923149306058    0.8740750331585262 O
  -0.0288942261002734    0.6705343455766902    0.3759471606446470 O
   0.3071946008019766    0.0042288643563542    0.8803344776894838 O
  -0.0327479440157696    0.3412917259069309    0.3723436913566547 O
   0.1665807833112712    0.3170769456755411    0.3725401019532464 Sm
   0.8350568415030915    0.3499323587782141    0.6267970236497371 Sm
   0.3297469976214176    0.8527158314797794    0.6256662374466232 Sm
   0.6603104156459700    0.5194934127540151    0.1245338296327575 Sm
   0.6599630740270870    0.5193234634970375    0.6284686454768305 Sm
   0.9954185129345126    0.5207579840560544    0.1233679376456568 Sm
   0.9955712391044106    0.5163920234460552    0.6262176597609949 Sm
   0.4957039102280692    0.3144996173985755    0.8773451130190263 Sm
   0.3401244486461694    0.4811983329108807    0.3714337796663425 Sm
   0.6686496055623197    0.4826585432261898    0.3748719141030480 Sm
   0.3407803520261786    0.8150796008401067    0.8739542145373684 Sm
   0.4968702079389952    0.6468738611366903    0.8733403250804361 Sm
   0.0101653916783857    0.8104113956785413    0.3721731788741965 Sm
   0.3361472124157640    0.1460174126912749    0.3745313620291155 Sm
   0.0087440274735208    0.4792082246722429    0.8774541598037335 Y
   0.0066767438140155    0.8143594619828247    0.8783134831351498 Y
   0.9937018809911066    0.1874587815930520    0.1207293711788756 Y
   0.1602600906014138    0.3134853415575884    0.8757306295929732 Y
   0.1623194283130405    0.6466215530767213    0.3702228059474745 Y
   0.1601780013802819    0.9758571220556014    0.3732159718606143 Y
   0.3288118803650359    0.5231318141729452    0.1270265596601746 Y
   0.3274601935470549    0.1889079818424975    0.1273690909305375 Y
   0.6717243311443531    0.8106790074969219    0.3760095965090352 Y
   0.5076946565909857    0.3549315520161107    0.6309647959986212 Y
   0.5040508858591566    0.0205091863156459    0.1248220349396585 Y
   0.1744628520877358    0.3576092589875660    0.1268506931474117 Y
   0.9970260795385835    0.8532176630482201    0.1204385211729433 Y
   0.8276956240779482    0.3165583079685665    0.3751558757852761 Y
