Mg48 Zn48 Co48 Ni48 O192
1.0
  12.8863546167816185   -0.0003590978697126    0.0001552927138805
  -0.0004787980360145   17.1800978471917247   -0.0000703576443588
   0.0002070575584180   -0.0000703566588639   17.1814891201385649
Co Mg Ni O Zn
48 48 48 192 48
direct
   0.6685222863662897    0.0000050546454977    0.2509044768807155 Co
   0.8341603130596533    0.8748769632386750    0.2508370925514660 Co
   0.3314712249790822    0.7492827886674417    0.5005145774969630 Co
   0.8340319992184553    0.8747591299130015   -0.0004759189544924 Co
   0.6677775770385591    0.0002620380596271   -0.0006544878837995 Co
   0.5002391450373191    0.1249758455379981    0.2497946971665397 Co
   0.5003413679296578    0.7498582121109435    0.3769682573255724 Co
   0.8326898156642694    0.6234480008057643    0.5000310739429888 Co
   0.8337187418839233    0.0004316312522751    0.3747139319751193 Co
   0.8324012241623509    0.0008790694650263    0.6250941881306338 Co
   0.8343890601085897    0.1244681308339035    0.2499728197640406 Co
  -0.0017440848940857    0.6246420196466362    0.3762821119347313 Co
   0.3323182415418813    0.1255883748478492    0.6243871710020122 Co
   0.6678022695878173    0.7489149427645330    0.4987555509287001 Co
   0.8329153463068973    0.4992038800046759    0.1236778418803157 Co
   0.8349021198267631    0.7503806560242705    0.1240930227929192 Co
  -0.0008174756664763    0.3746941744194894    0.1245777181277843 Co
   0.8334940649615608    0.7490038447828546    0.3753122720107639 Co
  -0.0010196615156358    0.1254727572036731    0.1255824269764326 Co
   0.1653914821703628    0.6240750158477657    0.5005208063165478 Co
   0.1664323487194006    0.6228731797182413    0.7510082106607370 Co
   0.1655389229840629    0.8753066563731630   -0.0000669020718757 Co
   0.4976649508584811    0.3752429778294735    0.2504783930194764 Co
   0.1665576575040617    0.8761249077101652    0.4990112259624838 Co
   0.1672792894695202    0.8761358305361001    0.7506460548800663 Co
   0.6660323621906719    0.7479720456040814    0.7490210005333554 Co
   0.3315673104589375    0.1262341570298650    0.8746819017065920 Co
   0.0015321245222679    0.1261398011963389    0.8751733777239954 Co
   0.3342948598013201    0.3746741067944524    0.3749700725228383 Co
   0.6667421406335741    0.8745597832483353    0.6245661604168620 Co
   0.0000923776575134   -0.0006092613109259    0.4995844634382879 Co
   0.1673618782590397    0.4998366041182610    0.8739761934381081 Co
   0.6663999695632106    0.6244671026280038    0.8738002544703330 Co
   0.6666260001687966    0.6244077147255787    0.6251521308758232 Co
   0.6674873340485198    0.6248851619040801    0.3760937612984362 Co
   0.6687685324521492    0.1253094982410139    0.6246828070184899 Co
   0.4991429830113885    0.7493432456695652    0.1235357085305211 Co
   0.1677039805962260    0.2504707912037920    0.8755301678535480 Co
   0.1651171223524655    0.0002794373153573    0.8748417500192256 Co
  -0.0003875986804948    0.7503102340029976   -0.0004285239805809 Co
   0.3350999284921236    0.3749005090297376    0.6256945489178187 Co
   0.3324010944824402    0.3761516696767486    0.8746543961196259 Co
   0.1650522592334830    0.0000373112833909    0.1243895124361904 Co
   0.3329062784831214    0.6245780661038631    0.6267970941268911 Co
   0.3326025127601391    0.2515452421046552   -0.0018296183035861 Co
   0.1654329407769705   -0.0007251109404043    0.3769055930132383 Co
   0.3315680729524053    0.0006734851962321    0.5004044221452418 Co
   0.5001703348182822    0.4999307871697645    0.6260294469104586 Co
   0.8344246986140327    0.3743931555265181    0.7502689982610956 Mg
   0.0000553818143583    0.1261184190553007    0.6245308334692686 Mg
   0.1670772082491504    0.7497719822071800    0.1248402986035901 Mg
   0.0005021976930224    0.1263499766388341    0.3759159828606043 Mg
   0.8332579691201425    0.7484952567362717    0.8746033693142613 Mg
   0.5002946928462618    0.0002637441614654    0.6251514695873722 Mg
   0.5008839215422252    0.2503225558215441    0.3756646300358132 Mg
   0.8323308384814369    0.4971688156108016    0.3751485063025003 Mg
   0.5011891194045048    0.2514986274235646    0.8749216071444711 Mg
   0.8334421526229093    0.2501066898922642    0.8748603477123800 Mg
   0.4989042551352498    0.7501874255232439    0.6263599280211535 Mg
   0.5011951345994480    0.7496834260400296    0.8747143495919910 Mg
   0.5009764458128568    0.8758999826305306    0.7506156668318726 Mg
   0.4990625876226947    0.4998243697752004    0.1240520970017289 Mg
   0.1663885492124579    0.2508325095622264    0.1254724027908506 Mg
   0.8328409775528803    0.2516055847940541    0.3753744457908030 Mg
   0.8337540372402539    0.3743051015182688   -0.0013352767573796 Mg
   0.8345464948215724    0.5001526538519114    0.8745690009246585 Mg
   0.8340145850580596    0.0012689318892485    0.8748998506817993 Mg
   0.1656544671931248    0.3743693356125735    0.7486374406090915 Mg
   0.4993201519753692    0.1261315442374734   -0.0012025181093831 Mg
   0.6659183029093594    0.8755031169970278    0.1242531632731162 Mg
   0.6660434711145239    0.3740300239160392    0.1239592297403243 Mg
   0.6668084110608976    0.1253934704608266    0.3750968849756799 Mg
   0.6671646014369974    0.1260044995212442    0.1247295192907254 Mg
   0.0004235705111229    0.7492702634239224    0.5005226777555124 Mg
   0.3323615389645375    0.8742582955550381    0.8743860928441919 Mg
   0.3325531249102704    0.8754246757114424    0.6263586841583513 Mg
   0.3331228614168517    0.6252130839943100    0.8753607123122030 Mg
   0.3348253432221495    0.7497719433766465    0.2498818019006663 Mg
   0.3322896104578183    0.7493342065778895    0.7508849548153586 Mg
   0.3330064460724625    0.1260269537383460    0.3751839141027508 Mg
   0.6679941039359273    0.0012785421426351    0.7498515679080803 Mg
   0.4988665825012628    0.1252654044295962    0.7508725098696752 Mg
   0.6666819270852530    0.2501649664243200    0.2490727223152591 Mg
   0.6663060227063063    0.4997346572370426   -0.0013015343318856 Mg
   0.0006833577059898    0.8746268810206023    0.8741248481310534 Mg
   0.1672665515198915    0.7495229322283627    0.6250806095747304 Mg
   0.1665000205124876    0.8741021950958694    0.2499968998401150 Mg
   0.6658065111363977    0.4990224478840132    0.7509226928778970 Mg
   0.1666928070869476    0.6252213021341672    0.2490770828330544 Mg
   0.6654426096315798    0.7498729554731571    0.2495763962445425 Mg
   0.1668406834187971    0.1255889337365597    0.0001824247677836 Mg
  -0.0002545828792115    0.6246094240619317    0.1247021476539949 Mg
   0.1668648612376121    0.6246516232075128    0.0003158648436512 Mg
   0.1662328002802580    0.7496633212013025    0.3748060336645678 Mg
   0.1658068913111901    0.3748365418263597    0.5009937060720405 Mg
   0.1677829418272651    0.1261944801653066    0.7498923369666178 Mg
   0.6676854999155144    0.8757185599584878    0.3747824138520752 Ni
   0.6660205588861368    0.3751896743411018    0.6247296812412313 Ni
   0.5010714915351170    0.4983159523201864    0.3751418416137811 Ni
  -0.0011600092893210    0.3742318354311331    0.3761974318061263 Ni
   0.8345268778916685    0.2499127003826920    0.1238933387013686 Ni
   0.0015254049480256    0.6249282014452350    0.8749847415685177 Ni
   0.3320313601701549    0.6245993099814479    0.1239713316234195 Ni
   0.4997508799169937    0.4996803725471665    0.8748463248978939 Ni
   0.3343837585926211    0.3756489776002018    0.1243896113508147 Ni
   0.8330888540852410    0.2506791557794978    0.6255188539775541 Ni
   0.0000479247196311    0.6245290871169393    0.6256064925710370 Ni
   0.0018037417164729    0.8754517082576494    0.6247009788399956 Ni
   0.0002709298435627    0.8757154713660269    0.3752733215352015 Ni
   0.3321167833897392    0.8747319152378602    0.3762837061147770 Ni
   0.0002966528686681    0.3746721253736126    0.8737359540534673 Ni
  -0.0000979791977705    0.0014034655915516   -0.0008142827134279 Ni
  -0.0012767118905362    0.2495226195679911    0.2495589536019387 Ni
   0.3344628726865169    0.4996263252746901   -0.0008676604463864 Ni
   0.5000455450183825    0.6243175549507137    0.7506323890746569 Ni
  -0.0018965675163873    0.5001032231368293    0.5003523629944081 Ni
  -0.0003403610943587    0.4997629755081520    0.7508143144565557 Ni
   0.4985552865899816    0.3756516334451654    0.7498746127745076 Ni
   0.5000061864683562    0.3750049625259407    0.5009601120702289 Ni
   0.4994915558352989    0.3751309026634510   -0.0009938873169522 Ni
   0.0009560795309995    0.7503186334506300    0.2513655563559767 Ni
   0.1672755890086981    0.1262605870484089    0.5006568297411629 Ni
   0.3340763677548253    0.0005621815091588    0.7501847366484802 Ni
   0.6668048236549139    0.4986146542178581    0.5007454066351210 Ni
   0.3343644360929338    0.2510864632514218    0.2506250070354408 Ni
   0.3332181040692124    0.2514256574265346    0.5003994888067012 Ni
   0.6668677021657353    0.2510963255405881    0.5004340937666615 Ni
   0.6679434832775426    0.2505843635581678    0.0009885261487869 Ni
   0.3325983756630891    0.2510132571570743    0.7501622257040897 Ni
   0.6675315158191434    0.0003239234409993    0.5011695602166221 Ni
   0.3324986497358623    0.7495305964245911   -0.0010320831492231 Ni
   0.3347313801034500    0.4999028551277088    0.7513088439438586 Ni
   0.4997147383879430    0.8746018830604643   -0.0014031166731997 Ni
   0.8345908758016244    0.1267883239214986   -0.0003887788764089 Ni
   0.3342551450688732    0.4997154336466439    0.2494174180045172 Ni
   0.8351598526507619    0.6239700012862925   -0.0014087824551154 Ni
  -0.0001519899517159   -0.0002444067208573    0.2505384003609212 Ni
   0.8345617366216732    0.1269258247126926    0.7497279946761871 Ni
   0.0007849406278004    0.2500365378850994    0.7505886823958285 Ni
   0.8326211372653382    0.3748872246412407    0.5013492437769530 Ni
   0.1668776236279119    0.7494498965291262    0.8756049905871416 Ni
   0.1675522267026158    0.2500009454955426    0.6254074750525850 Ni
  -0.0007626406461198    0.2494596673836632   -0.0004123220401491 Ni
   0.8333280342082607    0.6232172884650810    0.7510755362840040 Ni
  -0.0014295301881431    0.5001856915693896    0.8735664580646790 O
   0.3346474983184068    0.5000116965270476    0.6276185514485644 O
   0.3345964939296385    0.5014912664198048    0.8752577522283826 O
   0.3315705813704674    0.2520749427156423    0.1260762563228345 O
   0.3314130141608200    0.7512667224961902    0.3743955070836285 O
   0.3323145577458756    0.7516349360076917    0.6273673953551331 O
   0.3334515312014211    0.7495303885522769    0.8743086534268723 O
   0.6680368566795382    0.0004876379468894    0.1246093422887464 O
   0.3313707010233634    0.7486071839676345    0.1246256355341297 O
   0.3358319664065502    0.4992143670283363    0.3733071596833689 O
   0.0020397926810333    0.7508868221628220    0.3757195351149539 O
   0.0022408739314447    0.7484679024696198    0.1256818159884505 O
   0.3356395654676987    0.2494007027403798    0.3749561105427031 O
   0.0032137819228033    0.7497522355915536    0.6239959426183737 O
   0.0005348982161628    0.7498046866346951    0.8749291691174618 O
   0.3339023639318543    0.2516164084965055    0.8740331449185474 O
   0.3315721781151075    0.0000499039616327    0.1252880717962034 O
   0.3329724512994484    0.0005675411262725    0.3758586481057370 O
   0.3319462349471746    0.2501209087182836    0.6251956776314529 O
   0.3320141453784589   -0.0015493593816369    0.8729723849660198 O
   0.3359165195463565    0.5000563470906957    0.1244057870540323 O
   0.3356104035050236   -0.0014115038332645    0.6261676769151479 O
  -0.0014917712145289    0.2509642761546551    0.8746084706913940 O
  -0.0030216851058899    0.4984465552925754    0.3763579715794369 O
   0.8315521752614130    0.2518418106110162    0.5003576739640330 O
   0.8328368246756764    0.2502967622794697    0.2499047979662883 O
   0.8337972213620979    0.2507012242718941   -0.0007922878173216 O
   0.8311224608975323    0.0031477732979448    0.7513375494502446 O
   0.8319216810421933    0.0010255745163748    0.5004886700173586 O
   0.8350819377658446   -0.0002534039633737    0.2506903018196143 O
   0.8352826038939837    0.2512396582065863    0.7507148693374530 O
   0.8349631050444980    0.0024489287576960   -0.0026586235979947 O
   0.4993034535486695    0.7492783033136168    0.5020980768351585 O
   0.4986386563578523    0.7501148517489109    0.2496644950789746 O
   0.4974820651833401    0.7507390194784324   -0.0020715894587674 O
   0.5007614774738273    0.4996775998977118    0.7521615788223406 O
   0.5020075061216670    0.4978997452436118    0.4992592425755535 O
   0.4981288145560714    0.4992709525935811    0.2493942736080014 O
   0.4981236557462210    0.7500186061400411    0.7504622301934240 O
  -0.0008064371711626    0.5009506498064864    0.6258217373497789 O
   0.8306487186961520    0.4985564411010997   -0.0026046539302510 O
   0.8327653372357666    0.4981436497870911    0.4991917042765388 O
  -0.0013874300121249    0.5006346546028613    0.1243598288706612 O
   0.6678734397100941    0.0010255249957326    0.3766127216255331 O
  -0.0003318372813176    0.2490450195617371    0.6265901061052174 O
  -0.0032959853821120    0.2498039953784103    0.3737664732974375 O
   0.0000200228227613    0.2501413607340430    0.1251999951169203 O
  -0.0017979550783728   -0.0009335211101495    0.8757333904739897 O
   0.8321669001577838    0.4988562277396456    0.2502780567392823 O
  -0.0004995978076995    0.0002317209720089    0.6245685609480081 O
   0.0000934098795156    0.0004846719607242    0.1249307539549682 O
   0.8321533160860770    0.7472710588168372    0.7518683857510575 O
   0.8355909294236413    0.7479854203088790    0.4992242029827655 O
   0.8345537411261058    0.7506625063333162    0.2502715060200478 O
   0.8350844669584213    0.7483164800887927   -0.0021442369968873 O
   0.8322919570167359    0.4983898653656305    0.7527497793229188 O
  -0.0005760880944800    0.0006964708782791    0.3748830556776069 O
   0.6654069152210760    0.0000491286561471    0.6256630090840706 O
   0.1664811347525021    0.8731006587708237    0.8747109008075039 O
   0.6691835495554030    0.2502992635993469    0.1251287187079349 O
   0.8335183530203636    0.1274526799112341    0.3744771221278299 O
   0.8320082501101856    0.1271520116842091    0.1238576582750450 O
   0.4979821862104541    0.8727134477709422    0.8739771815448802 O
   0.4979698415244234    0.8749175892229242    0.6274414780176335 O
   0.1658462412319560    0.6266823090260226    0.1245563618892636 O
   0.4999280552939228    0.8750958721695559    0.3763628695228115 O
   0.5012192312932713    0.8743478593509048    0.1220115188459180 O
   0.1654658099566525    0.6263468748161433    0.3734769309598848 O
   0.4981145579984861    0.6253121653931560    0.8737670829764312 O
   0.4995970850953584    0.6258444807083884    0.6279826652847691 O
   0.5003292105782877    0.6237444617066809    0.3750347390295453 O
   0.5004855610763516    0.4983404606082379   -0.0009964163006930 O
   0.1652755945676149    0.3749679252399697    0.8729196236452910 O
   0.4968600301604327    0.6233932511332158    0.1237107739729406 O
   0.4994141751552536    0.3754063787259352    0.8745047739172102 O
   0.5008327568464432    0.3755917049021577    0.6255736847577943 O
   0.4997739669697829    0.3740521277609513    0.3763543487123230 O
   0.4999520607125571    0.3766137805826517    0.1231684332316449 O
   0.4989443770965797    0.1276955604906234    0.8749005377640195 O
   0.4992190581352934    0.1240843999174451    0.6274224484364357 O
   0.1670351997035802    0.6261948951013185    0.8763949295392183 O
   0.5002303435968635    0.1265921892250325    0.3742318077759381 O
   0.1670673621011118    0.8732488099626623    0.1261665667259730 O
   0.1665972518367901    0.8736733044637043    0.3739357478085180 O
   0.5023923507433640    0.1257986151419688    0.1227497519841077 O
   0.1674567383513070    0.8731996112141126    0.6251520810479655 O
   0.1652765533030266    0.6265320034583821    0.6260965188517067 O
   0.8358520102669769    0.1270470351164737    0.6266669418504706 O
   0.8354184509700662    0.1264914499646388    0.8747285748290846 O
   0.8322607454008318    0.3739522406727755    0.1219320935558315 O
   0.6675153118387283    0.2485421334734220    0.3744120405672861 O
   0.6678870808410253    0.2508508746783762    0.6235800214377991 O
   0.6679527982541626    0.2511056311900996    0.8767284378912287 O
   0.6642805762201097    0.4978423017737003    0.1227326332583968 O
   0.6668481404465754    0.4990703853758248    0.3761626158150184 O
   0.6655858481317865    0.4991129561472853    0.6255918298042314 O
   0.6671970073038596    0.5003859596695733    0.8751785176581945 O
   0.6663629863196697    0.7514886424813939    0.1259299212842396 O
   0.6668080238347820    0.7512728566542235    0.3737561789209703 O
   0.6639166435454409    0.7496573920299359    0.6245640011695299 O
   0.8339769646877803    0.8751744783286557    0.3750474373001304 O
   0.8312399380581854    0.8743015277407544    0.1235020059333958 O
   0.6663823294846352    0.7485658352571298    0.8744225478784647 O
   0.1651607523911211    0.1260375122105502    0.1235532433592080 O
   0.8358028110910204    0.6241051644697307    0.8750293170363505 O
   0.1663765541201588    0.1250387282807653    0.3773930789639734 O
   0.8344779762290782    0.6243875519119754    0.6271728455860540 O
   0.1650791440323061    0.1273625725425714    0.6252832074970320 O
   0.8341265290660648    0.6224704009013867    0.3757350780115772 O
   0.8363644769035851    0.6243308934353253    0.1221251786981283 O
   0.8354978119488912    0.3744938502756799    0.8741026489411321 O
   0.1658065828657414    0.1258684832473920    0.8747293323647262 O
   0.1674577411126106    0.3739659444278495    0.1240027917554749 O
   0.8320386090731449    0.3735596385435854    0.6262144717788352 O
   0.1651619670818802    0.3746346251934858    0.3774174403930644 O
   0.8345096940005866    0.3740674756287943    0.3773992632404333 O
   0.1670969096834259    0.3730083248297888    0.6249903539368051 O
   0.6697801007988343    0.0005925767099273    0.8736589972592110 O
   0.4979026127417306    0.2502031047668728    0.7521083853511157 O
   0.8361400288321327    0.8743761749768323    0.8753553374674725 O
   0.5005407638136719    0.2506060944811411    0.2517065978824867 O
   0.3316284792269333    0.1269793853111484    0.4987391853218804 O
   0.3333842250780447    0.1251007919152287    0.7501431484594372 O
   0.3357793767890839    0.3759275464206691    0.0001714226855307 O
   0.3336156808796664    0.3751609733599122    0.2489041081336059 O
   0.3326361076345294    0.3741069383963058    0.5009911625589230 O
   0.3331279383101429    0.3755190575633304    0.7496625650537849 O
   0.3332784140111081    0.1268316355754662    0.2518201516313823 O
   0.3306478414907817    0.6248970879643845   -0.0007305521844037 O
   0.3317145936359325    0.6241185421456336    0.5014023286489830 O
   0.3343264514692044    0.6249513475132265    0.7522477016385860 O
   0.3341264152553275    0.8733438112622435   -0.0026075383716245 O
   0.3310881849887138    0.8726115935900743    0.2521313451462091 O
   0.3308866494411326    0.8752094833982156    0.5007938441658782 O
   0.3352390026537847    0.8747883354515014    0.7505298558731881 O
   0.3305624328718938    0.6260219519947400    0.2477899125032138 O
   0.3334059249466926    0.1262759298328844   -0.0013144085530056 O
   0.0008478843023142    0.8758145277556101    0.7496694571852595 O
   0.0016452661656088    0.8739826717740937    0.5001968531353223 O
   0.8354294255080689    0.8748060199935738    0.6254840378500247 O
  -0.0001721671536562    0.1257426875616468   -0.0004411585304575 O
  -0.0010692726288885    0.1250872278857590    0.2519132453464624 O
   0.0025489423056392    0.1251428262536850    0.5000144108601122 O
   0.0008175475137407    0.1270223946620626    0.7488804450266132 O
  -0.0025227837071847    0.3734599742930600   -0.0018071451736359 O
   0.0006928509247664    0.3735072148845006    0.2508895367714520 O
  -0.0002135743666386    0.3760583384066627    0.4997347445706354 O
  -0.0004168676718600    0.3750860731832237    0.7510006302957671 O
   0.0010773584962875    0.6248718032493444   -0.0001755759127588 O
   0.0026120380400850    0.6264857928334312    0.2485731937773895 O
   0.5001133014198449    0.2516940537765150    0.4986032242975077 O
  -0.0010660902611022    0.6227380081978221    0.7504714768708277 O
   0.0002605299393281    0.8760444988561638   -0.0020587024670903 O
   0.0020037135496032    0.8746719369018999    0.2522171260712869 O
   0.6669615405210055    0.1269165607521277    0.0014152424595855 O
   0.6671397995990832    0.1262671226698542    0.2498365034159450 O
  -0.0002879708894454    0.6242548837464631    0.5013332172909450 O
   0.6663269480820847    0.1246126678661059    0.7491811098925518 O
   0.1668952785355048    0.2503211744360471    0.7490075147503060 O
   0.1699181757617217    0.5016654963986754   -0.0012576025404130 O
   0.1692464736022697    0.5019378313761743    0.2498700234606358 O
   0.1640582720414596    0.4981752959810935    0.5005345642566940 O
   0.1664406641040726    0.4983438022641631    0.7511013556693771 O
   0.1679839447198807    0.7486870727777138    0.0003941384527354 O
   0.1682664462785129    0.2513766797147315    0.5016635651926471 O
   0.1676243570715217    0.7497232982734224    0.2499942027339265 O
   0.5004085103710961    0.0008136822771792   -0.0014845395113493 O
   0.5007239737439279   -0.0000894610567844    0.2494134081547594 O
   0.5015756899996843    0.0008479552463064    0.5029297824819233 O
   0.5012910702422647    0.0006022052785425    0.7487832978645935 O
   0.5013868772494050    0.2505683482740976   -0.0023597149777405 O
   0.6664553679551777    0.1259060721171305    0.4989783855865434 O
   0.1643825122439607    0.7487402082182707    0.4995368507293765 O
   0.1663131595023524    0.2498992184802652    0.2486554736983720 O
   0.1693016376697326    0.7493575740468208    0.7504816386401413 O
   0.1695897695460005    0.0021055782473072    0.7502622266513790 O
   0.6676300839247775    0.3752371731804701    0.0014753931819559 O
   0.1649551796066356    0.2482900872016381    0.0010433731183669 O
   0.6648799441846175    0.3726082493568594    0.2472138263281475 O
   0.6665896412224270    0.3744762521790173    0.5021168676695817 O
   0.6691059624659804    0.6228919504753835   -0.0008412576496272 O
   0.6669281677947293    0.6269986133808986    0.2496954942544899 O
   0.6677252749332007    0.6231431918074405    0.5004861609919842 O
   0.6670473996519803    0.3764159436851080    0.7481849662618891 O
   0.6655646460236869    0.8758959464511202    0.0007782384812396 O
   0.6675440584061768    0.8740794278734798    0.2498142212781247 O
   0.6676183565122215    0.8759838414902497    0.4992475409152897 O
   0.1668444893510592    0.0016689684485945    0.5002010394896950 O
   0.6645926521548520    0.8763427983085119    0.7493042863877298 O
   0.1641146787499277    0.0013612568815750   -0.0005864085335244 O
   0.6669224897234065    0.6224433602143019    0.7505169255705906 O
   0.1643766463869175   -0.0019531661260917    0.2503043595293747 O
   0.1669590696103160    0.3754129686820013    0.2504151184268582 Zn
   0.4998425497481213    0.1258926418255011    0.5016753478591583 Zn
   0.4980410404006920    0.6243560387214728   -0.0008595480759048 Zn
   0.4994942902098625    0.8745234933603382    0.2506098816613212 Zn
   0.4999186188817887    0.6245523412125986    0.5012146315551468 Zn
   0.4992368912985088    0.8747610414271020    0.5021381034880241 Zn
   0.1657043845031648    0.3746635523222688   -0.0009168252786265 Zn
   0.8333089059198369    0.1257936999150011    0.4997656932427318 Zn
   0.4987718991939545    0.6252127225571120    0.2496785053004322 Zn
   0.1661559750310277    0.1240967991061256    0.2493072687181892 Zn
  -0.0006148417390578    0.4997394077730063    0.2498733121563513 Zn
   0.6656716049174674    0.4989814186626338    0.2486306519179958 Zn
   0.6667300103694531    0.2503256054423708    0.7493890207510451 Zn
   0.3335963626441003    0.4986993002917239    0.5003359282757612 Zn
   0.3325031735550825   -0.0013144146663029    0.2505233487356135 Zn
   0.3323615517862770    0.0004596455713545   -0.0015578423833117 Zn
   0.0027755033645148    0.7490208734879744    0.7496054183358316 Zn
  -0.0013140832555879    0.4996235062346290   -0.0008856155618248 Zn
  -0.0001920905504601    0.2504428528874648    0.5003787538375761 Zn
  -0.0016177957080158    0.0013649526600597    0.7499843367978555 Zn
   0.8330071592198961    0.3740896984799988    0.2479543690136476 Zn
   0.6676448627248016    0.7484702927281947    0.0007021391862854 Zn
   0.8344217813295819    0.6253580449125810    0.2502694553645210 Zn
  -0.0007969001750322    0.8737811032540260    0.1238072376841056 Zn
   0.8320973724385422    0.8744878001941713    0.7500269381486703 Zn
   0.6687158124033092    0.6245320156175089    0.1242905170707594 Zn
   0.6669344663678453    0.3754070973660037    0.8754838024980002 Zn
   0.6662225350750738    0.3736089788685600    0.3750268831061674 Zn
   0.6675514726011664    0.1257115638081665    0.8763546464272945 Zn
   0.3334938208626089    0.8741995856690261    0.1230640942563999 Zn
   0.3326464835605525    0.6247640588350942    0.3750445172330359 Zn
   0.3336558144511504    0.1259691400710416    0.1255658775310175 Zn
   0.0001415241247870    0.3738634894904084    0.6254289024945485 Zn
   0.8328665073120116    0.7488087079671912    0.6259380585402684 Zn
   0.8322547573885954    0.4990054167689058    0.6262473931523058 Zn
   0.8324720591813094    0.0004970898167732    0.1233170419934086 Zn
   0.5000845059574640    0.2494310080691184    0.6260011154367464 Zn
   0.4989328062769948    0.2517623261741171    0.1245371445916375 Zn
   0.5008451633116298    0.0006578412025010    0.8740886991853668 Zn
   0.5001356998023477    0.0017712697607383    0.3768049330975625 Zn
   0.5012707614070744    0.0007663954351583    0.1242005668032180 Zn
   0.1667411032003355    0.5004139589314341    0.6257253567407384 Zn
   0.1648642217194991    0.5002337309728359    0.3753471454272840 Zn
   0.1684050873305012    0.4998326813442479    0.1241337946803272 Zn
   0.1671593612929942    0.2502754090535032    0.3743994083552161 Zn
   0.1674590450454133    0.0002064672765372    0.6252643575018940 Zn
   0.8340444359617923    0.8746116688461181    0.5000563192789044 Zn
   0.6676748153917953    0.8744223355415937    0.8755660955850130 Zn
