Yb12 Ce13 Nd13 Sm13 Eu13 Zr64 O224
1.0
  10.6921438873675889   -0.0028797593963754   -0.0010822114266291
  -0.0057597118637060   21.3860639480711718    0.0009445660994597
  -0.0021643618611976    0.0009442789002849   21.3835752001124995
Ce Eu Nd O Sm Yb Zr
13 13 13 224 13 12 64
direct
   0.6262414965142843    0.1863438704053014    0.6884840355335432 Ce
   0.1189720130206777    0.6871192239975972    0.4372959362699977 Ce
   0.1219192497371743    0.6870576638439845    0.9343300791802364 Ce
   0.1269939524484041    0.0639780191524601    0.8151611638713683 Ce
   0.3735273879108865    0.1839609182584103    0.3117571148924867 Ce
   0.8794764411821085    0.4380237494244155    0.8136324552187518 Ce
   0.1258713336035035    0.4387772453842930    0.6880059574304271 Ce
   0.8748221345524893    0.1918093045965976    0.0669056164599532 Ce
   0.3735725452844241    0.5612923793002265    0.4345145760047925 Ce
   0.3668758859583111    0.8168824383903687    0.1886642801532913 Ce
   0.6221990468141079    0.6889631469640092    0.1877059738306915 Ce
   0.6233968299944272    0.5589810590938921    0.0644512765441852 Ce
   0.3788316844108519    0.4364218341101199    0.5597807104254562 Ce
   0.6273932293001331    0.3115527842604571    0.8135212838868805 Eu
   0.3698049266322634    0.5609646629635080    0.9370261371826828 Eu
   0.8770623544661483    0.8139622656408350    0.9380208225859140 Eu
   0.8779832418231317    0.3128138533438549    0.9394491449208101 Eu
   0.8796517468157006    0.9410696903955437    0.3174338212114540 Eu
   0.6168891285807627    0.0666991458080554    0.0639729542101280 Eu
   0.6238493818740359    0.0604211316127852    0.5595234357221091 Eu
   0.1294244344221771    0.1864751159735021    0.9432450746191533 Eu
   0.8769870458299653    0.1860808309753357    0.5586233754956301 Eu
   0.6299501541078123    0.4383168756450718    0.4337369975804655 Eu
   0.3721597238167879    0.4347182287033337    0.0634172851414570 Eu
   0.1282098568826514    0.3119634270259382    0.5612534213444532 Eu
   0.3749147214335428    0.3092944598951209    0.1854642260693875 Eu
   0.3786965998381980    0.8149270650320627    0.6846666660858448 Nd
   0.6242739500920333    0.9402328771744983    0.9382842568112765 Nd
   0.8729883608178446    0.8139788597304057    0.4386751565357376 Nd
   0.8777654377052085    0.3104972051557571    0.4335225961356323 Nd
   0.8763567921701968    0.9371524560271831    0.8116125865384729 Nd
   0.1313285680285830    0.9423761044745188    0.6828049775529117 Nd
   0.6190389578577941    0.8157324868456343    0.3134901534187536 Nd
   0.1179509244110384    0.4334535803484405    0.1912039885819870 Nd
   0.8751894014622279    0.6861309366553903    0.0621963298461057 Nd
   0.3759329004424319    0.3109086775189991    0.6885216861945264 Nd
   0.3725184435536799    0.6858257347983582    0.8098439950800973 Nd
   0.8763509306664514    0.0623006811008820    0.1896854494247868 Nd
   0.6264907685168558    0.8116847209402300    0.8117949069734997 Nd
   0.7510624567455727    0.2279762955980019    0.8737831648262057 O
   0.7476456155065844    0.7313200121354146    0.3741898735776627 O
   0.7469001686654908    0.2303164955031749    0.3750009911943363 O
   0.7453814243169068    0.6222784613087028    0.4777038326940752 O
   0.7485156518798717    0.7287051355244293    0.8740003620723030 O
   0.7502482264372344    0.1241257423649491    0.9809565175188539 O
   0.7498780903116754    0.1275128352661639    0.4794185512543671 O
   0.9589781518764844    0.6261112435412353    0.8771479008037518 O
   0.9630587352973090    0.6261721148357151    0.3748598604653746 O
   0.9655839228665914    0.1243785317705320    0.8732814766974893 O
   0.9600948993763320    0.1227822156853822    0.3713183408530252 O
   0.5403009931325206    0.6246109981735118    0.8743262097147315 O
   0.5260145755396319    0.6235395626695609    0.3756067015450258 O
   0.5378442629730024    0.1251302486662973    0.8748664393066157 O
   0.7472914412356046    0.6231261730672021    0.9824081651901357 O
   0.8010686991903981   -0.0044007362733330   -0.0032717298493442 O
   0.2790130544512296    0.7465255823803696    0.4995836333251484 O
   0.7791042988736697    0.5009339309398515    0.0008367923969116 O
   0.4986318050797741    0.5016905258507420    0.3597461456207289 O
   0.5056676328719022   -0.0013986140914426    0.8526463796518782 O
   0.4998754427260869   -0.0050191246786860    0.3545418332652143 O
  -0.0043447175405579    0.4986695680360788    0.8904469191381658 O
   0.0021388292257328    0.4999849480537919    0.3955575221656621 O
   0.0040382928597951    0.0013106951536560    0.8921801978086031 O
  -0.0028707488683185   -0.0030678012401045    0.4001505821103180 O
   0.0016066789160525    0.6046468366525236    0.4994292997238874 O
  -0.0001361594032151    0.6059048918797502   -0.0013373943791694 O
  -0.0024317237485185    0.1088312866263732    0.4981137730976304 O
  -0.0009823707327353    0.1087339446183010    0.0007011372372576 O
   0.2227184561935362    0.4990557880679315    0.4999659227725730 O
   0.2088153375894523    0.5014189217055692   -0.0006094288292667 O
   0.2153373511178885    0.0013563570193381    0.5038423811958770 O
   0.5279370237562826    0.1224351066283086    0.3749470965420111 O
   0.2071234795350976   -0.0001050520773450    0.0012020202126215 O
   0.7886332328128678    0.4993062846383097    0.5005248581298866 O
   0.7910307299340567    0.0013260112906105    0.4999994098020440 O
   0.7482192538879695    0.6249356266955052    0.7678570976604209 O
   0.7512656101897794    0.5152292650267501    0.8745884063016678 O
   0.7509888582613280    0.1254621690925050    0.7637430010431945 O
   0.5039273048622743    0.8505353429448719    0.4949709949965752 O
   0.2527390645178124    0.8757730210825482    0.9819690860401667 O
   0.5047248199062363    0.8514535393110205   -0.0016927127686152 O
   0.5048648527888525    0.3695076534395514    0.5006076895665451 O
   0.5019970068173462    0.3570384074168080   -0.0017115796252026 O
   0.2546736054010259    0.4848454392341723    0.3759700680672402 O
   0.2492761917150168    0.4817671236242091    0.8740791659752155 O
   0.2495248907859159    0.9833723957489735    0.3765505490801968 O
   0.7153889616790300    0.7488424135769778    0.4988130091183467 O
   0.7116725610417357    0.7493907264920230    0.0003457880920864 O
   0.6868261760311151    0.2520171831948337    0.4969326062042152 O
   0.2502759367180345    0.9814398035507244    0.8748400059579576 O
   0.7166941141722640    0.2488061987914303   -0.0000523447500018 O
   0.2878286325439708    0.2510573353782612    0.0007343403093395 O
   0.3605179866697746    0.2615701963896985    0.5126763822017731 O
   0.4952004193573527    0.2481367526577284    0.3873812180017506 O
   0.4999639941693158    0.2498271904001814    0.8948614083682582 O
   0.4987456786163530    0.7478858917667831    0.3911551054785810 O
   0.4987028372302947    0.7491938798626363    0.8945733014242536 O
   0.7460250272878101    0.1225535846092909    0.2685709144812399 O
   0.0026928982793778    0.8918335355739212    0.5010100745124302 O
   0.0031140466744728    0.8919266334581941    0.0023435711804726 O
   0.0031412825367676    0.3999140554781362    0.5006727699324393 O
  -0.0014604711024334    0.3984910436623771   -0.0004147919480399 O
   0.2870776769513806    0.7499190858375879    0.0002394785077882 O
   0.7516890417390479    0.5214290667365241    0.3728759118494481 O
   0.7526134519103480    0.6243212518630622    0.2699931112094426 O
   0.7518726137583676    0.0219805249989004    0.8749059616347510 O
   0.0028223629397052    0.7478963993329154    0.8571993056187153 O
   0.0015320955785570    0.7478152513143305    0.3630182124622168 O
  -0.0024487772356713    0.2515456245911387    0.8472899820424700 O
   0.2504886058236656    0.3762293763622191    0.9778897016784004 O
   0.2515921823757414    0.8726620246660923    0.4817034048588266 O
  -0.0059826426372073    0.2490103748268352    0.3557779605698088 O
   0.5011020409219940    0.4988466036213233    0.8563187368121364 O
   0.7487732395082408    0.0212142278815621    0.3744747645182268 O
   0.7551833201049319    0.2688495189852909    0.1215013936043800 O
   0.7492808382585953    0.3757291787295063    0.2286396839258696 O
   0.7455599958902919    0.7604114377478954    0.1256700288737647 O
   0.2435759944381663    0.1225755431153447    0.8752939728299133 O
   0.2561440350779372    0.1279535715766203    0.3698831931761312 O
   0.0014286522139815    0.4960247121323511    0.7498584276635374 O
  -0.0020246112544135    0.5011800579273544    0.2508696446466879 O
   0.0070714474794423    0.0045033613310700    0.7522459543040871 O
  -0.0029915357151330   -0.0029061586403298    0.2512163258906778 O
   0.2530748268507658    0.8778112634710412    0.6221068144025111 O
   0.2537099963829075    0.8736159009145686    0.1266169709829287 O
   0.2519334608646492    0.3801410519308153    0.6247123017130983 O
   0.2516518496247157    0.3742957004574753    0.1259953203494454 O
   0.5014495551381940    0.7492062813296726    0.6027494642251776 O
   0.4985072952308084    0.7489729075412733    0.1109771491792740 O
   0.5118419382021504    0.2469750806702661    0.6181689722071357 O
   0.4998162776140671    0.2516524189686177    0.1042601228292003 O
   0.0021624617340999    0.7507089832610945    0.6426320120029037 O
   0.2482225520224207    0.6228080383252781    0.3797496689220309 O
   0.2395989545266990    0.6270965243409186    0.8781484026101924 O
  -0.0053995351721618    0.2480541868136765    0.0030950819087011 O
   0.0060341106953274    0.2502690524975348    0.5012710602028539 O
   0.5059335361727575    0.2472375787047591    0.7511979409752398 O
   0.4916205213697802    0.2462803992355130    0.2525272014070964 O
   0.7537726970643399    0.6241200467796802    0.6238173665150317 O
   0.7383809242488957    0.6239911584969541    0.1265129168640559 O
   0.7454250154040724    0.1287694040255891    0.6271049924328370 O
   0.7553909266996808    0.1303784809842906    0.1213179598336024 O
   0.4913599881287331    0.5027411981110097    0.4994237735064890 O
  -0.0002141091674799    0.7498473771603448    0.1384208540897486 O
   0.5053880460789277    0.5023670171103628    0.0022160169676742 O
   0.4991999753077457    0.0012447476876399    0.0015220555772478 O
   0.7520599646294926    0.8749678847204262    0.8767142339174246 O
   0.7478644260340654    0.8764684502869348    0.3743240062506121 O
   0.7577496494178257    0.3787111284577799    0.8724545607276333 O
   0.7495192907960574    0.3746330664599125    0.3741279899818653 O
   0.0081772105928270    0.7460510705280108    0.4978223384875973 O
   0.0087345401386842    0.7464770050933445   -0.0031807719889947 O
   0.5020413364880547    0.0002159691323749    0.4989723623503655 O
   0.0088113516733201    0.2519634355139167    0.6589962970511626 O
  -0.0017033112838173    0.2503166721036048    0.1414517467124042 O
  -0.0003598396230723    0.8554778548869374    0.7509069975954610 O
   0.9663593254268315    0.8753234433722419    0.1294564431430333 O
   0.9743974344284907    0.3756258444965129    0.6260708708879645 O
   0.9535208364355969    0.3769613282245641    0.1271783384463466 O
   0.5438268154948246    0.8743542157552040    0.6231369252053049 O
   0.5260685962042869    0.8737366690154496    0.1241910467536134 O
   0.5276250927313303    0.3758074746885343    0.6245093552468670 O
   0.5439378756512581    0.3761602018851993    0.1229127853817198 O
   0.9647965965021703    0.8769168480715788    0.6254798024903642 O
   0.7539423615224176    0.8754336988623463    0.5198192694604462 O
   0.7566571939766377    0.3709922136319405    0.5284172344451435 O
   0.7483824425556710    0.3757486891438580    0.0159962351255581 O
  -0.0019146293018843    0.6427347969179376    0.7488406480413805 O
  -0.0031977080686137    0.6510465191666723    0.2485541425984202 O
   0.0034544097189311    0.1383365515912945    0.7509155637249719 O
  -0.0062846763115443    0.1472029153879175    0.2465390282379584 O
   0.7496346553539259    0.7679635695926140    0.6250350857837316 O
   0.7506740179405541    0.8740150290932612    0.0281758023571947 O
   0.7566638486153676    0.2732561083079307    0.6218910596006793 O
   0.2538097533044475    0.3754578731380157    0.4831205216945018 O
   0.7441400135416044    0.8727356285033706    0.2237158325564996 O
  -0.0188447609470206    0.8283158033274193    0.2596806623915684 O
  -0.0007881121948745    0.3639792503509197    0.7506878639712397 O
   0.0032990628934127    0.3511726082235374    0.2500759431241686 O
   0.2115816645724000    0.7495737030935496    0.7505764252895253 O
   0.2228167389684316    0.7504716983811220    0.2491096498588394 O
   0.2167886258317532    0.2502488014695886    0.7494146166968905 O
   0.2155999325344294    0.2479877266307660    0.2547207832979567 O
   0.7510106830882574    0.3762936484592329    0.7317853680435690 O
   0.7910612347868478    0.7498196169147444    0.7492449528994166 O
   0.7846209119809178    0.2491141261030626    0.7472532046873493 O
   0.7799714196452850    0.2501079701686047    0.2498978665070270 O
   0.7514829013064610    0.9821076490196844    0.6255125848148692 O
   0.7478559999904140    0.9815557916521321    0.1244540514000313 O
   0.7499168330428881    0.4820975880364936    0.6249448292175859 O
   0.7477134098591371    0.4866538711303651    0.1241261474791715 O
   0.7509184131581438    0.8748370850352408    0.7311197769940843 O
   0.7662869392842564    0.7462700853439319    0.2479491210853404 O
   0.4599451210404024    0.8745446475085950    0.8751268371122510 O
   0.0018023429796940    0.4994721735602757    0.6113380819901035 O
   0.4612456326036367    0.3755512480531194    0.8743349074949726 O
   0.2872106290368040    0.0003552247932893    0.7507927591820375 O
   0.2859476468359026    0.0011455529981173    0.2489465087436007 O
   0.2517756451961994    0.7307887652728152    0.6251055580354400 O
   0.2506081429840479    0.7342321594656985    0.1253140315621565 O
   0.2517315523216773    0.2267010207051841    0.6246019492885505 O
   0.2497619809960786    0.2314168752475063    0.1262002921385063 O
   0.2528229494949789    0.6256216070084184    0.7286484499651423 O
   0.2496371681234445    0.6254620105672469    0.2298791073548654 O
   0.2523549855930047    0.1253189291442203    0.7425489257357405 O
   0.2475220148339710    0.1261543315420930    0.2296526600115563 O
   0.4632240564416537    0.6250111960088336    0.6254657047266442 O
   0.4688980082495072    0.6251374482533878    0.1241371058702307 O
   0.4757294538381057    0.1252232830422501    0.6280340225058503 O
   0.4615238213271887    0.1256670448931835    0.1256643943064336 O
   0.0469806760409282    0.6228909555071488    0.6253899308444467 O
   0.0333836127298401    0.6248139419324401    0.1257177000466099 O
   0.0259867709651183    0.1288129048186837    0.6238721430385575 O
   0.4255850405347776    0.8654597021491580    0.3655968705051749 O
   0.2507218876001276    0.0198672995234615    0.1237428641038276 O
   0.2356744884606680    0.0429093952073060    0.6331091781323033 O
   0.2490629278786630    0.5234537997122329    0.1256666268998852 O
   0.2492942489876765    0.5137420807028868    0.6237140693942936 O
   0.5006654091154475    0.3940462737006531    0.2494588692026791 O
   0.3049907707775262    0.4990299766701856    0.2489770352262836 O
   0.4986005595990651    0.3960886374530524    0.7488758368941701 O
   0.5007072904842200    0.8927829042347433    0.7496709784859861 O
   0.2505037200125885    0.1254515517876312    0.0197120571825717 O
   0.2483771649184247    0.1312505975768301    0.5159005918297210 O
   0.2449013071832561    0.6274223033264217    0.0205483034725334 O
   0.2504457434003509    0.6225084798211539    0.5176162444495697 O
   0.0352486858219146    0.1276745021574519    0.1237910013720121 O
   0.4923921671998879    0.8914376427865285    0.2474859410445390 O
   0.2803694508519948    0.4983882796710152    0.7474295109790353 O
   0.5024912313450451    0.7470156308365581    0.7477854476408463 O
   0.7142956195183153    0.0005049422843002    0.7497811535946182 O
   0.7019770211679904   -0.0014996120600715    0.2489806853988859 O
   0.0405288575629727    0.8747187658123913    0.8757539928654766 O
   0.0518535103874872    0.8750564613910815    0.3755994065384802 O
   0.0360725410702325    0.3758391354893670    0.8734111587187550 O
   0.0384196634860276    0.3739732693627477    0.3770692938936491 O
   0.2512358212013950    0.8744852858587374    0.7694121505059142 O
   0.2388079142801956    0.8753067949916696    0.2623139584902455 O
   0.2481221028708067    0.3761285591910600    0.7644462493174986 O
   0.2457078772186610    0.3765360357154744    0.2757590174498188 O
   0.4980702375673231    0.6419067554349607    0.4994892036366533 O
   0.4994317223092408    0.6444084360373304    0.0012088887371130 O
   0.5002969278846440    0.1392973474635046    0.4998233967230811 O
   0.2470302831071527    0.7653127888596144    0.8763621667033562 O
   0.2440875868562973    0.7568675051377071    0.3764745921222976 O
   0.2505419355705443    0.2713832579013329    0.8737244298381864 O
   0.4992405121701506    0.1467041815177404    0.0003516854844237 O
   0.4931770667518082    0.7497048008572481    0.2447931714164256 O
   0.7003381516887848    0.5024867440630550    0.2482701335449542 O
   0.7184401587448292    0.4994013028061073    0.7499248392130073 O
   0.4931346680590070    0.1075705038058408    0.2522748075145679 O
   0.2429969822115426    0.2698424365481111    0.3842134728374453 O
   0.5029238287095426    0.6124486482433323    0.2487658548673264 O
   0.4962679045017857    0.5966774564938195    0.7512221507011669 O
   0.4955873306549679   -0.0001023200033820    0.1432941598751170 O
   0.5034691923792080    0.1126665409225037    0.7509518776306747 O
   0.5019931679650846    0.5020003210492950    0.1394817431695941 O
   0.4993067118098530    0.4992024793990112    0.6392452560178324 O
  -0.0004560672055059    0.0024128768096104    0.1066819566103368 O
   0.0021407327174321    0.0022345198896429    0.6053364253976127 O
  -0.0025222363823031    0.5004653705252496    0.1054347304432381 O
   0.4909809603303624   -0.0024641806954484    0.6492592019437312 O
   0.4715490717592230    0.3746425595475447    0.3740833238631985 O
   0.6230342973163199    0.4360447930286637    0.9376324192498611 Sm
   0.6318049657549153    0.5641258017864383    0.5610011511984407 Sm
   0.6342078779408835    0.6914583877848703    0.6819644656477131 Sm
   0.8776594103248189    0.5650468637147299    0.6871586148902804 Sm
   0.8759517797241732    0.5610927193269675    0.1918426056553708 Sm
   0.8766461552396799    0.0631161645692399    0.6852974388038721 Sm
   0.6278581450402358    0.3116618497713094    0.3099698997539777 Sm
   0.3785462919472046    0.1862749537924605    0.8167917021369255 Sm
   0.3699194701131339    0.9434321536684850    0.0637688780790889 Sm
   0.3739377855456672    0.0607428329340370    0.4376877921937518 Sm
   0.3706602216186869    0.6858814325118491    0.3121980869730631 Sm
   0.1227364136804716    0.8147369143386405    0.0641792073469678 Sm
   0.1266332926257137    0.8136514447254553    0.5623650217245865 Sm
   0.1092302835195186    0.1817739397629312    0.4293460075530320 Yb
   0.3734319981661872    0.0638945549568306    0.9403717206214718 Yb
   0.3897546123390503    0.9290462276367141    0.5544237486407015 Yb
   0.1320151818674601    0.9460107209684606    0.1860098777063104 Yb
   0.6228582395331619    0.1857037840640843    0.1899895038748647 Yb
   0.1281792218712150    0.3096717692226991    0.0650654355585527 Yb
   0.6373444060016794    0.9434351353557122    0.4398250297854317 Yb
   0.8780814225497572    0.4393412144523682    0.3153965898157373 Yb
   0.1253782773018194    0.5605287661031177    0.8125290865611070 Yb
   0.1174816138885786    0.5601844582850360    0.3156852787021904 Yb
   0.1278857595764539    0.0613644370520962    0.3107928756605022 Yb
   0.8756486181033880    0.6893893809294916    0.5629568701863452 Yb
   0.1236154224577516    0.5617928399210436    0.5618975845827352 Zr
   0.6247787156458043    0.4381789638157038    0.6870629858989256 Zr
   0.1222301489680624    0.5617495413030422    0.0637678143587823 Zr
   0.1242005063795403    0.0673525975160921    0.5587255053741002 Zr
   0.1249226193524416    0.0635809317771804    0.0628098243821550 Zr
   0.6248302063378959    0.9373308462241607    0.6867790232532121 Zr
   0.6217038800459096    0.9376155564013743    0.1853108259992304 Zr
   0.6255208376469614    0.4370319135219408    0.1875276300635001 Zr
   0.8757173988530569    0.4372179157283799    0.5634083165529410 Zr
   0.3741681140312262    0.5631927186505115    0.1879267775460838 Zr
   0.3794307164263170    0.0635223018297328    0.6903636916494773 Zr
   0.3722047848194084    0.0636621487771832    0.1880957978486656 Zr
   0.8763186955076508    0.9393465074801279    0.5613246675838907 Zr
   0.8793856668580693    0.9382452130609805    0.0660667717516207 Zr
   0.8743795162522664    0.4361738941472466    0.0630466045349202 Zr
   0.8704558163620515    0.1849246047916600    0.3108832473856467 Zr
   0.3728405610729082    0.5619482551091025    0.6863832932682181 Zr
   0.8753075216780416    0.1864795387087846    0.8112077393198984 Zr
   0.3659793481062685    0.9400261722332751    0.3113307814271427 Zr
   0.8751653740458216    0.6866517850732898    0.8112717939324869 Zr
   0.6211620619061982    0.0602256246129530    0.3122489447774519 Zr
   0.6260958117814178    0.0628252641597781    0.8127850719724424 Zr
   0.6253809304331877    0.5630505831616270    0.3127353251292956 Zr
   0.6261431620036244    0.5618454467561811    0.8126548637686343 Zr
   0.3747921135671526    0.1881141320433197    0.0637360428619289 Zr
   0.3813998041417972    0.1837346267322124    0.5636042753245697 Zr
   0.3731299929063829    0.6879119235893775    0.0624237509454315 Zr
   0.8734287268190365    0.3112853064773658    0.1897396097001070 Zr
   0.8758627398203456    0.3137037673117383    0.6863969549027849 Zr
   0.8721991374802475    0.8111025849811251    0.1857002352481825 Zr
   0.8770102623198250    0.8130805747191284    0.6853162912714044 Zr
   0.1241448153190007    0.1890873211077891    0.1879975872454477 Zr
   0.1298418956417548    0.1831063858159493    0.6882148122956312 Zr
   0.1244744364207736    0.6880651148730459    0.1871410663114241 Zr
   0.1235992257528429    0.6880011740563092    0.6873082801089768 Zr
   0.6253730380018253    0.3117803558872385    0.0619526412557268 Zr
   0.6171867361499626    0.3118975253577115    0.5620074657850476 Zr
   0.6233763896725565    0.8116927062808516    0.0632703052889391 Zr
   0.6287289811674388    0.8131412259653663    0.5598366254749423 Zr
   0.1270621582021669    0.9379253871018421    0.9381987312441503 Zr
   0.8753268759726588    0.6901670824935809    0.3126479343921597 Zr
   0.1309557148739040    0.9387147212744515    0.4405732194332696 Zr
   0.1253660234784997    0.4378140673342415    0.4350130744474904 Zr
   0.3803607426195014    0.3137635611988830    0.4350634574101848 Zr
   0.3739236274510156    0.3124134110484118    0.9386880171551587 Zr
   0.3730065422556136    0.8100883811494233    0.4377086158262802 Zr
   0.3747321171747801    0.8125065728831620    0.9375849521101118 Zr
   0.6196054855234721    0.1856416762351399    0.4352313342440542 Zr
   0.6239751371839402    0.1861957940828173    0.9379834376641626 Zr
   0.6255074558196442    0.6877867639759537    0.4378780273888395 Zr
   0.6241966319003359    0.6874573946218210    0.9372449361349857 Zr
   0.1229282760137873    0.3098735441752355    0.3159075098030021 Zr
   0.1268906485195434    0.3119940708238891    0.8107866806115001 Zr
   0.1303821621002278    0.8117007081752170    0.3146921290417987 Zr
   0.1256175068988268    0.8130173813367526    0.8119211313839775 Zr
   0.3767533941472502    0.4364773975764131    0.3125198618722643 Zr
   0.3737330822876810    0.4384773074971308    0.8125325864845008 Zr
   0.3757322174056542    0.9375498876081236    0.8128724610768971 Zr
   0.8757922260596186    0.0637280306029793    0.4354233050260454 Zr
   0.8768499650861052    0.0631004796629236    0.9388854002841253 Zr
   0.8761723402930031    0.5619629703842179    0.4359741267920386 Zr
   0.8742221215051832    0.5612308383839980    0.9372694645375915 Zr
   0.1259054231078225    0.4377107884312428    0.9372926557862373 Zr
   0.3743893145853748    0.6867931812578160    0.5629198240883750 Zr
