Hf48 Zr48 Ta48 Nb48 C192
1.0
  13.7288777073844503   -0.0000012560043774    0.0000481595721279
  -0.0000016685642668   18.3038164223914173    0.0008225788521599
   0.0000642110783909    0.0008225703726346   18.3046021210859813
C Hf Nb Ta Zr
192 48 48 48 48
direct
   0.8325428503297010    0.8768450474524422    0.8752511356278623 C
   0.4991086795337064    0.7519721444006399    0.2527675113481842 C
   0.4947662833191271    0.7485311644017176   -0.0016686779711355 C
   0.4945037294419798    0.5006828523424197    0.7479989806487175 C
   0.4946521129054494    0.4984002287488368    0.4998144657716272 C
   0.4958230727564738    0.5028307722251738    0.2531236141854587 C
   0.5000724606522210    0.5027046046241049   -0.0003705620939490 C
   0.4965845065216213    0.2452959745609748    0.7502283608190856 C
   0.4957863559956975    0.2476456981646963    0.5012034171184260 C
   0.5006967990614103    0.2449984855379054    0.2507037208274262 C
   0.5003635135342394    0.2475808566512400   -0.0037622790320092 C
   0.4978632903492933    0.0018407307175972    0.7473964140277388 C
   0.4960715828982656    0.0004920432329087    0.5021166119347975 C
   0.4992755181952986    0.0004812246760014    0.2488868331896268 C
   0.4984082852910948    0.0005522079339370    0.0021377229640116 C
   0.1706957470936866    0.7502345167552752    0.7486972022798454 C
   0.1690018099287364    0.7531479788561534    0.5029939666192315 C
   0.1641306707232483    0.7522105166242947    0.2473218360785385 C
   0.1699511974338465    0.7515128296040853    0.0000691780111494 C
   0.1711052237324611    0.4996358585998724    0.7491027551645135 C
   0.1714013718106454    0.4996782070404980    0.5022401547035029 C
   0.1668676061009027    0.5022276548678821    0.2480957907160962 C
   0.1659227348558113    0.5034962583800486    0.0001597914265157 C
   0.1686153855749365    0.2480718564427379    0.7469692806260044 C
   0.4980816097419972    0.7538625694434038    0.5005487444893927 C
   0.1716892853031571    0.2457015066057339    0.5033647889565189 C
   0.5003812728338416    0.7531701589362145    0.7492282366116241 C
   0.8383827982417636   -0.0016994095645205    0.2472177782309381 C
   0.0012200416810745    0.5005627056011634    0.1264177867395095 C
  -0.0040557259396925    0.2470734104860325    0.8743202412280831 C
   0.0021488658184929    0.2454277969724114    0.6280318145254414 C
   0.0033592591050704    0.2467578625729316    0.3763096504662629 C
   0.6648933585512453    0.8753587946861577    0.5039373066532228 C
  -0.0005959944714489    0.0016581967219081    0.8729927013735109 C
  -0.0011658457294905   -0.0002546433560635    0.6255208709277585 C
   0.0017211350151252    0.0014079981858141    0.3759158457438511 C
   0.0000980691197837   -0.0000428413781931    0.1250665466069902 C
   0.8304054732241880    0.7547902157451333    0.7483057828736348 C
   0.8335646543314605    0.7546825501635009    0.5035181909576533 C
   0.8374009218241676    0.7532830689128024    0.2500876440405570 C
   0.8342364047445665    0.7561260199309989   -0.0021274930073863 C
   0.8342539105345279    0.4964606123660646    0.7478871925938341 C
   0.8343192268396153    0.4996738087170690    0.5047212294785497 C
   0.8368568974427022    0.5015660575149504    0.2491600721378068 C
   0.8340320766900224    0.5002045827076034   -0.0005189320519450 C
   0.8355861240815859    0.2484118675527039    0.7509419466087602 C
   0.8327267726907857    0.2456482546469305    0.5046890444577548 C
   0.8323466557344569    0.2465834733108733    0.2460003872177536 C
   0.8348153737328443    0.2447948624985524   -0.0019486248919806 C
   0.8364512011318787    0.0011463196086041    0.7488186758811973 C
   0.8382807484912630    0.0002960640823147    0.5052972134956243 C
   0.8362502923021156   -0.0000031034449898   -0.0015900748611378 C
   0.0012349550125434    0.4989518073558544    0.3744939790522566 C
   0.1666007467422941    0.2478021177782606    0.2530261890289784 C
   0.1646549498735113    0.0020619919908244    0.7490298502750199 C
   0.3292130144990582    0.3732459153187812    0.7478915750033223 C
   0.3349717252046664    0.6285375079121163   -0.0007930824469648 C
   0.3348783042868362    0.6236331032491703    0.2529770316253429 C
   0.3355371606895750    0.6236556575061428    0.5006906697736336 C
   0.3312755565588983    0.6242914850834946    0.7473922108645813 C
   0.3301276975216973    0.8745659036327278   -0.0016812013213086 C
   0.3332117810841486    0.8752086191948987    0.2514159633436507 C
   0.3358886478067679    0.8758223794716051    0.5014088281098362 C
   0.3345206610372837    0.8758536733270256    0.7492929543217324 C
   0.6701411976176647    0.1235793343922226   -0.0028581998497571 C
   0.6646131258141117    0.1247194931772935    0.2519978772460651 C
   0.6639707495758698    0.1246813019723431    0.4994202181069121 C
   0.6657696691230833    0.1235049198980877    0.7509111455092349 C
   0.6653626398187401    0.3737819678594888    0.0025485977088715 C
   0.6654222050734191    0.3732663479375460    0.2509748081136876 C
   0.6607390561457148    0.3724049233669312    0.4968548905580899 C
   0.6710453542089538    0.3718731041706057    0.7496811596640778 C
   0.6620674817733084    0.6260691854944438   -0.0010359318949742 C
   0.6640374167354568    0.6256133191721069    0.2512874708359154 C
   0.6634038514887159    0.6272995567208801    0.4980749968187330 C
   0.6645994403432218    0.6298466930635527    0.7515762579465118 C
   0.6711990068652484    0.8770494918547639    0.0002643010543208 C
   0.6674947811380307    0.8756114590149598    0.2472297150356047 C
   0.3368059605004870    0.3742982130201307    0.5005369043796711 C
   0.1644435471726198    0.2479056765860787   -0.0020750984142276 C
   0.3341286569511716    0.3767635611220741    0.2542798441651612 C
   0.3327241189110503    0.1254166588214720    0.7502827746599703 C
   0.1655324211816955    0.0013292786883690    0.5029692910847449 C
   0.1617656945514025   -0.0033698984715828    0.2489938798422761 C
   0.1657303195731346   -0.0027256202580016   -0.0004449272502554 C
   0.8337250935531458    0.8763675118800246    0.6260548234679556 C
  -0.0041360331087654    0.1229345452398026    0.0002552923427347 C
  -0.0015500486474322    0.1202339867802870    0.2506827535615884 C
  -0.0001299580192792    0.1209884004084618    0.4996184014296841 C
   0.0010187871076358    0.1230928866181601    0.7499049604155172 C
  -0.0001518232773360    0.3718400610784535   -0.0029412075403482 C
   0.0000848764521765    0.3764245991546450    0.2530744340217088 C
   0.0011766010306656    0.3745717901914140    0.4982472966624856 C
   0.0017858996569646    0.3703096139806008    0.7516023264276324 C
   0.0038894688165512    0.6258256589786062    0.0008715501268596 C
   0.0003568372175383    0.6267429157848202    0.2502519087533913 C
   0.0015846819230441    0.6267345705963708    0.5008601423237669 C
   0.0058269441078450    0.6267347760277142    0.7474509037612612 C
  -0.0017230282779067    0.8790055013221462    0.0015016057784637 C
  -0.0004590884414075    0.8769930384095551    0.2490204707886952 C
  -0.0006446628638867    0.8786768491112972    0.5017873665559777 C
  -0.0008210096027797    0.8803777999261466    0.7477517432415208 C
   0.3336273065894237    0.1227347806447625   -0.0001784767365615 C
   0.3374118661424347    0.1236986158510694    0.2498487171582728 C
   0.3357969166542411    0.1257543156483955    0.5003473624371009 C
   0.3342505732187118    0.3734478291740314   -0.0027966389073102 C
  -0.0014865899686061    0.5023584573176386    0.6244213864986891 C
  -0.0046558307204618    0.2446161254374148    0.1218685041635444 C
   0.6670919952375869    0.8753542792476576    0.7488238290915553 C
   0.4986574906888990    0.3748796318657299    0.3783428581632771 C
   0.6696408148573028    0.7534211625901263    0.6274064436239428 C
   0.4950084223622575    0.3735539782862146    0.6219472130418424 C
   0.4966680459652062    0.3702367845796723    0.8742218059641338 C
   0.5014379178972239    0.6263709758883793    0.1242021477371419 C
   0.4996034941773250    0.6257903989287585    0.3746715745525102 C
   0.4967649783242311    0.6267102083450106    0.6247878624285720 C
   0.6650237908609228    0.7475997546444252    0.3771070830289725 C
   0.5027203432632307    0.3725019757461552    0.1243810821996319 C
   0.6680532410763296    0.7522185142659769    0.1242293686456004 C
   0.6683612646419334    0.5035694752316516    0.8751720347897001 C
   0.5043386631901745    0.8789009581331628    0.1276165791287237 C
   0.4992967052712913    0.8750693519260453    0.3772160692322469 C
   0.6694698210847507    0.5018177150316038    0.6248180644168737 C
   0.6626249198687399    0.4992952830797572    0.3752525486540823 C
   0.6679106864530424    0.4985556386864682    0.1245817910078182 C
   0.6679203959646089    0.2452778346313931    0.8740046272666372 C
   0.6679828094802566    0.2454422992991784    0.6257033229142863 C
   0.5019710342062026    0.6273692672483757    0.8759509324998106 C
   0.5026411299387319    0.8770603910118236    0.6236932741803720 C
   0.5020002353548537    0.1261844202391612    0.8716964224753474 C
   0.1655739129019887    0.1208648946654702    0.1243153801962883 C
   0.4983001856720007    0.1220183869848321    0.1265769438588720 C
   0.1653258164539660    0.8760278942652818    0.8747884653622302 C
   0.1638414098697235    0.8747330771640717    0.6257852124085269 C
   0.1652734143550860    0.8758201539011878    0.3749697027095492 C
   0.1617981969546745    0.8748007288866013    0.1243274260525076 C
   0.1683182894254877    0.6276969690151623    0.8730787787865527 C
   0.1691784319552280    0.6281015473092534    0.6282096740323518 C
   0.1714192955736935    0.6272125840681879    0.3742164695194037 C
   0.6686683112617260    0.7512456696353020    0.8713539894734438 C
   0.1672089856354566    0.6281282028896352    0.1237201209126935 C
   0.5011447450375870    0.1241864706573907    0.3767289186024699 C
   0.1709004724597399    0.3720578013106942    0.6287488801766820 C
   0.1696640425624927    0.3718671979275998    0.3767893390548006 C
   0.1680078318442823    0.3764954676914626    0.1242919808847965 C
   0.1658914768291435    0.1217757586904036    0.8703423341372623 C
   0.1653666989911357    0.1252073199744851    0.6270045428283096 C
   0.5009351742757180    0.1231170315277708    0.6248115885891016 C
   0.1648695750704840    0.1249105783077459    0.3790160143827937 C
   0.1668252046604132    0.3744561257714096    0.8700276709464657 C
   0.8355530263933819    0.1240053324035507    0.1221137410190208 C
   0.5023492962315196    0.8756645853266487    0.8717345596767944 C
   0.6646318161853797    0.2495702379644548    0.3757676274885998 C
   0.3324258187739496    0.2507973203382097    0.3798526207011905 C
   0.8343410817538617    0.3742219005954637    0.6284931167991916 C
   0.3342011401613714    0.2461668269259592    0.1232874626188760 C
   0.3298333548377385    0.0014712130384015    0.8738276187850146 C
   0.8361955430580094    0.3709728341197002    0.8708535741374784 C
   0.8305537056492586    0.6272483906451177    0.1255216921967553 C
   0.3312628574682929    0.0004551535382146    0.6262116075596250 C
   0.3319419388120337    0.0017201758412922    0.3788336825158236 C
   0.3335705819825266    0.0024678167639485    0.1219746615526317 C
   0.8292434675673059    0.6271649624560824    0.3746855776586301 C
   0.8348967978379289    0.6272331227277276    0.6261296792459086 C
   0.8293075544713886    0.6279448911088307    0.8743065871129923 C
   0.0002675406716091    0.7536444391108652    0.8738995784818337 C
  -0.0000367337469303    0.7536314725435741    0.6243588701399941 C
   0.8341290813255638    0.8774677253571632    0.1233182082970896 C
   0.0009781708728305    0.7526363834106613    0.3751681780838069 C
   0.0024531667701803    0.7542627505840804    0.1269536970842241 C
   0.0004192745463104    0.4973469420521033    0.8750191130896894 C
   0.8363882681385090    0.8753511484168838    0.3760055504925077 C
   0.8333384232607783    0.1240585301499108    0.3774082965790037 C
   0.3357923070915563    0.2483188667749119    0.8711386252891627 C
   0.3308711874577696    0.2504244074929172    0.6257130374289896 C
   0.3358875678492143    0.4996868642843843    0.3779920409606905 C
   0.6694875753973568    0.2494127115574221    0.1238216079388722 C
   0.6711248819239851    0.0014252217326650    0.8737498503406727 C
   0.6697729608045894   -0.0015188357296682    0.6271347376486275 C
   0.6655092353695872    0.0038234138144740    0.3762952193893115 C
   0.8336903798575285    0.1226592115169030    0.6263220489907987 C
   0.6661403706408630   -0.0012369514781433    0.1229537278245545 C
   0.3313536102854804    0.7512890106521539    0.8749063550108976 C
   0.3304844557396699    0.5000768988329172    0.1277952109338372 C
   0.8327799593022038    0.1248615960584081    0.8743117996564678 C
   0.3307604080661793    0.7487487559975791    0.6257373015929737 C
   0.3345522966822672    0.7478581366467748    0.3785333798913149 C
   0.3278692282506137    0.7502581134717812    0.1218778883838035 C
   0.8299521235471803    0.3739600705850355    0.3764643324241279 C
   0.3319670547223597    0.4990124166818787    0.8701480408637644 C
   0.3327720490168813    0.4994311961185312    0.6245736942177740 C
   0.8292436146009770    0.3712448417617980    0.1240065362656412 C
   0.0005538056811453    0.7521135966297672    0.5019680730172944 Hf
   0.3330426689462925    0.2479560571643166   -0.0029964420627522 Hf
   0.6683515976831819    0.0002877062747248    0.7496171972196246 Hf
   0.0012476002345542    0.5003288338431934   -0.0006426152623332 Hf
   0.0013617968063635    0.5006235745708785    0.5012336792124851 Hf
   0.6693533803677494   -0.0002570484065915   -0.0015562636315016 Hf
   0.6676705820049184    0.2475963225380643   -0.0014092790893163 Hf
   0.6663409748068215    0.2483917412669249    0.2500262255137680 Hf
   0.1687283169699810    0.5005321148008833    0.6258241094209028 Hf
   0.6684466250513097    0.2467206629700422    0.7497034974960259 Hf
   0.4981744043484538    0.6271271106950705    0.7498728994135472 Hf
   0.8344830907672771    0.1228731060182445    0.2494492208371319 Hf
   0.8349517179046104    0.7523886190042786    0.3750723233680984 Hf
   0.8341213114933881    0.7527990591807650    0.1255038720654923 Hf
   0.8343918762590070    0.4995566596610140    0.8741574776076786 Hf
   0.8325444553811120    0.5007742263532059    0.1249180013332277 Hf
   0.8339646062045455    0.6262535897046574    0.2496262347349169 Hf
   0.0013619862019032    0.6256473393597820    0.1259460986543531 Hf
   0.4989000577396988    0.7522673227308874    0.8733003113157325 Hf
   0.1654554977793995   -0.0005495600607732    0.3772576586092812 Hf
   0.4970759839956490    0.5000298097786066    0.6248182041059743 Hf
   0.4978442150493071    0.2478525776348850    0.6246106279139505 Hf
   0.4990760473442203    0.2473148068967968    0.3765909166760696 Hf
   0.4992810061858309    0.2476855667918447    0.1247287772833790 Hf
   0.4986014105696005    0.0009672193536820    0.3759828931549872 Hf
   0.1665322659798520    0.7521140823556639    0.3755047073765145 Hf
   0.4978645024109197    0.7521887288168668    0.6260873857148609 Hf
   0.6654851176053136    0.2473795938395482    0.5010491554267427 Hf
   0.0004204045756712    0.6267227590202318    0.3740595338137647 Hf
  -0.0001217026197382    0.8775775867838285    0.8740768398831629 Hf
   0.6663744592908127    0.5006656597114999    0.0000148846195861 Hf
   0.6662081747851611    0.7520818018370856    0.5008486869647261 Hf
   0.6664259200699282    0.6274575687745199    0.6259167473507984 Hf
   0.1662627611631296    0.6256987211396285    0.2495376650070204 Hf
   0.6686943091559902    0.1230297306684568    0.1238754855833362 Hf
   0.3311518531059409    0.8764486774919926    0.8735742224154068 Hf
   0.3328278130584381    0.8772247340826013    0.6254867134942684 Hf
   0.4982306586933311    0.6269264976944654    0.4994922075556875 Hf
   0.1669482486930133    0.5001787851356632    0.8730740237295271 Hf
   0.1671226460882236    0.8769132759469076    0.5016955790870957 Hf
   0.1673363411027069    0.8778428686648952    0.7494414394901758 Hf
   0.3325709127168243    0.6251531861917289    0.1245616503862350 Hf
   0.4991428352201150    0.1236197975510551   -0.0021422335755729 Hf
   0.3324248242233381    0.3750616861399029    0.1252738382690703 Hf
   0.3324107120553514    0.1234874275928432    0.6255912296722046 Hf
   0.4995080392948024    0.3729621295050842   -0.0010581779466131 Hf
   0.3316468564009355    0.6269236424152355    0.8740933473493010 Hf
   0.3340459601159683    0.8756123522592003    0.3765208807223893 Hf
  -0.0023199035181599   -0.0007010104326193   -0.0012155686083984 Nb
   0.6706911101694104    0.8756974420644419    0.8716465983092124 Nb
   0.1677321010145784    0.0011814657013846    0.8742902703007377 Nb
   0.8317421012079291    0.7539602507410972    0.8742284764717118 Nb
   0.4987718763562600    0.8754939077521213    0.7496842747639556 Nb
  -0.0024896849016395    0.2458901262148712    0.7494528020920410 Nb
   0.8341349413647554    0.1244927464404648    0.5034141087792592 Nb
   0.8339692864745226    0.2441393202572477    0.6264692547236269 Nb
   0.0006265950955727    0.4996831460661946    0.2500433854943420 Nb
   0.8371907193702993    0.1242062164208715    0.7484141940020618 Nb
   0.8343101787805834    0.0010803702880249    0.8727148897882973 Nb
   0.3346706587807632    0.5015039181837434    0.2512093685454534 Nb
   0.8372335365578738   -0.0028309130074114    0.1242218933035608 Nb
   0.4989554115140061    0.7513950014115595    0.3750475871130581 Nb
   0.0013178205748915    0.7535847250312595    0.2498420169684519 Nb
   0.4967198199124259    0.5002479869088905    0.3750436096780209 Nb
   0.3311994324293275    0.0015042384240013    0.0001942370833641 Nb
   0.4996074227288153    0.0005973130376293    0.6263707769007077 Nb
   0.1689948296623965    0.7504930864248374    0.8758036110882960 Nb
   0.8382726659812620    0.8761512564085251    0.2492526661580345 Nb
   0.8370629294136666    0.8761827026713471    0.5034415246060403 Nb
   0.8331363341676358    0.8763251765582386    0.7492295790399043 Nb
   0.1668206589055960    0.5002509021727201    0.1259784100615785 Nb
   0.3341084254578993    0.0025439667245168    0.5017766553533732 Nb
   0.1625079091793770   -0.0007855676774972    0.1228487124864945 Nb
   0.1675482656934881    0.2472929431258492    0.3766419059747887 Nb
   0.3339042352628773    0.0020528673830194    0.7481443823986557 Nb
   0.0014069457055932    0.1241293839398934    0.6255947569109862 Nb
  -0.0046467416511800    0.1212166697056810    0.8736033836024971 Nb
   0.4994976714130940    0.8760795059903831    0.2494095555398205 Nb
   0.1637934195066219    0.0028301257640403    0.6245715725016634 Nb
   0.1626090977762247    0.8758275554598300    0.2507312320040826 Nb
   0.0018610742002425    0.3749490743396909    0.3754365058551996 Nb
   0.3333937916274503    0.3738861374001338    0.8726681032835409 Nb
   0.1663349696451956    0.6259903790205952    0.0014945758301457 Nb
   0.3351518149307202    0.7508478672376303    0.4999287008992798 Nb
   0.3315417108753907    0.1216500045101597    0.8715308988970523 Nb
   0.6676223725360589    0.1242747472417251    0.6260286377190541 Nb
   0.3305750748096374    0.7517562270616376    0.7494054459200665 Nb
   0.3324716209503643    0.1236809371060868    0.3790411999769984 Nb
  -0.0005163977169096    0.8753293528061213    0.3738759543739281 Nb
   0.1679167278695309    0.1231589804819057    0.5007456222773117 Nb
  -0.0022250697437636    0.2480035073982576   -0.0022713604226530 Nb
  -0.0008002682072307    0.6264582220748878    0.6256994954606503 Nb
  -0.0010503552588943    0.3726395549204976    0.8725755408695383 Nb
   0.4992688444547128    0.6248879962768572    0.2534101441373952 Nb
   0.6649108378951276    0.6264051049847527    0.1260527980474554 Nb
   0.1673881982794694    0.8782175733473090   -0.0022133729738750 Nb
   0.1649464113676468    0.1219748202895544    0.7499419664829742 Ta
   0.1692043430733885    0.3723783783180338    0.7503287234857315 Ta
   0.6675907023521762    0.7543236066836834    0.7504905443983447 Ta
   0.1692260721400860    0.6279816091699956    0.7483123064338721 Ta
   0.8331639019492156    0.8776743494919629   -0.0012719765345484 Ta
   0.3346498231023710    0.4995987210458664    0.5004282901179811 Ta
   0.3325692359557501    0.2477076636246212    0.4996861746354153 Ta
   0.4991229886674787    0.1234596685070849    0.2505023757545601 Ta
   0.4985604053047707    0.1229368476951675    0.5013945185146754 Ta
   0.3322185488608829    0.2477298962254213    0.7510827584134097 Ta
   0.4990098186331574    0.1239790893742989    0.7496850388662826 Ta
   0.3295007597126794    0.7499233122481969   -0.0007139678713231 Ta
   0.4962295296593353    0.3745829428632110    0.4993505423577587 Ta
   0.3318265008382785    0.4994315377391348    0.7488011843204014 Ta
   0.8362461878168989    0.1227475405982176   -0.0011524144356383 Ta
   0.5009657526198006    0.6267564840625423   -0.0010388385999273 Ta
   0.4976995436793454    0.8760088389022737    0.5018540084931464 Ta
   0.6678506950132839    0.8758280658493988    0.6260638161217331 Ta
   0.8354179932288673    0.3719022611898390    0.7493526901963709 Ta
   0.4996625890119343    0.0003189758577375    0.1249431006603290 Ta
  -0.0012618266761056    0.8777476256355756    0.6259306931949912 Ta
   0.6706951946505564    0.1246797314553395    0.8735042962378803 Ta
   0.6662506294829038    0.1242577189271338    0.3763719405401025 Ta
  -0.0011067542092852    0.0024814239595037    0.7488857923520009 Ta
   0.3334978868757755    0.6269261419287054    0.6258107928813620 Ta
   0.3357771621062932    0.6254505069691630    0.3755155647072607 Ta
   0.3323187432715795    0.3728379346431993    0.6250489111650130 Ta
   0.3344323485512436    0.3751479635274101    0.3768547149554138 Ta
   0.3339938248902617    0.1225564740678616    0.1239281033069152 Ta
   0.1687819119782222    0.2469274081580776    0.6277246240588356 Ta
   0.0014905856562976    0.8776594984573579    0.1247292580080478 Ta
  -0.0003074273745745    0.0008168331258551    0.5029788867227882 Ta
   0.0001909062343865   -0.0015936794247809    0.2491654926811930 Ta
   0.0004635545765991    0.1233483845371205    0.3780888112303994 Ta
   0.6637582634495105    0.3745710875489335    0.3764390227374290 Ta
  -0.0027101799957393    0.1217353799003428    0.1225943029124284 Ta
   0.8343473167055412    0.5003740946478411    0.6257121397033227 Ta
   0.8373194471814843    0.2464503252168289    0.8733543986103889 Ta
   0.8341247188079348    0.2477583331271607    0.1235976062952194 Ta
   0.8356994399478133    0.0008055899376045    0.6264709875803788 Ta
   0.6640710698817256    0.6261472322752025    0.3750949261823314 Ta
   0.6669670470449877    0.6271693706732343    0.8739186826472668 Ta
   0.4976832323722031    0.2467039468873997    0.8730568102864372 Ta
   0.6681841166352027    0.8773227552540264    0.1260630016479769 Ta
   0.1692105515346877    0.7504146953320168    0.6251895926443338 Ta
   0.1652067121472501    0.7526786304544596    0.1246845162904358 Ta
   0.8337563913599688    0.7543279183026008    0.6255982096435809 Ta
   0.6665381982441021    0.3729810713137273    0.1243417095567906 Ta
   0.6675005393882089   -0.0005304144387119    0.2491881210634292 Zr
   0.6670841711331574    0.0002581238962535    0.5030331199375432 Zr
   0.6652676326204776    0.5004999463610074    0.2507620753580189 Zr
   0.3317696714630706   -0.0005462035925089    0.2501248206032777 Zr
   0.0002449605429193    0.2475474797416954    0.2510170045765026 Zr
   0.0021582647690641    0.2471876872693539    0.5013354037072407 Zr
   0.3321772344239813    0.5006704192104451   -0.0011011676772275 Zr
   0.0016768377036288    0.4997976787467667    0.7494674811350878 Zr
   0.0026539647829202    0.7526450690242605   -0.0007455118217519 Zr
   0.0013008900568698    0.7529079752350928    0.7489483595971733 Zr
   0.3329400160294929    0.2476883306635472    0.2518503167766554 Zr
   0.6639667870058999    0.5002846153427013    0.4997910999899531 Zr
   0.3329169694848429    0.7511893390678512    0.2504977374454787 Zr
   0.6672357882805782    0.5000997780272068    0.7494345934845712 Zr
   0.6664369656506542    0.8758715980202038    0.3758443786590681 Zr
   0.6660686785210614    0.7511615868398279    0.2503829730937198 Zr
   0.6669508149281449    0.3720436955633482    0.8741199903917924 Zr
   0.6671568678896600    0.3731938298760357    0.6248920969174970 Zr
   0.3302730927791037    0.8764877487413536    0.1242152402099489 Zr
   0.0017535769288715    0.6275611973861113    0.8746922069191569 Zr
   0.0013353701203557    0.3720865264100508    0.6270731533804790 Zr
   0.0003845139508183    0.3745277476568395    0.1246074325444907 Zr
   0.8338428677681372    0.4999352107703899    0.3753483765414850 Zr
   0.8331881294566559    0.2482596580093475    0.3763134878388290 Zr
   0.8354874097882078   -0.0003942021673501    0.3771938009698938 Zr
   0.4999770370468895    0.7506026464307263    0.1250170895754369 Zr
   0.4996934998397227    0.5005819962169153    0.8740507594497751 Zr
   0.5005520496011528    0.5007572781921771    0.1252249737342509 Zr
   0.4999333231113730    0.0002743067298465    0.8731439086121566 Zr
   0.1683582500877079    0.5003832577855072    0.3753769858485728 Zr
   0.6668663869434626    0.7520720511129392   -0.0013061142289413 Zr
   0.1639448904488140    0.2475752701744018    0.8723167225575869 Zr
   0.8335083415465797    0.6264509328898482    0.5013235043201242 Zr
   0.8324802002429463    0.6272296716431519   -0.0002193972086349 Zr
   0.8339831220914060    0.3736907004199509    0.5014468715835727 Zr
   0.8326231739797116    0.3741871387483744    0.2506639812958560 Zr
   0.8339807161375666    0.3727557166582040   -0.0015702688204110 Zr
   0.4997372451500466    0.8764550569666600   -0.0010515256424192 Zr
   0.4970315188411219    0.3730113728632205    0.7493980226052771 Zr
   0.4995328258314352    0.3740894230982622    0.2512792162759931 Zr
   0.1689622357395082    0.6268487785334900    0.5012556984588296 Zr
   0.1691502751629462    0.3731027622469817    0.5009209950849630 Zr
   0.1673409232105664    0.3754545032325560    0.2513859063942028 Zr
   0.1662825837341948    0.3741355592505752   -0.0027629983491031 Zr
   0.1656657667076984    0.1223378915611306    0.2503191061534807 Zr
   0.1643679685542059    0.1223830884894195   -0.0020291903833614 Zr
   0.1660296750705137    0.2472556933319959    0.1235209999542470 Zr
   0.8336857148527275    0.6277201013736189    0.7497815049734565 Zr
