Ta48 Nb48 Mo48 W48 C192
1.0
  13.3322000665829599    0.0008704853894524   -0.0000122697023570
   0.0011606494785127   17.7703490828971979    0.0003859936405833
  -0.0000163733962536    0.0003860023422606   17.7716002522814129
C Mo Nb Ta W
192 48 48 48 48
direct
   0.8375106659248471    0.8751435682396062    0.8749419461701445 C
   0.8350079343583092   -0.0010072964272053   -0.0035881870451336 C
   0.5025214830488852    0.7515327676633667    0.7501433848381578 C
   0.4993186043851254    0.7504661250443878    0.4975905170271200 C
   0.4987554208779239    0.7495592886651806    0.2517543088957088 C
   0.5046244108373878    0.7517833327909168    0.0002954750985180 C
   0.4993937617849243    0.5006284533059989    0.7491246083618079 C
   0.4984620259126868    0.4998615021404803    0.4991022989386782 C
   0.5024825003889785    0.5020733297248443    0.2473662648776838 C
   0.5022570796172202    0.5005529880975553    0.0000833962843253 C
   0.5007729892171597    0.2472582135930159    0.7504559936304689 C
   0.4978067922456971    0.2488575211749819    0.5014308891907203 C
   0.8320466623561108   -0.0020631835213786    0.2522846577712612 C
   0.4978547568883650    0.2496654298659245    0.2485951856266901 C
   0.5025585871852993    0.0003286652942959    0.7486377547021446 C
   0.4971635572781246    0.0007992256563035    0.4997030815723122 C
   0.4980288835269888   -0.0002032863826040    0.2510204275821043 C
   0.4990918166186236   -0.0004578435318310    0.0008745444465285 C
   0.1637830348207687    0.7514598281280102    0.7523194455007137 C
   0.1700022692493303    0.7510682758959680    0.5000177984418660 C
   0.1672660848125590    0.7472605962143928    0.2538324428497180 C
   0.1643389173334401    0.7488398723459765   -0.0008651473778055 C
   0.1677572592391234    0.4986725057008645    0.7498026193727763 C
   0.1653848528075675    0.5002743410090115    0.5000645976468701 C
   0.1624086939201915    0.4996956703190735    0.2518098468864470 C
   0.4990483983659100    0.2461383691243418   -0.0002898736563740 C
   0.1694823628977078    0.5000382804230266   -0.0028325226691561 C
   0.8344757449669211   -0.0011401942068817    0.4992331372736334 C
   0.8305701649369390    0.2493968215618871   -0.0032979439524030 C
  -0.0003242011596381    0.7530019357359128    0.1266402853967122 C
  -0.0009125470428245    0.5012761659645325    0.8757639675189833 C
   0.0020351415548119    0.5001674986434680    0.6239946545486458 C
   0.0012495579586937    0.5008295884754383    0.3740965823406595 C
  -0.0004853842750271    0.5017764337913195    0.1243249482368912 C
   0.6664566906398766    0.8765562731517955    0.5006892869271303 C
   0.0021559631091911    0.2475208206000619    0.6246855837435995 C
  -0.0035789856429293    0.2499614338432643    0.3765841004822482 C
  -0.0012661907996034    0.2474734288548832    0.1247169012269397 C
   0.0004669561339505   -0.0012584814454446    0.8779655710990376 C
   0.0002268530183715    0.0013640695814410    0.6251429105248090 C
   0.8306984191478977    0.0032110818684741    0.7484651221283722 C
  -0.0032471768412731    0.0013367853844251    0.3770396054365883 C
   0.8301256963306933    0.7520224018933294    0.7534537826318731 C
   0.8327698350016424    0.7508558040504690    0.5014188330991750 C
   0.8373490365634839    0.7476540720232968    0.2525442599186805 C
   0.8357773141227736    0.7483276483547561    0.0035339260247851 C
   0.8337428394468954    0.5033171749659642    0.7515587200146966 C
   0.8326942345565512    0.5016252885044242    0.4999834998969333 C
   0.8321480381758091    0.5007733742905619    0.2498123777657154 C
   0.8352435227733804    0.5016362090747233   -0.0021688308402382 C
   0.8316430211966367    0.2479742838809817    0.7489550808497898 C
   0.8342838602402207    0.2512822443006692    0.4988041868624989 C
   0.8325034863079661    0.2510012317570849    0.2529788609618756 C
   0.0008845312375549    0.0003353340240818    0.1257900803832118 C
  -0.0013618042354226    0.7527736317658698    0.3736399935052740 C
   0.1711057149783187    0.2475156446404759    0.7493187059423675 C
   0.1680797720091008    0.2494653727030367    0.2496603233222183 C
   0.3337807589860706    0.3761266686092652    0.4989285419980174 C
   0.3305370764653734    0.3748275667720721    0.7450767341414551 C
   0.3332551186434438    0.6216215910967132    0.0005690925601187 C
   0.3328386646094842    0.6249334992813276    0.2521379199280808 C
   0.3344178896205753    0.6262508210338560    0.4997261644713881 C
   0.3323014539287492    0.6253835168213859    0.7472533189798115 C
   0.3320922299785382    0.8748909603190828    0.0013058294338910 C
   0.3316653915023632    0.8744124790753515    0.2518780658334629 C
   0.3310645580832268    0.8768059427366334    0.4978628590772992 C
   0.3341020422401787    0.8742575227493103    0.7510106116421742 C
   0.6643606926315367    0.1244532387508118    0.0006713514634362 C
   0.3297033558377325    0.3737417480825074    0.2503533588367628 C
   0.6633468557320086    0.1235196907384372    0.2527779919436159 C
   0.6709866525242665    0.1229649744623708    0.7509532349726018 C
   0.6665000339041199    0.3733515310053410   -0.0007022319004549 C
   0.6673898375195242    0.3762626020041620    0.2508916940848688 C
   0.6674234120209760    0.3753361266231173    0.4988250590541932 C
   0.6684331095037999    0.3722534566470289    0.7491312307882541 C
   0.6715752051150665    0.6276792547392068    0.0006765274148648 C
   0.6651094510442870    0.6247979089397487    0.2502831152467272 C
   0.6667165265816130    0.6250300403071444    0.4993342420806315 C
   0.6715071483960685    0.6270087288685311    0.7521528358338673 C
   0.6642395766143349    0.8728269621150229    0.0003757762427636 C
   0.6688438986364267    0.8730869978848863    0.2503635225399312 C
   0.6663274371342169    0.1241161737100315    0.5007355360040102 C
   0.1690253399756589    0.2486376017070766    0.5003134909851983 C
   0.3324786548399221    0.3739079861840803   -0.0013517073042916 C
   0.3370453404466745    0.1286204433897979    0.5005388883913171 C
   0.1686475152743357    0.2470425533292455   -0.0010400686200990 C
   0.1664709532141776    0.0001423664162774    0.7501888051999415 C
   0.1677085927388350   -0.0002644342966136    0.4995325019868500 C
   0.1660260499232806   -0.0005996944967541    0.2502449173882777 C
   0.1629826321316173   -0.0026515326486970   -0.0018615596967224 C
   0.8315797687942007    0.8736949670232194    0.6244599092774824 C
   0.0007984871330128    0.1236017749481056    0.0020093119592598 C
   0.0018320393235169    0.1239786731664804    0.2510331583667847 C
   0.0027969889612991    0.1244048236912074    0.4989847194757470 C
   0.0021853233909100    0.1258690144218982    0.7466553216551977 C
   0.0001309186402029    0.3764347636098066   -0.0013347804408205 C
   0.3321024722076413    0.1276970454208386    0.7494980515503878 C
  -0.0012688948546710    0.3791564579247574    0.2507876966084874 C
   0.0016762122101811    0.3752812934916079    0.7503445579127176 C
   0.0015293222701622    0.6249214104728811    0.0016446010980452 C
  -0.0007213260624137    0.6280979627265960    0.2530132189840400 C
  -0.0009780448944700    0.6231249743848480    0.5002400396099531 C
   0.0010551131496623    0.6289390237940280    0.7492446043863588 C
   0.0016552616451774    0.8757398246097383    0.0015107829528002 C
  -0.0017866802596144    0.8727534934638064    0.2510718742362102 C
   0.0014190992715517    0.8753432110222779    0.4997474099312936 C
  -0.0002086263565674    0.8742820734694606    0.7508953176794223 C
   0.3316398314094081    0.1249774257895294   -0.0026755707707976 C
   0.3338362082464131    0.1233886079895465    0.2527046289723711 C
  -0.0011035524692148    0.3753326153806941    0.4994052735603802 C
  -0.0001909716780270    0.7506534524712065    0.6285397280790813 C
  -0.0028423843959431    0.2491740806623176    0.8741717025615724 C
   0.6663684301335361    0.8737104401520730    0.7497130748568930 C
   0.6673436971145486    0.7500313241325519    0.1235766685996341 C
   0.6694214980318657    0.5007109938301307    0.8756592772060610 C
   0.6658991807644421    0.5003233108595218    0.6232172625136388 C
   0.4993965725678630    0.3758549578889228    0.1257732498683725 C
   0.4999036958766161    0.3753576389749694    0.3748885753393982 C
   0.4992717751676334    0.3750781536299512    0.6250594528582351 C
   0.6672458908828677    0.5017404847286441    0.3743093217041386 C
   0.6653387362069226    0.5014552101918704    0.1257830994986645 C
   0.5006819176431533    0.3734434498855577    0.8760456438898259 C
   0.6654825339689815    0.2474886171651424    0.8747999424321805 C
   0.5033332216468835    0.6220070360000935    0.1272283015375606 C
   0.6680757362881869    0.2469247819901803    0.6244039428453184 C
   0.4998678081664766    0.6273744594639010    0.3765753307676581 C
   0.6665848692548164    0.2487917058385540    0.3757670773747698 C
   0.4990830108899163    0.6269547341873233    0.6250381034624777 C
   0.6627192881311563    0.2477094274934936    0.1240235717688161 C
   0.5025541803501357    0.6260656067282487    0.8779013504947139 C
   0.6687659546578010    0.7516470215842646    0.3737559652619892 C
   0.6660605472545811    0.7530858736632741    0.6262442166323391 C
   0.0030634799653655    0.7516317209728136    0.8756759349198932 C
   0.6691900094701696    0.7495509824571682    0.8744199325465790 C
   0.1659294738139347    0.8750999393092115    0.8747147415510977 C
   0.5005010920077686    0.1243830390382853    0.6243786563601508 C
   0.1667185990532799    0.8773861455702077    0.6256178056226360 C
   0.1651224171681772    0.8752135873464350    0.3757134234534291 C
   0.1674391154820357    0.8736417775493684    0.1254996013127810 C
   0.1652979220396557    0.6258291125261857    0.8758690888023505 C
   0.1693056346720827    0.6245878680972583    0.6268817062956310 C
   0.1679773182375732    0.6254710288686093    0.3729049063003584 C
   0.4972854831491044    0.1260130694542906    0.1268241491980091 C
   0.1655276301957549    0.6244159258384481    0.1252528552800958 C
   0.1712323243389374    0.3757713271426617    0.6277570284636060 C
   0.1689250302998202    0.3758717996807053    0.3727229068833107 C
   0.1662745347978857    0.3747899011583721    0.1244927930597345 C
   0.5025679876666576    0.1274592461469651    0.8787964319465597 C
   0.1720725864797562    0.1240859618724538    0.8775709705053275 C
   0.1675677624938463    0.1225532739120982    0.6262535642887384 C
   0.1653693327063560    0.1237375027184692    0.3751462875497548 C
   0.1644294701802876    0.1223887294786581    0.1254527452042755 C
   0.1654222858459605    0.3767442503974361    0.8738411889941397 C
   0.4960140467962990    0.8752619802230105    0.3756277518075040 C
   0.4990358317395559    0.8750160041664012    0.1232859447887101 C
   0.5004419939025040    0.8751381113183803    0.6242419601932688 C
   0.8321925117136769    0.6266906366647311    0.1218335014904422 C
   0.6699541418657996   -0.0002848734523191    0.8755620066748836 C
   0.3344884595713215    0.4997291446175193    0.3764250080639893 C
   0.8334449168121162    0.6251998349588453    0.6263971053090506 C
   0.3349109813620961    0.4991357366323690    0.1227910906781451 C
   0.3337082719461257    0.2459762201306960    0.8724396601394625 C
   0.3358002118821025    0.2478758282943654    0.6220253461872853 C
   0.8357295822994518    0.3749596077624661    0.8750286445200141 C
   0.8341291903793133    0.6233350591020280    0.8730647338486317 C
   0.3338612030077546    0.2492737454968774    0.3738939044350728 C
   0.3360645392667916    0.2466339871899153    0.1247341383125291 C
   0.3315027038220990    0.0007398578547687    0.8733909919432721 C
   0.3309830685945669    0.0016460657011751    0.6236969639056316 C
   0.3348611636311241   -0.0011563966707089    0.3784839973142996 C
   0.3332014072059984   -0.0022543269317815    0.1261632810110953 C
   0.8370988217093780    0.8737105315357224    0.3741409353405034 C
   0.8369697152676966    0.8719144893033874    0.1262810934158518 C
   0.3344637865756032    0.4998790840953171    0.6247312111368734 C
   0.8340179803714876    0.6259116279450455    0.3750354587662509 C
   0.3298910700891811    0.4981811009663812    0.8740509595503240 C
   0.6685792949589131    0.0007050357644746    0.6240610526204907 C
   0.6653816966726863    0.0012176582586313    0.3748052393952343 C
   0.6641005811778198   -0.0019269578471706    0.1264076267352569 C
   0.3345440667529059    0.7520492003028132    0.8746699519223704 C
   0.4972878307426900    0.8744406479264407    0.8750288597257154 C
   0.3330227090814631    0.7513438016427415    0.6237021573156550 C
   0.8308228940681830    0.1235769434246820    0.1245930308695599 C
   0.8342399115390319    0.3745107826797711    0.6250499171166696 C
   0.8345052967180427    0.1236780529687829    0.3763157677102191 C
   0.4992035689069429    0.1239863188453727    0.3754231357822244 C
   0.3354279054921318    0.7512094337371894    0.3762768374171777 C
   0.8353802713951588    0.1230654263857573    0.6284075784408123 C
   0.8331756667084255    0.1247681564883740    0.8751200725155673 C
   0.3306192930850369    0.7497359666837463    0.1273651524073391 C
   0.8322511670742885    0.3765281120172124    0.1249613496583771 C
   0.8339033100682269    0.3763945358087811    0.3728711963804991 C
   0.3377838179637982    0.0065906601893294   -0.0065810424382612 Mo
   0.6757757160984204   -0.0062958719529875    0.4929822479611914 Mo
  -0.0063395769809615   -0.0054955728297391    0.5067125188516235 Mo
   0.6618967092546337   -0.0042491096312508    0.7586711696234070 Mo
  -0.0080287837196132    0.2549561056706368    0.4959913431142403 Mo
  -0.0078526588211094    0.2559378457269589    0.7548520736215515 Mo
   0.3214703540606597   -0.0054650582342590    0.2593152246998119 Mo
   0.6737328896817385   -0.0077405363506873    0.2562639546208360 Mo
   0.1537354863001746    0.7561542882286979    0.3799211576197914 Mo
   0.6573066483225575    0.2412576859970875    0.7563153821744346 Mo
   0.8428933803037825    0.7482837189602405    0.6211721767587882 Mo
   0.8263317466389283    0.7451388858611607    0.1369739845712723 Mo
   0.8248842161796476    0.6199111184047951    0.2425568450118287 Mo
   0.8440149232017813    0.5081757218005800    0.3799789090979856 Mo
   0.8416483268077489    0.5085704196621536    0.1177665116467387 Mo
   0.8428428581284365    0.8764694655731611    0.0090832976267193 Mo
   0.8429821806143866    0.8798510350810937    0.4929897834294360 Mo
   0.8418840101681440    0.7563494232375207    0.8836361362961863 Mo
   0.8244456465530428    0.8829021744693407    0.7446721073634942 Mo
   0.1766517981110420   -0.0034545549605820    0.1173533824665685 Mo
   0.1766536149021952    0.0021229878487838    0.3817892853287889 Mo
   0.4914284174243178    0.7540520849711360    0.6153267242351599 Mo
   0.5079645607532053    0.5077256417038083    0.6290498888001655 Mo
   0.4977187505346161    0.4938086437552949    0.3669505884668293 Mo
   0.5123564808716641    0.2514698908409482    0.6214362879555004 Mo
   0.1698893190261508    0.7421190569427019    0.1351194314616582 Mo
   0.8416468094503557   -0.0083308737063644    0.6210816055711929 Mo
   0.6762364422130189    0.2553553493267458    0.4959961273488223 Mo
   0.8248630100832861    0.3681885928054098    0.7457285143146022 Mo
   0.8277500223524050    0.3685608950086434    0.0070309931974917 Mo
   0.6541320738502239    0.4962937827553215    0.4931178755197695 Mo
   0.6576153805480177    0.7431017733519506    0.2456157746512838 Mo
   0.6585702002311219    0.8741794063915822    0.3832203951571809 Mo
   0.1768699380747378    0.1288580888764360    0.5082577948259410 Mo
   0.6734020680225110    0.3839047477778502    0.3790532501615131 Mo
   0.4912034020456313    0.1225065475975609    0.7442663239613850 Mo
   0.4910084948087170    0.3660303978389297   -0.0040977826884342 Mo
   0.8264850902559904    0.3835268567881648    0.4918778799825008 Mo
   0.5094384431075303    0.3785665442920081    0.2559332438086350 Mo
   0.5081899729499305    0.6177000872058294    0.5049264959384619 Mo
   0.3254915790253032    0.1149382508425105    0.1180360223514804 Mo
  -0.0118769978905029    0.8713276587347369    0.6314810503535065 Mo
   0.4871541824226924    0.8811900266314977    0.4944993755937022 Mo
  -0.0086540571793815    0.6338939999104233    0.8687851909536050 Mo
  -0.0077059576076208    0.6198071557812241    0.6195753102722819 Mo
  -0.0096842195856556    0.6329500241183867    0.1346396983483505 Mo
   0.4913249083931246    0.6305882994717685   -0.0004529672159875 Mo
   0.1559688804418298    0.8816007696408181    0.2489045109498722 Mo
   0.6764732894965120    0.8736445883407257    0.8761782829291143 Nb
   0.5043263993843096    0.4992805412787525    0.8772148429573290 Nb
   0.5052267258747398    0.3738923218063199    0.7491112796127840 Nb
   0.6727995671241631    0.4981400324974610    0.0035278777223438 Nb
   0.1668322716357173    0.2455349905185617    0.8752564527765559 Nb
   0.5019168250449134    0.6295768138548631    0.7507072868295711 Nb
  -0.0035986040754993    0.3735473587747664    0.1234744606105484 Nb
   0.0015032559609087    0.1213683645906875    0.8752357929014507 Nb
   0.6637016550804977    0.2508371522288793    0.2495267317130985 Nb
   0.5093099121272119    0.8747447876949490    0.2521755875120374 Nb
   0.3349088503661054   -0.0002261680310991    0.7459628749510714 Nb
   0.8330032672835553    0.4972621742169039    0.6281202301712518 Nb
   0.8263529024335078    0.1250702334891625    0.2534495521570558 Nb
   0.8373739616097290    0.2512891392358577    0.6227087504083879 Nb
   0.8296710382238474    0.1207626883879080    0.5017598973880371 Nb
   0.8336712539039093    0.2484547795347189    0.1269761783486548 Nb
   0.8304402769953937   -0.0018453295574517    0.1256179962819851 Nb
   0.6704905756257199   -0.0035403834137743   -0.0012026061903329 Nb
   0.4981374004928231    0.7501202973542290    0.1212151864789916 Nb
   0.3409949807295254    0.4987446210234516    0.2498513674482903 Nb
   0.5017124574161670    0.2517789627863823    0.3748113753643252 Nb
   0.4976489172030277   -0.0002825723233422    0.8741611887068431 Nb
   0.1645834713308478    0.2501251974586869    0.1220739986045712 Nb
   0.1671700411697453    0.2528140549691900    0.3769734280356435 Nb
   0.1655510317055762    0.2513558446955012    0.6245651366227620 Nb
   0.3280866712558394    0.7471633374299481    0.0013077384538011 Nb
   0.1633054365180106    0.7476333312626630    0.6267183516353417 Nb
  -0.0017703082813836    0.7512211877891051    0.5032371837542874 Nb
   0.5004979054736607    0.3715240632233970    0.5020310157974416 Nb
   0.0017584710051535    0.3719907564622814    0.6265949056874960 Nb
   0.1669250611098319    0.4984752128606653    0.1303780522099164 Nb
   0.0000743160285510   -0.0017698060250704    0.2484944372502401 Nb
   0.6668502671961084    0.5023831871559544    0.7491066949990881 Nb
   0.6657382024179422    0.3752479375077611    0.1223949068614729 Nb
  -0.0033388491986706   -0.0015380322222601    0.7472477281739549 Nb
   0.1628728950251579    0.6281197925718770    0.5017919537254300 Nb
   0.0009697307671763    0.2507887291190419   -0.0008758818840276 Nb
   0.3362810446095992    0.6201434473767435    0.8767752173581495 Nb
   0.1687478304719277    0.3741506616861399    0.5026751619690581 Nb
   0.6667300645946573    0.3725489180909476    0.6250249291438281 Nb
   0.0000283536801159    0.2472165651317569    0.2515962688894759 Nb
   0.6626437777167931    0.7540646728162788    0.5037535753121418 Nb
   0.3424439879022135    0.6220107643531385    0.1253068901995434 Nb
   0.3299106610839988    0.3740653318593256    0.8701284856266760 Nb
   0.6634921582568484    0.6265328547644532    0.6245304404854889 Nb
   0.3349456446398530    0.3757323928771461    0.1269735062389291 Nb
  -0.0024708148460278    0.5027802793976639    0.7530662111257693 Nb
   0.6722317630803931    0.3737045376976197    0.8736737105017655 Nb
   0.6699741346612830    0.8796136130648745    0.6225892787450125 Ta
   0.1692843434344748    0.3794714441552923   -0.0016977338407926 Ta
   0.8302158887862584    0.8708696720205422    0.2487182468885112 Ta
   0.1635189119365602    0.1226641240190856    0.7478939448042082 Ta
   0.3359155477647199    0.7486022506504302    0.7517952958102629 Ta
   0.4961868546094216    0.1211269273553940    0.2526119680306544 Ta
   0.8331624426050147    0.6240539175717251    0.5025479153923857 Ta
   0.8337709158769617    0.3761729174886247    0.2489448712400205 Ta
   0.5053762543083327    0.1279484718043086    0.4971863108080654 Ta
   0.1629687809276249    0.6278529956809933    0.7507062114939790 Ta
   0.8337648776070722    0.1266425804445921   -0.0029315417266481 Ta
   0.5022406135242582    0.8725438390993568    0.7521898507575312 Ta
   0.1673024878974771    0.8735012172206331   -0.0002201548771396 Ta
   0.1668240177112838    0.8724921845155534    0.5031198526287668 Ta
   0.1706694957591970    0.8782166516116494    0.7477728324402225 Ta
   0.6655234161442725    0.4999705480901419    0.2491659342945453 Ta
   0.1671852742062976    0.6217680644322432    0.0024145823553749 Ta
   0.6612055344208559    0.2502933782725588   -0.0012564417065049 Ta
   0.6654078010712982    0.8725665165971532    0.1218881877523410 Ta
   0.1666169726792226    0.5012583591490090    0.6243982806800034 Ta
  -0.0006657178171497    0.3735279456076809    0.8734049653771863 Ta
   0.0052948595028457    0.6247669563549704    0.3746541988643782 Ta
  -0.0009502239374054    0.8755622827361069    0.8759024157104466 Ta
  -0.0030594926580720    0.7458762423318105    0.0061005619776020 Ta
  -0.0041402998454459    0.5015784915870530   -0.0009569839198113 Ta
   0.3327650437124226    0.6268798733817890    0.3775557616044070 Ta
   0.1669241478199966    0.4973614897986970    0.3742751839311126 Ta
   0.3301157120777368    0.8755461854397460    0.1294043844986728 Ta
   0.6652665545175570    0.1211779213887007    0.1265599091723540 Ta
   0.6720955153185525    0.1221612827232239    0.6311651796242043 Ta
   0.6635636550950484    0.1238846931220129    0.8721118316552033 Ta
   0.6657616009634599    0.6271052757125866    0.1216468735919616 Ta
   0.6622820370241363    0.6232748242720104    0.3766388771038180 Ta
   0.6708305797160784    0.6277228238143819    0.8799159987593645 Ta
   0.3377167279417343    0.8738516237813531    0.6205494368606937 Ta
   0.0019479565060992    0.1221320727789972    0.3792572280530818 Ta
  -0.0009055933643509    0.3754739606689362    0.3769530559108007 Ta
   0.8344833847000337    0.7494570690278602    0.3743934111907489 Ta
   0.3360446279829480    0.2462243091616332    0.0034639637956100 Ta
   0.3339564471199429    0.2505274211847225    0.2475930712489697 Ta
   0.3287709147791048    0.7502883379809078    0.2530219268477155 Ta
   0.4960828155787549   -0.0017949910214358    0.1276540251970214 Ta
   0.4996127135713471   -0.0010724730670545    0.3757460095347780 Ta
   0.5041487361341319   -0.0002796444279805    0.6227350183685901 Ta
   0.4992904634959405    0.7508790844161832    0.8807622820486553 Ta
   0.3353093209088813    0.5011337395371848    0.7453805290424366 Ta
   0.1743279453178981    0.1209034383186426    0.2470581021528692 Ta
   0.3377511019370424    0.5004880562578574    0.5042807678620668 Ta
  -0.0141677703353082    0.7563472134078588    0.7496565463240230 W
   0.6816779457880309    0.7549057599977969   -0.0059620877121103 W
   0.3454991265043580    0.4951227959937863   -0.0066472068060335 W
   0.3266788908814272    0.0103333503706713    0.5073603838335684 W
  -0.0120891948715580    0.5093793638798354    0.2425759948747706 W
  -0.0076095919924289    0.4931361196788077    0.5043392717927917 W
   0.3438128296107391    0.2556233160546795    0.7429261119252164 W
   0.3276035263387692    0.2572291301932823    0.4909318463565760 W
   0.0126223134853204    0.7539927540628847    0.2444846795442258 W
   0.3439241055448035    0.7476030007706880    0.4944200708338630 W
   0.6754538951309244    0.7452440720969564    0.7423396101147376 W
   0.1725219574232774    0.0079733936192383    0.8799777815735179 W
   0.1549905311816071    0.3693026712415207    0.2449384243243127 W
   0.8284240014599142    0.4929400535376935    0.8687453110036440 W
  -0.0107810062554784    0.1273045774794894    0.1319856722544781 W
  -0.0066751614081399    0.1294695746352464    0.6144015257273892 W
   0.0115202118995709    0.8810617668430678    0.1215002840175606 W
   0.0080036020904408    0.8855729747581025    0.3784141302509070 W
   0.3213772353301979    0.1190541327452512    0.3808329859174386 W
   0.8351823561884799    0.2559547227286394    0.8669823169511149 W
   0.3406361727273766    0.1304395815477959    0.6298195282527105 W
   0.3408964281212457    0.3792915687911700    0.3664322522737776 W
   0.3428639553797048    0.3649897595273486    0.6227346472492081 W
   0.3421688557774699    0.6325097175096318    0.6181656499864495 W
   0.3214995658028388    0.8701547807003273    0.3703545167075878 W
   0.3223800425596627    0.8813065481214796    0.8818223018508935 W
   0.6779777226402821    0.1275084239804843    0.3810783892750418 W
   0.3492478080530652    0.1252254214617303    0.8693628200342938 W
   0.8236472625654437    0.2560229139643630    0.3808247083266217 W
   0.8404751451532163   -0.0068065814737714    0.8651932282675276 W
   0.8235206320516477   -0.0083002581399499    0.3738908154479710 W
   0.1620716760847274    0.3639818648452450    0.7544949554907313 W
   0.1587550341902122    0.6191731323203826    0.2430840390776938 W
   0.4912812220116589    0.1192391184611967    0.0101407834842597 W
   0.4933026137692137    0.6315939201043579    0.2594654268760346 W
   0.4890579718363569    0.8804044652654585   -0.0071413790463218 W
   0.8472725064385219    0.1293622037232324    0.7568134910769867 W
   0.8440131082978001    0.6248302076673574   -0.0090977308611919 W
   0.8439113880115382    0.6341355468619850    0.7458027778498804 W
   0.1564640927820619    0.0027508051034469    0.6160313253819508 W
   0.1577865328882638    0.5078248810381355    0.8678706052870060 W
   0.1771903918273080    0.7445890678372468    0.8717531575253499 W
   0.5031710344651548    0.2591157278198127    0.1292339772747659 W
   0.4908806011297270    0.2554357999364348    0.8692694442901726 W
   0.4941023865749775    0.4940000315612499    0.1163198274155667 W
   0.5131245142059840    0.7569769655698625    0.3773454217924102 W
   0.1606438367315711    0.1156818158105834    0.0079048540906628 W
  -0.0092138554457576    0.0041588734131996    0.0085718566991186 W
