Ce64 Nd13 Sm12 Eu13 Gd13 Dy13 O224
1.0
  10.9774337257782619   -0.0004549201204322    0.0016284578971343
  -0.0009099094756781   21.9541414293506385    0.0023894558556009
   0.0032570146797613    0.0023895507701254   21.9540508472653890
Ce Dy Eu Gd Nd O Sm
64 13 13 13 13 224 12
direct
   0.8772301539596628    0.3130449230220025    0.1873445338402748 Ce
   0.1248192429053821    0.8123475931404210    0.3128695877779828 Ce
   0.1245375207757583    0.3119780529548995    0.8132488055509399 Ce
   0.1260803137627841    0.3132259197403507    0.3118639005011882 Ce
   0.6246976876958558    0.6871042261805466    0.9376161720666225 Ce
   0.6255852049464249    0.6866292785604137    0.4375161399785318 Ce
   0.6243202351629998    0.1876859628372916    0.9377386441304481 Ce
   0.6251281845744908    0.1879482955144486    0.4379045449881174 Ce
   0.3752902404114082    0.8121544924026057    0.9372806753568241 Ce
   0.3726857295133484    0.3121110415147926    0.9382195668183771 Ce
   0.3741254269038709    0.3127344153152266    0.4381518680074991 Ce
   0.8746080314580049    0.6872255363685925    0.8119116414525166 Ce
   0.8761517462100306    0.6860060718672503    0.3119868165203624 Ce
   0.8742191868199407    0.1879306698958710    0.8124459184335054 Ce
   0.1252582380555085    0.8122926480456351    0.8122410027570015 Ce
   0.8754490382193012    0.1876882992593139    0.3122196166343261 Ce
   0.1249013039320803    0.5613815978755544    0.0634774380046460 Ce
   0.1226078248580113    0.0632517778080699    0.5625218252499601 Ce
   0.1243158767260958    0.0633625942151376    0.0618663841419546 Ce
   0.6248538805369009    0.9380317626097425    0.6872609053103375 Ce
   0.6252633862342692    0.9373306020609639    0.1880992118216648 Ce
   0.6246860211324797    0.4377152173281447    0.6865078805780087 Ce
   0.6257037294846826    0.4375795827448721    0.1878194149805179 Ce
   0.3776341398093432    0.5628536418481466    0.6867608018218184 Ce
   0.3730056103560233    0.5616910614156330    0.1881105212672572 Ce
   0.3749157849033024    0.0633908860389407    0.6871186476531826 Ce
   0.3736959597694309    0.0629262426637788    0.1880173726970449 Ce
   0.8732933020643573    0.9378516282627659    0.5621819933685758 Ce
   0.8748350950228730    0.9375260792267731    0.0624559664140198 Ce
   0.1271410015254050    0.5625870996722981    0.5619376324602242 Ce
   0.8755850950691522    0.4373802622139082    0.5622883667229502 Ce
   0.3734328598611354    0.4375807915162221    0.3121654608911882 Ce
   0.3749027669332102    0.9378201060173063    0.3129686852347821 Ce
   0.6250859934561288    0.8124487594792019    0.5620975125553285 Ce
   0.6250964462581020    0.8117645396606179    0.0627469585293962 Ce
   0.6248694708541929    0.3120266262236761    0.5630123700945548 Ce
   0.6246765428307939    0.3127592897375522    0.0626061622152506 Ce
   0.1265773040091418    0.6875039174159523    0.6873425010397199 Ce
   0.1242202114646237    0.6862145822263498    0.1885303260991488 Ce
   0.1231715971200590    0.1882318909256626    0.6866092314450917 Ce
   0.1248345519437375    0.1878757852185919    0.1875400892419868 Ce
   0.8741142261041547    0.8121752455309845    0.6874194353300235 Ce
   0.8745059972917449    0.8121307765284226    0.1879550966543725 Ce
   0.8748084798478261    0.3118316128053992    0.6862870659123325 Ce
   0.3775327741462426    0.6870070178074141    0.5623863130349999 Ce
   0.3756556938952067    0.6862440670289066    0.0625733975770195 Ce
   0.3751862120229917    0.4374722620495903    0.8129383859079236 Ce
   0.3736960392539497    0.1886341884726756    0.5628847579562827 Ce
   0.6249465049505808    0.5626036871975075    0.8122688074064176 Ce
   0.6258917632589992    0.5621369498045079    0.3122457199862988 Ce
   0.6242778768705863    0.0634471223475815    0.8121373228010819 Ce
   0.6251288751179395    0.0624383525289232    0.3128150368545759 Ce
   0.1247892941326334    0.9378712349485532    0.9369223922970522 Ce
   0.1240767717684272    0.9381028558921580    0.4371087815728416 Ce
   0.1257889041220447    0.4366960819127477    0.9386585420481245 Ce
   0.1259311422316711    0.4379656039346927    0.4375273538701942 Ce
   0.8753924817098543    0.5623118280532230    0.9376857553094238 Ce
   0.8754489869218016    0.5622378816527700    0.4375019145638831 Ce
   0.8757484764304529    0.0631015598475097    0.9372927567714107 Ce
   0.8744448462438066    0.0630044834798962    0.4374296068806127 Ce
   0.3745215564119621    0.9379805015631124    0.8124221258721076 Ce
   0.3728714358514527    0.1882944532543550    0.0623553693190658 Ce
   0.8768448588901092    0.4370255687731823    0.0635067630854322 Ce
   0.3762419874706913    0.8128481324633029    0.4374213005126476 Ce
   0.1243594942413520    0.3122385568685744    0.0634335650407562 Dy
   0.1212972416394594    0.0637256417099366    0.3129908451586865 Dy
   0.1263334625206719    0.5618312137594124    0.3117006569625490 Dy
   0.1237512160453210    0.3134955255194959    0.5615905253037075 Dy
   0.6254355787466973    0.9369495467675039    0.4380227691892793 Dy
   0.3776187361466244    0.5611791532486585    0.9370625447141636 Dy
   0.6247525243217515    0.5629662429384237    0.5613444384009533 Dy
   0.8748127186800627    0.1894159428936477    0.5631452130651573 Dy
   0.1256159353669311    0.4375671386564341    0.1874737926842090 Dy
   0.1239354123357723    0.1890465076162584    0.9375888062519419 Dy
   0.8806959105004735    0.5624753441492870    0.1876335045382653 Dy
   0.6248480601870876    0.1879240048675377    0.6868853786546769 Dy
   0.6258064094525365    0.6876232784118885    0.6861857330843120 Dy
   0.1256422267920237    0.4364453366941823    0.6865764451521624 Eu
   0.3746633929842373    0.6865862554709468    0.3130335554388621 Eu
   0.3730207873590261    0.1874166115186131    0.8121463672324540 Eu
   0.1228780150913710    0.1883381662002044    0.4378304497535920 Eu
   0.8752108620850828    0.3120955055571748    0.4382627841362829 Eu
   0.8743688462295310    0.8124103800231338    0.4368874355557636 Eu
   0.6241049366759380    0.4375989080628950    0.4380586530743084 Eu
   0.1250947771226290    0.8122226875097599    0.0628009152498991 Eu
   0.6250242696457512    0.4374239998238870    0.9376734925230327 Eu
   0.8738132360286228    0.6867794921533954    0.5617519008342194 Eu
   0.6259707005535630    0.8119987338629351    0.8115507941949767 Eu
   0.8763282714785319    0.1878706428352242    0.0615328368505331 Eu
   0.3746675846314459    0.9376933109545529    0.0625504284508864 Eu
   0.3754043993133585    0.4379185567029826    0.5620808276760835 Gd
   0.1232732959035306    0.0637311025223396    0.8131613463155605 Gd
   0.6246447286555861    0.0628226589670657    0.0626714712265001 Gd
   0.8759199915193095    0.6872058487909646    0.0642901786725337 Gd
   0.3726861528446807    0.3134617016487450    0.1874359901147383 Gd
   0.3759160496546332    0.5622643339641852    0.4371729226598812 Gd
   0.8747129242768131    0.9379489439495389    0.8120447533534301 Gd
   0.8767635952529799    0.3125514273208289    0.9388586063801411 Gd
   0.3776124487127350    0.9373527808704485    0.5616399443134094 Gd
   0.6232656514385646    0.3129506866182112    0.3134006027089429 Gd
   0.1247071397698967    0.6857737136654162    0.4359079098018608 Gd
   0.8754297961237706    0.4363225830011761    0.8127707104116652 Gd
   0.8743243820818413    0.9381244456506089    0.3138605258920493 Gd
   0.6262651900402162    0.5618952556345810    0.0627020388682083 Nd
   0.1250856765573833    0.9384942725221713    0.6875635519500437 Nd
   0.1254318162720022    0.8120755896164061    0.5615738194277858 Nd
   0.3733260908161960    0.0624126808118509    0.4371873684860412 Nd
   0.1244445220696759    0.9379653688885938    0.1881498441778550 Nd
   0.6246480975500855    0.1884914579975481    0.1873316776227571 Nd
   0.1266292390273821    0.6867057819278899    0.9381918361520435 Nd
   0.1273613019617236    0.5613061574886298    0.8126965600314616 Nd
   0.8767562905402941    0.4381161098894770    0.3121758826562164 Nd
   0.8741942232262546    0.5622858301670968    0.6864694398135563 Nd
   0.6244174994341469    0.9377001445278740    0.9373704720516135 Nd
   0.6242359110905906    0.3121258300735199    0.8124522986278323 Nd
   0.6257268716935156    0.0634431877094241    0.5624427416797406 Nd
  -0.0011321477317006    0.1376816272556924    0.7496766928234916 O
   0.0015068880040637    0.1364196817871855    0.2501922159056358 O
   0.7469233705778549    0.7619844601873269    0.6260621578738033 O
   0.7503066737240175    0.7606705348278647    0.1252320664653098 O
   0.7489152089681202    0.2600219661012410    0.6250724857126817 O
   0.4978156933946359    0.5004478918653457    0.3621077949191412 O
   0.4973881081874880    0.5017556830893325    0.8634463975229272 O
   0.4992470621546157    0.0006056372827343    0.8626596982371195 O
   0.5011107390301199   -0.0004901942693876    0.3635615165546549 O
   0.0006412818400512    0.4990230179097013    0.8882686228117331 O
   0.0020708293413202    0.5006817456623898    0.3862754812471137 O
   0.7494008017110876    0.2636222027742792    0.1258829089016632 O
  -0.0006383951877793    0.6331557280094678    0.2498906421287622 O
   0.9751967815388829    0.1234682546282087    0.3731922442746832 O
   0.7524973969835648    0.3743602641254894    0.0133403157203594 O
  -0.0004930224564310    0.0002277709679329    0.8862016017386720 O
   0.7501426966573351    0.3747259608506769    0.5137826503747345 O
   0.7504819920659448    0.8743880934309590    0.0121775473051461 O
   0.7464622304809456    0.8767157171333404    0.5116564150200931 O
   0.5227054929211515    0.3748320852736557    0.1256269963611698 O
   0.5222608975432357    0.3751119734789800    0.6248882182715777 O
   0.5263699242230994    0.8737434100783545    0.1262983331907329 O
   0.5248825383815184    0.8751638177174828    0.6246696561869347 O
   0.9809158803555169    0.3749501029651945    0.1251755790421238 O
   0.9772921489040639    0.3733676681658203    0.6234360959149997 O
   0.9739073785855005    0.8751843295425931    0.1255621514375544 O
   0.0009653703782349    0.6371667956429701    0.7498627896379113 O
   0.0001110441077266    0.0011438383781680    0.3865638276709732 O
   0.0024214523349953    0.1148672766580524   -0.0019898456582891 O
   0.0004152814497811    0.6119197985378140    0.0011646542384744 O
   0.5242064081832110    0.6243703251318763    0.8752580886599128 O
   0.9784857994443775    0.6242796754980754    0.3744273272373372 O
   0.9735206738098714    0.8754841685970802    0.6248714833755159 O
   0.7508366476850256    0.6253348976490949    0.9886322199627590 O
   0.9763716502745243    0.6247894848870589    0.8750660582485214 O
   0.7504025790026938    0.1256201708725335    0.4883000543023787 O
   0.7476166694943300    0.1241553066745454    0.9871902388399395 O
   0.5239161331900959    0.6236164300064160    0.3759018263345361 O
   0.5228664132796845    0.1244674756530917    0.8758419823989976 O
   0.5238157783042050    0.1253656151921829    0.3750359482487365 O
   0.7484027339220575    0.6233820156916565    0.4883494133085442 O
   0.7474044331943258    0.2371414007122494    0.3740003251461214 O
   0.7498961331881715    0.2378597460638285    0.8749767971999853 O
   0.7491736883248693    0.7363317952840795    0.3737906464454686 O
   0.7520432389261036    0.7368096698200549    0.8758580267654398 O
   0.7749200926410130    0.0004000024691822    0.0003427223957593 O
   0.7724061892963551   -0.0004929991610427    0.4990915518634123 O
   0.7775179116860067    0.5002290337793674    0.0010357630578080 O
   0.7742478808963285    0.5013400715789290    0.5012043734553895 O
   0.2238028647972470    0.0012906772999221   -0.0010176046197714 O
   0.2250096036196489    0.0001339083619808    0.5002631710687487 O
   0.2267625694046125    0.4994756654313425    0.0005082931221767 O
   0.2295908905313399    0.5000327647235978    0.4994621656416415 O
   0.9761769283344847    0.1254925808261329    0.8745557480474332 O
  -0.0043439444053096    0.1139598783554521    0.5010410618308440 O
   0.0029299854752082    0.6122754206876788    0.4986158059144470 O
   0.7499813649979201    0.3747446622216246    0.2381004908904596 O
   0.0002409850626405    0.5004561392679392    0.6117235097423525 O
   0.7501221905792580    0.8747153030750313    0.2392841984113997 O
  -0.0017669196288938    0.0015302717231319    0.7518092294638432 O
   0.0051336247050888    0.5012699664546469    0.2483052444987842 O
  -0.0027440157058735    0.4980717819561720    0.7516189646865924 O
   0.2462823842449323    0.1243055056761053    0.3728388334260213 O
   0.2430523617451409    0.1255443745913220    0.8762322484767974 O
   0.2462836083054510    0.6224963493165447    0.3754415467188442 O
   0.2566525587497518    0.6231284626367800    0.8764383515565703 O
   0.0052499804351096    0.2520726718449884   -0.0010159403274254 O
  -0.0010396548222198    0.2505358946965012    0.5033006594934336 O
  -0.0042832105018128    0.7484433706537746    0.0009044829656812 O
   0.0030151694979272    0.7480018421481164    0.4976841266950213 O
   0.7470881222358234    0.3736291147114528    0.3737639753495072 O
  -0.0007496696346982    0.0014573013527250    0.2529677948052516 O
   0.7555912778400177    0.3746148303078899    0.8751249365826012 O
   0.7491143567333002    0.6254478115710272    0.7608932344771536 O
   0.7547637246220059    0.8759657266105770    0.8740069342939558 O
   0.5011392418151884    0.0028376401273748    0.0005453001312474 O
   0.5016209094844595   -0.0026179872417616    0.4991894753691620 O
   0.4954451659586968    0.5004528228649192   -0.0006068435009518 O
   0.4991192088944926    0.5019506098417704    0.5015070033693125 O
   0.7480553413933018    0.1233821182600043    0.1242703976667676 O
   0.7508348895295263    0.1285212540595304    0.6254680549939361 O
   0.7566163308840459    0.6240002047576875    0.1266155696852796 O
   0.7427219837432897    0.6247382169126511    0.6246280962218410 O
   0.4980842890608304    0.2526130249939387    0.2507562527933819 O
   0.5018659024977061    0.2489074649074764    0.7472140173476055 O
   0.7471899001873078    0.8776173099739394    0.3752106637535436 O
   0.7503432986131580    0.3751735501857886    0.7364595696833046 O
   0.2547852164563125    0.8761046906610759    0.6239593900999899 O
   0.2502629314855009    0.3738237941446486    0.6219709350638050 O
   0.7517971369059396    0.8765731838071269    0.7370705776718685 O
   0.7518242801924407    0.4875971977041106    0.1256129764443161 O
   0.7493311000435972    0.4882976350925173    0.6241233051476635 O
   0.7502622188288132    0.9878011616799156    0.1253349626929369 O
   0.7497290271985041    0.9897123494417860    0.6250671805253327 O
   0.7758455633911896    0.2505238312078580    0.2498282886353108 O
   0.7730789118023015    0.2495146260254908    0.7490559161499813 O
   0.7745380445386579    0.7491641777817944    0.2501019797901295 O
   0.7737230157491848    0.7484406382747574    0.7483843211442875 O
   0.2277563374835810    0.2503623706862011    0.2496722065338361 O
   0.2233890823885976    0.2507661495500957    0.7489165629293015 O
   0.2238425164823381    0.7503130559070851    0.2493811306536127 O
   0.2510999455719259    0.8738996573377779    0.1257684084170052 O
   0.2282621746220025    0.7502785582699678    0.7497910252415296 O
  -0.0030036984253544    0.3604296966948496    0.7510957531608137 O
  -0.0006523852134771    0.8629386212006811    0.2502581197433882 O
  -0.0005289632431935    0.8631852265853207    0.7501804828598504 O
   0.0034066527601045    0.2515599475981251    0.1364859018572951 O
  -0.0014061813519070    0.2498455954502237    0.6340917778500259 O
  -0.0019047787712640    0.7481415507274856    0.1384330385140924 O
   0.0020147535537284    0.7508242905822406    0.6376890281000834 O
   0.4984306527536332    0.2504477410500808    0.1130581221977425 O
   0.4999711672235190    0.2498742313368257    0.6139636500339878 O
   0.5002188940161048    0.7492447951824401    0.1130799615408479 O
   0.5018662487605887    0.7493396422925961    0.6135678937449282 O
   0.2461677565023516    0.3742488904099852    0.1255315078136611 O
   0.0025507397968634    0.3647077926648982    0.2488490313106328 O
   0.7507946838009056    0.6243790181449036    0.2612350454897957 O
   0.5020639073821510    0.7479662320688124    0.7476178798647258 O
   0.7506049763160046    0.1247311028296435    0.2618894775073221 O
   0.2521986368120625    0.7375992697430527    0.6249386581803540 O
   0.2731822477523920    0.0006577588728753    0.2509994242010896 O
   0.2741946787956341    0.0004890555051167    0.7497191501724509 O
   0.2697275574202606    0.4997997903292523    0.2501151686153165 O
   0.2777731017360650    0.5008520207872359    0.7506002032971802 O
   0.7268650910181403   -0.0000584995799505    0.2505053869178270 O
   0.7258677153356962    0.0006177953621174    0.7497380699563562 O
   0.7289140075473072    0.5006848643189998    0.2491475569277935 O
   0.7246861850647172    0.4993982459493583    0.7499887042076891 O
   0.4993244829346624    0.1133996976544107    0.2506206398278640 O
   0.5022996777316009    0.1131587631844064    0.7484074000823178 O
   0.5011087068112520    0.6112430045127577    0.2490076415138316 O
   0.5020204208221273    0.6141366058586779    0.7492562475830578 O
   0.5016006604971401    0.0010339972246965    0.1388730659793906 O
   0.4980853124854202   -0.0001893273560484    0.6360320490419034 O
   0.4988193485838406    0.4992904645309715    0.1373076517409836 O
   0.5022408336165470    0.5008723115383815    0.6352569749661932 O
  -0.0009111904790893    0.0007141573325702    0.1129208656592662 O
  -0.0017088916790368    0.0006224397129930    0.6134572312371113 O
   0.7485240572672005    0.1261185052169864    0.7610362443271416 O
   0.5025091523275985    0.7497927912174377    0.2497196949467235 O
   0.2517820280561477    0.2631070757130601    0.3739179165434337 O
   0.2462711260037458    0.2610693779305434    0.8769220796658743 O
   0.2518349680103862    0.7349192995993618    0.1265885906639611 O
   0.2487065715286323    0.7621055458626641    0.3761660923102784 O
   0.2479892661451496    0.2395115550240533    0.6247324078195051 O
   0.2521532321114249    0.6251627296183050    0.7376955456779545 O
   0.2483796229277315    0.0134941072964851    0.1255028376624167 O
   0.2489780122783061    0.0136664503221916    0.6246142101556840 O
   0.2482211153861206    0.5093389054247128    0.1261939670978214 O
   0.2537752467186055    0.5123944388118217    0.6238210308610683 O
   0.5001999893484244    0.3878031205832581    0.2503076695781664 O
   0.4993585172785797    0.3875730359966211    0.7495047190216672 O
   0.4996621623284523    0.8868619804909591    0.2507480381662261 O
   0.4982989476391834    0.8877936383334468    0.7488105501349519 O
   0.2489278396620900    0.1258564587065690    0.0111126789501452 O
   0.2501399305686282    0.1250380927425966    0.5134002378971256 O
   0.2509340147778290    0.6230785841249881    0.0130417767170223 O
   0.2521110088437425    0.6250629383529953    0.5110133905913735 O
   0.0245882554124772    0.1246630232528143    0.1257901677954567 O
   0.0203283006441515    0.1260544413401755    0.6244547923947215 O
   0.0228395514631454    0.6235065691071623    0.1259828059942279 O
   0.0266962566398793    0.6243635897721909    0.6252924344297335 O
   0.4735052393258409    0.1254474526955997    0.1247266347919707 O
   0.4771916254931412    0.1265505399046288    0.6255152152087589 O
   0.4770319075985170    0.6242531226946826    0.1255518442317602 O
   0.4800229759761434    0.6252234057804035    0.6247079969172183 O
   0.2481002162785002    0.1252657969444490    0.2388511162430272 O
   0.2465365280425438    0.1244503281211553    0.7367212898122352 O
   0.2469877714643782    0.6228442307786283    0.2396443834408324 O
   0.2485477502348166    0.2397743291716004    0.1247010373143215 O
   0.2507670862092611    0.7613619362219270    0.8744770016709636 O
   0.0002128587968994    0.4996942950432565    0.1157850282141224 O
   0.4990963100499355    0.1379455144689636    0.5002160876406401 O
   0.7271340890378852    0.2486235169499546    0.5017394699226009 O
   0.7251940955378257    0.7498062159474231   -0.0001062456325979 O
   0.7239884473317678    0.7500938987226766    0.4996719845484202 O
   0.4989493649783271    0.1381790528940811    0.0003274222138849 O
   0.4982685029373889    0.3627314936500075    0.5011715685529676 O
   0.5012784877023039    0.8620601789699985   -0.0004813491723346 O
   0.5006156360281093    0.8642790947219338    0.4997660787122353 O
   0.4996801403985925    0.2502014029678098    0.3877796328599500 O
   0.4998810619140724    0.2508365858999553    0.8881053001799296 O
   0.5022519129165253    0.7507469912229641    0.3880963357315644 O
   0.4989277419175656    0.7487791945231359    0.8868469897837942 O
   0.0002706331136169    0.2504951247927016    0.3612849508439464 O
  -0.0000873019334468    0.2492054239584681    0.8646156861226205 O
   0.0020082385589007    0.7482296526620044    0.3615107511995464 O
  -0.0002608336113662    0.7500995461240429    0.8626322445567575 O
   0.7490145833089469    0.0114148243714567    0.3755386011139054 O
   0.7505202005105126    0.0130660034911222    0.8745078228014903 O
   0.7515088330149808    0.5124536078871482    0.3745038156367415 O
   0.7521542533942567    0.5127221210338697    0.8740073313073251 O
   0.0008299720421947    0.3856229974066225    0.0010385142453950 O
   0.0037028018038187    0.3869367371563142    0.5011545870842530 O
  -0.0016750665034045    0.8878016935704878   -0.0011086475295269 O
   0.0004766151207179    0.8879641366999091    0.5006150182123520 O
   0.7263695259654591    0.2511305294082732   -0.0008569348035337 O
   0.2775534029254563    0.7499952673386333    0.5003100214630023 O
   0.4971651216790247    0.3622567805261817    0.0010790453274925 O
   0.2713411618775770    0.2519707147640336    0.5018187147515412 O
   0.4984940265865943    0.6352168065917316   -0.0011753274737379 O
   0.5024248529998362    0.6353717051935487    0.5007634489472871 O
   0.2499543671899207    0.3754669879588345    0.2593547615715169 O
   0.2509670646137086    0.3740492582487683    0.7629433238020967 O
   0.2509200979039256    0.8747914392486005    0.2625533893120175 O
   0.2761363536724683    0.7485667456989408   -0.0002033265668431 O
   0.0269185257999347    0.3760663661490181    0.3741781738957584 O
   0.0244971382942378    0.3749092076189801    0.8756993680074056 O
   0.0232479842176644    0.8762483185395669    0.3741580813744518 O
   0.0247880770059664    0.8747413951850589    0.8745699743295683 O
   0.4730358349483187    0.3739476534029771    0.3739263441309330 O
   0.2504190394202619    0.8749258981788121    0.7621018883574460 O
   0.4781116698827198    0.8758465837603651    0.3756825223723443 O
   0.4738705828075550    0.3741602342831991    0.8749771117750628 O
   0.2691726414264211    0.2498827208093377    0.0002660110852506 O
   0.2495979269695012    0.9895295307674912    0.8745572534361786 O
   0.2516959028366358    0.4874964517707952    0.8766493361459743 O
   0.2487924129404801    0.4889153029566617    0.3741380541003180 O
   0.2477294805206217    0.9889811904500643    0.3742579807803503 O
   0.2503424718850062    0.8754930578772552    0.4869734543329676 O
   0.2482618920590807    0.3738694383270716    0.9905756451005174 O
   0.2491505942678353    0.3751458020295100    0.4883945420977271 O
   0.4741174698891752    0.8759125198070846    0.8753064202614107 O
   0.2500098256621480    0.8750628893264343    0.9859061939845629 O
   0.3729318101386241    0.1883025693013773    0.3127233957408079 Sm
   0.3734403957571505    0.3124343435923521    0.6868841183272746 Sm
   0.3754033336113695    0.8114704224264805    0.1877827407759763 Sm
   0.3774011199004214    0.8123983700920453    0.6872410919312241 Sm
   0.3778811587526811    0.6871912047790192    0.8123397017903824 Sm
   0.6265973163289374    0.6863266973965590    0.1881221541508251 Sm
   0.8751773379614189    0.8122508546927912    0.9375055535984619 Sm
   0.6257028265926149    0.8124046391810745    0.3133825677973743 Sm
   0.8749936389615169    0.0625382152269585    0.1876321825509545 Sm
   0.8734896844382223    0.0641171755940874    0.6876273166047631 Sm
   0.3725681889597518    0.0637413327126324    0.9374801537928605 Sm
   0.3734076456810104    0.4364270229462951    0.0630442491021944 Sm
