La13 Ce13 Pr13 Sm13 Gd13 Y12 Zr51 O224
1.0
  10.8414100424586337   -0.0044018955827680    0.0040159070823234
  -0.0088017473523036   21.6828801695297173   -0.0175618596345476
   0.0080322913152916   -0.0175635366061410   21.6885054719767396
Ce Gd La O Pr Sm Y Zr
13 13 13 224 13 13 12 51
direct
   0.6219113319975867    0.4397415553200414    0.1900050876731848 Ce
   0.6250927995166767    0.8120799225420062    0.5594940685805510 Ce
   0.6245358227330285    0.3151638178283226    0.5653764669914294 Ce
   0.8801183267566591    0.6907922538991181    0.3107907241523424 Ce
   0.8775631028830454    0.3127147867189250    0.1868405292014619 Ce
   0.1209238989277673    0.8117220855115194    0.8134503832773105 Ce
   0.1257163397102449    0.1862001584854930    0.1881691433317797 Ce
   0.1189412630014808    0.9385201161376405    0.9396312748817980 Ce
   0.1248673258791279    0.4364200115936500    0.4368126089785669 Ce
   0.3729834259154171    0.0641129200047176    0.6869479599033860 Ce
   0.6233121483317231    0.5590001353804026    0.8115118464075836 Ce
   0.8723716680647206    0.9381707142923913    0.5600183994291554 Ce
   0.8814450911855846    0.4392942458758162    0.0624935937158416 Ce
   0.1204556826609510    0.0665067505273730    0.8118643918855704 Gd
   0.1237762934216187    0.0592136452142920    0.3146363725553036 Gd
   0.8718054157111521    0.8100868912782635    0.9383724645680193 Gd
   0.6078505422777913    0.4331524985348850    0.4315911726711129 Gd
   0.3821286490572119    0.9391851684612146    0.5638210203094864 Gd
   0.1313044714063994    0.4385128596374225    0.1904975982417590 Gd
   0.1135154440416928    0.4269519614931212    0.6867852682032036 Gd
   0.8653447352759996    0.0660088672232469    0.1979110323102012 Gd
   0.3671308740868588    0.1912751132273665    0.8137928144213936 Gd
   0.3573035627003318    0.3014354815301805    0.6821118407480498 Gd
   0.1314604891809880    0.3095207322937643    0.5548596027584998 Gd
   0.6228990904650734    0.0622104688214409    0.5612860627230039 Gd
   0.8828213210198422    0.6909466554462752    0.5619668889543354 Gd
   0.8800749756284773    0.1854969717557642    0.5588070575340650 La
   0.6180600516501560    0.8125972508876683    0.8147477507365120 La
   0.6270366864646597    0.1873166985452503    0.6894823900411930 La
   0.6192369571507998    0.5640474355161724    0.0635375902608262 La
   0.6289049530961416    0.0626213917653541    0.0638478292827489 La
   0.8689204519418058    0.6895362404411504    0.0664120707957821 La
   0.8672404661654121    0.9407271859699374    0.8119517439368745 La
   0.3728132626304966    0.6867174687289345    0.8125609963336395 La
   0.3792240329801076    0.0618013662664037    0.9334506888714850 La
   0.1280600637237364    0.5601869754790695    0.8126419237307454 La
   0.3778400249548410    0.1867773229430656    0.3138604858163938 La
   0.3819369680977472    0.8106449021315194    0.1867521116535290 La
   0.1236665846108830    0.9379380011853273    0.6862541355229486 La
   0.7490900251555106    0.1241239912645255    0.9809909574141757 O
   0.0015133831636703    0.5007570546937166    0.3867061284174205 O
   0.7536749768867527    0.1271353388052964    0.4779277199983065 O
   0.9505781304942287    0.6207298133870534    0.8731096036381588 O
  -0.0026919031142163    0.4960651504890060    0.8984582993114419 O
   0.9814059080682378    0.6257866649402121    0.3760037391217649 O
   0.4996146021300376    0.0004024322502173    0.3555234019000647 O
   0.9642829007908374    0.1266547218746131    0.8757657062717238 O
   0.9555133413335704    0.1274677316982825    0.3774736840326097 O
   0.4916151916069028    0.0021752894168233    0.8480243480040288 O
   0.5287090866989280    0.6255398453136237    0.8764992180580211 O
   0.7501971562816254    0.6236439038631412    0.4694697125555807 O
   0.7490073351941735    0.6250520260834467    0.9780954569128564 O
   0.2082975749605723    0.4978728725582085    0.0029216577898873 O
   0.2206089870913475    0.5016739984265292    0.5000490934456611 O
   0.2063731493996524   -0.0008579990162604    0.4978902971404147 O
   0.2248272843494156    0.0016997451801209    0.0020858610897092 O
   0.8235432131705673    0.5063816974718715    0.5041728700098382 O
   0.7752864558023752    0.5004196245895932   -0.0011429888673613 O
  -0.0005793059002625    0.1042956809726256   -0.0006048691744754 O
   0.0006475357581137    0.1001206712701509    0.4997152301971748 O
   0.7722007261081166    0.0030124622712508    0.4972771976630401 O
   0.7975581188342792   -0.0022497340593355   -0.0013821736181657 O
   0.7417817860850872    0.7268876032096806    0.8722929211770571 O
   0.7487357858112370    0.7401022108853739    0.3739096272867334 O
   0.7515117362258105    0.2280594191014566    0.8761774458765518 O
   0.7557362146134033    0.2332521533926327    0.3749121590237254 O
   0.0003623154260225    0.5982025694978137   -0.0005972958442054 O
   0.0053634715400226    0.6096934784792211    0.4994222811997981 O
  -0.0006202389544696    0.0013997186875596    0.3928666679589263 O
  -0.0067614201334673    0.0025951786620470    0.8899041645276075 O
   0.0074389713401392    0.4983741964651324    0.6023977866761073 O
  -0.0076145525986659    0.8841359724416513    0.0017486273732445 O
   0.5414206264296350    0.1245211782020592    0.8771534787062713 O
   0.4970382169173941    0.3614428947018805    0.4995154522947932 O
   0.5042577151190584    0.3487181197623514   -0.0024494264849342 O
   0.7291341109610706    0.7462390481382800    0.4980335356400455 O
   0.7080731333763914    0.7507111990146221   -0.0027754276955890 O
   0.7221668668750971    0.2531999358958027    0.4981024196829187 O
   0.7132092697391945    0.2484403032796632    0.0010374355592680 O
   0.3000722798037141    0.7518557498484473    0.5000324963566556 O
   0.2809200488554708    0.7482493841546756    0.0016787206437891 O
   0.2931704683977883    0.2498946609430848    0.5028721186342388 O
   0.2833262594452925    0.2490755210705336   -0.0011344058874652 O
   0.2451570116941597    0.9857541636562904    0.8734725468048309 O
   0.2502419125522255    0.9825288532449860    0.3748586480359093 O
   0.2487262022437771    0.4813619523388232    0.8774199665934139 O
   0.2536140207210273    0.4878206723379329    0.3724924721885027 O
   0.2482861901704445    0.8728761749621666    0.9884527485399879 O
   0.2453420290023573    0.8740467506989277    0.4732404116321802 O
   0.2542706839359800    0.3750167192484643    0.9835011969322406 O
   0.5005604133039337    0.8588928538240782   -0.0034428162777516 O
   0.4949895152900868    0.8634279849070845    0.4977016583616955 O
   0.5026638063078835    0.2526103033696911    0.3971184283167116 O
   0.4986977155492881    0.2489604038718271    0.8949613161814703 O
   0.5486808400027930    0.1271848945796679    0.3742217709891580 O
   0.7522114932887124    0.6269371215762709    0.7641170319897032 O
   0.7489226357768302    0.6247640242586242    0.2688688210363882 O
   0.7525050485209167    0.1239200685064941    0.7700783132512030 O
   0.7496672260710568    0.1225594366048739    0.2689725081082822 O
   0.0006393863142487    0.8901409726299019    0.4954094172552674 O
  -0.0014656209914460    0.3846714940294852    0.5036192641516133 O
   0.0049450441587777    0.3874466783310629   -0.0017032719962685 O
   0.5451515245673868    0.6267298910475817    0.3708674038787593 O
   0.7549325019924999    0.5118441324749856    0.8738434872761239 O
   0.7428714826700752    0.0206781989113079    0.8773241602318976 O
   0.7520336855900396    0.0172782327706540    0.3727605704921227 O
  -0.0066015576990183    0.7461523848245445    0.8647306764818191 O
   0.0039630109620487    0.7528403430415564    0.3636277261272585 O
   0.0008758501192695    0.2515370253868081    0.8522372381252866 O
   0.0158020369835747    0.2406015477160124    0.3383065861521702 O
   0.4997122787626285    0.7521767745489641    0.8983555658412022 O
   0.4987193373367381    0.7509723406420281    0.3932432410467657 O
   0.7527134452680180    0.5169571276821414    0.3788916197064908 O
   0.5065441624771744    0.4974688339633497    0.3533518698857878 O
   0.5225438894277674    0.3756540479753160    0.6333794563594910 O
   0.7455417735402186    0.2662255837678310    0.1245438364646092 O
   0.2464217588881572    0.1280030488582008    0.8751593788973953 O
   0.2390796252262244    0.1256761252480383    0.3791074899823157 O
   0.0089382670461698    0.4951128480095408    0.7483911697255499 O
   0.0104109473165156    0.5004244280902889    0.2520164026230493 O
  -0.0048772334475539    0.0042628221669276    0.7514834179431205 O
  -0.0070295423735929    0.0003173489486195    0.2529153244814709 O
   0.2566558100368193    0.8754717228713825    0.6206685475899524 O
   0.2475049430902906    0.6302110503785211    0.3743746943266179 O
   0.2527619262523738    0.8751789778147669    0.1279679456016036 O
   0.2574851079960730    0.3766012852027672    0.1276824433386250 O
   0.4969758989505895    0.7496939729773509    0.6089477984972588 O
   0.4991449761556776    0.7522062759613387    0.1015088878691469 O
   0.4946365883954815    0.2503579097106610    0.6105856971163315 O
   0.4979926393701422    0.2497040361585602    0.1066813551148888 O
  -0.0002642708117919    0.7475949129511060    0.6406250918000944 O
  -0.0026973895360051    0.7475279372991350    0.1573106138939967 O
   0.2401583241400305    0.3696010031131860    0.6242213734986949 O
   0.0067240913216467    0.2512984148706612    0.6428175984301001 O
   0.2454585109232938    0.6236915781311436    0.8782211084853130 O
   0.0037115205546100    0.2509239496767774    0.4905237419442070 O
   0.4885962197492055    0.2532060229197505    0.7502573844735488 O
   0.4967000985411901    0.2527846203726509    0.2494664291938652 O
   0.7603621729602836    0.6259683932656457    0.6194769232208889 O
   0.7446392731352239    0.6289062161468602    0.1319668991407422 O
   0.7520867632317929    0.1238288164834628    0.6223191335145583 O
   0.7535940641813890    0.1238095351154052    0.1269464092939212 O
   0.5066343469083365    0.4994442481605453    0.4967283645770677 O
   0.0071594208006204    0.2454301763342814   -0.0015442393536854 O
   0.4880840687724696    0.4975772058264692    0.0036320307746677 O
   0.5116454925974443   -0.0015629079761748   -0.0022749909599471 O
   0.7400666802716764    0.8753687207276704    0.8794033553937770 O
   0.7525874866621634    0.8759244698342871    0.3723703956954413 O
   0.7534836456376262    0.3743779350773251    0.8741369906849439 O
   0.7450581831289221    0.3746641438306204    0.3773539455892532 O
   0.0000185365830026    0.7486982820670138    0.4958425148791914 O
  -0.0048377503915390    0.7481637791521125    0.0012049700847341 O
   0.4966122900634721    0.0022351154664526    0.4984394783606999 O
  -0.0013457606141446    0.2475723562264481    0.1336568279500890 O
  -0.0071545391993486    0.8594016302204958    0.7482890514336480 O
  -0.0017360188181308    0.8546229304140841    0.2511270258330392 O
   0.9881502099439018    0.3758943114749323    0.1260095139206474 O
   0.5282884295457372    0.8769884929530740    0.6245019023432017 O
   0.5454082705063458    0.8759634605447878    0.1238831400998666 O
   0.2491610543992210    0.3718159182589961    0.4868796868868073 O
   0.5332040264219809    0.3723616673109307    0.1246644276274456 O
   0.7496327282786429    0.8743534797517875    0.5045378153027803 O
   0.7459948633627260    0.8769172520365472    0.0157902402296085 O
   0.9593138058887857    0.3773625156913217    0.6289846175274085 O
   0.7495548970675059    0.3815710890506370    0.5118792770569671 O
   0.0016371822118842    0.6479001400089742    0.7494316961334433 O
   0.0081816454938579    0.6358469848510091    0.2500859325670858 O
  -0.0026947344407957    0.1444784877064040    0.7493723765289635 O
  -0.0074324746515126    0.1361252436676259    0.2512588845470450 O
   0.7540838851207018    0.7645318870154229    0.6246090161633776 O
   0.7633442442218591    0.7818776947468090    0.1163845941138076 O
   0.7565466486129809    0.2660625001732043    0.6260951557403079 O
   0.7496855414766730    0.3728641202280350    0.0219590150149738 O
   0.9604660511847445    0.8743975650081680    0.1280270177569204 O
   0.9686436712824874    0.8717588113092760    0.6219431354652019 O
   0.7485313972513323    0.3735663173986273    0.2408700647949258 O
   0.0051966953432612    0.3546229258813688    0.7495592525011517 O
   0.0034630572119177    0.3622028867933739    0.2521493192961319 O
   0.2176513965495862    0.7494644571690553    0.7477078778941491 O
   0.2061794647589054    0.7481822577036182    0.2550236009424038 O
   0.2104147487274225    0.2516758785134327    0.7478650126211266 O
   0.2210048724278534    0.2546091381878953    0.2499574155074725 O
   0.8029362165395374    0.7540120775206836    0.7524485238690373 O
   0.7667933540599787    0.7492333203337381    0.2447416004153125 O
   0.7927642929170815    0.2503908004058699    0.7515138623242074 O
   0.7787323316002510    0.2470974329574869    0.2507004790918367 O
   0.7451197792085837    0.9876169269201921    0.6245611177160232 O
   0.7524181079731419    0.9779999137926068    0.1249624918924336 O
   0.7495837750161859    0.4782839637760428    0.6214755443061792 O
   0.7524665606277658    0.4901151255295172    0.1275825643313125 O
   0.7464368421387736    0.8750841636826280    0.7161788471571905 O
   0.7514003101387261    0.8766191072606196    0.2351612310803774 O
   0.7519326995218784    0.3730066050801294    0.7258072476578130 O
   0.4945785438157583    0.4997813671196651    0.8673246198409581 O
   0.4189589838337784    0.8704612604787303    0.8698804250809095 O
   0.4996142106707919    0.7521245381128576    0.7488934252067453 O
   0.4532291929710918    0.3725554748607430    0.8750340945750948 O
   0.2710430470029450    0.0015353777578394    0.7506243248251004 O
   0.2841745853993043   -0.0014727022467593    0.2509643435179227 O
   0.2513495170806373    0.7307491061956747    0.6239638185389977 O
   0.2508923743526194    0.7288644542090360    0.1276697021692539 O
   0.2539903436548719    0.2246162332632659    0.6267698082247893 O
   0.2535713904146119    0.2381384415858831    0.1244927573780639 O
   0.2492414099117780    0.6246533043537010    0.7272286543962331 O
   0.2592782747993087    0.6256066960999914    0.2355933041066409 O
   0.2458929934095257    0.1285411804917658    0.7381576016740967 O
   0.2492549882882538    0.1226217016256510    0.2404579839484706 O
   0.4642178462951176    0.6246007616710948    0.6223357361042136 O
   0.4566981593257196    0.6286907382217823    0.1291408189140021 O
   0.4759469189230262    0.1256977744584027    0.6227735031834163 O
   0.4451501702483699    0.1260822620508943    0.1273156918922801 O
   0.2908838016084362    0.4991189485698878    0.2483911409750758 O
   0.0466734413911197    0.6238588388419345    0.6248084337881205 O
   0.0279174122273304    0.1200752830888071    0.1247945814993900 O
   0.2521250582823490    0.6261235553851416    0.5176197326894036 O
   0.2497570170476772    0.6239674254160725    0.0218661444093704 O
   0.2644705208102496    0.1172844034080180    0.5281946403709934 O
   0.2425815014479930    0.1285661149389998    0.0200598070978964 O
   0.4997464673567862    0.9013327630938112    0.7497484235037204 O
   0.4998740251691803    0.8949289004386449    0.2494897302101819 O
   0.5248071228268988    0.4132902681713028    0.7629947068387929 O
   0.4932419149232339    0.3893651200179475    0.2516402828516184 O
   0.2535463428639725    0.5202322889979055    0.6243902372722425 O
   0.2515446464434441    0.5173864066140926    0.1244639989201761 O
   0.2494027998823853    0.0136681444202942    0.6219149342603414 O
   0.2446771052267431    0.0250234931128385    0.1287477104545854 O
   0.4653361728733609    0.8755051792661747    0.3733443218277663 O
   0.0446966098359732    0.1243314052753981    0.6252461851029654 O
   0.3047331604054766    0.5037139218353544    0.7533114784351173 O
   0.0444400829782912    0.6268117239568792    0.1247380144901233 O
   0.7036572247304732    0.0013639337027159    0.7487181893686263 O
   0.7111687050484470    0.0011185964715674    0.2492882732240759 O
   0.0132187904444697    0.8741377779500282    0.8763308596709156 O
   0.0308200797310158    0.8782949443811980    0.3721364936469411 O
   0.0484075028446535    0.3752290221967839    0.8736432035619677 O
   0.0213091824047429    0.3676311330046384    0.3775537032903976 O
   0.2495915181070837    0.8756361074071269    0.7618328349310279 O
   0.2498309379325903    0.8747239988620010    0.2748962535292293 O
   0.2573514559685248    0.3752858072122661    0.7672394107594139 O
   0.2460432060945323    0.3783402835805522    0.2727773857645345 O
   0.5049910692299596    0.6503500065707881    0.4982498205142072 O
   0.4974054152756673    0.6445838088209483    0.0009414412436721 O
   0.5053300873550178    0.1483534038012712    0.4989182099977659 O
   0.4996896804275617    0.1482331638091992    0.0025071358233249 O
   0.4537613547882919    0.3769837027573588    0.3774867480378466 O
   0.2513624743993943    0.7717523546861109    0.3750184285639448 O
   0.2450786866708771    0.7629812179682235    0.8794261053342892 O
   0.4984063423934143    0.6097790021028767    0.7473838873687155 O
   0.7337465263790841    0.4991118485827467    0.7466632328807071 O
   0.4996260758601740    0.1047404105612961    0.2512951662950232 O
   0.5004881514814654    0.1122957893677185    0.7526984566762579 O
   0.5213410213920185    0.5868058483872275    0.2421762875345683 O
   0.2505153789614628    0.2663568592989269    0.8740021366468240 O
   0.4997948387885469    0.0003127172854162    0.1493552302951565 O
   0.5000987649252345   -0.0004026191824378    0.6344548199431814 O
   0.5056324133525806    0.5015477204565267    0.6454584909835031 O
   0.0114265363150765   -0.0075941632875108    0.0944654393194052 O
  -0.0022040195013943    0.0023331668627288    0.6100695333567083 O
   0.0047227873555845    0.5029470528546927    0.1147981396874918 O
   0.4948410265379672    0.7422883317922286    0.2535189168659044 O
   0.2421843787733724    0.2737726302637776    0.3794305644037141 O
   0.4919036127474438    0.4995093039971258    0.1378586949471595 O
   0.7350268173045983    0.5001309068514642    0.2545781755185109 O
   0.6189288352636643    0.4350584394177519    0.9395234656465171 Pr
   0.8797090351207768    0.3087936037230768    0.9355419200901437 Pr
   0.6198482329619982    0.1892813934217558    0.1852599003996079 Pr
   0.8836748561783134    0.5634018928363810    0.6856643160105047 Pr
   0.6193290952044277    0.3158558190050000    0.8121200924481511 Pr
   0.3752468615139994    0.5657749230829068    0.4365689204020056 Pr
   0.6346278255984440    0.5621102351300518    0.5584742535528593 Pr
   0.1212512517484228    0.9386612596813594    0.1877210362174191 Pr
   0.1241290306372738    0.8117775999879152    0.0640795307373209 Pr
   0.1303160519028175    0.8125304643001959    0.5571204983602095 Pr
   0.6235958031743991    0.6859763021094261    0.6842778165111240 Pr
   0.3749520796983891    0.4398296207848441    0.5670996396480836 Pr
   0.3801924541528806    0.9355750276116287    0.0614055409983646 Pr
   0.6218104394785491    0.9392229638418781    0.4335668039177071 Sm
   0.3726016072000011    0.8123424686034455    0.6846855765961080 Sm
   0.6254785411800710    0.8129431745776530    0.3128316461260683 Sm
   0.8798112880862414    0.1840902067096646    0.0603158410569744 Sm
   0.8731615031882033    0.0637944602718764    0.6872424835396868 Sm
   0.8810717666819747    0.5612934941725307    0.1905831450831204 Sm
   0.8773285383806537    0.4381909994888845    0.3141812064065774 Sm
   0.1249430592860705    0.6872959805189572    0.9404926073834103 Sm
   0.3700508363354795    0.5602047991562583    0.9397632837315251 Sm
   0.1328125355582504    0.3122255764640842    0.0614630933893186 Sm
   0.3604803792704181    0.0605630703186306    0.4419500079606935 Sm
   0.8779733077815945    0.4374333691335462    0.8135625243673178 Sm
   0.6289154599600907    0.3109637393512936    0.3128429723172856 Sm
   0.6151774597114249    0.6732182193707650    0.2002262674957412 Y
   0.3557824305262515    0.6996738091856716    0.3196615748201733 Y
   0.8752296302799364    0.8131298747903910    0.4352428671068334 Y
   0.8638966889305164    0.3205190161978729    0.4448851183891922 Y
   0.8737618215900675    0.9369133678767440    0.3142268185043262 Y
   0.1290689686386205    0.5641024093297153    0.3117895817615676 Y
   0.1153344959040345    0.6828841154754063    0.4380763239721062 Y
   0.1317622392682850    0.1861160083303618    0.9409076504687693 Y
   0.1062928548954361    0.1940793428359712    0.4205251378883403 Y
   0.6508170478680102    0.9399295711150177    0.9475764177265309 Y
   0.3802890157263366    0.3128161956881110    0.1835523173784357 Y
   0.3618966931744116    0.4428312101966277    0.0660199430878478 Y
   0.1286000028634603    0.5630852229666783    0.5623772068255585 Zr
   0.3757586748797691    0.9376745395241486    0.3125086925899912 Zr
   0.3672813254055483    0.9392202749059415    0.8101265269051691 Zr
   0.8725247494365305    0.0618518392414203    0.4364348282472191 Zr
   0.8742086298794846    0.0653267217277005    0.9363036826882857 Zr
   0.8823256304399130    0.5633436973878583    0.4360020459312701 Zr
   0.8725648839263674    0.5604833812267191    0.9369431418106000 Zr
   0.1275784800304295    0.4358433167095472    0.9386000941669924 Zr
   0.1231355316629006    0.9374349207692770    0.4348244947363019 Zr
   0.6226476023170270    0.0611951690936177    0.3133447942284515 Zr
   0.6228546246927145    0.0640153869978924    0.8129890709015336 Zr
   0.3734474039560828    0.4382188060825356    0.8144116406739889 Zr
   0.6332446300500008    0.5600338780474866    0.3163311621270686 Zr
   0.3745855648364638    0.6875703500969630    0.0629480715746648 Zr
   0.3751579826007733    0.6875604235050340    0.5618340409808846 Zr
   0.8792116058888029    0.3105567759249672    0.6884140545980608 Zr
   0.8695945959361143    0.8131918273431553    0.1893585713650056 Zr
   0.8778627042593300    0.8111280794102457    0.6851001394173802 Zr
   0.1211233480597425    0.1871346619770119    0.6880507400526582 Zr
   0.1299269846916266    0.6854208653873002    0.1897566677951518 Zr
   0.1270865206547294    0.6877609779984262    0.6858903341628465 Zr
   0.6228726341867541    0.3106155733155869    0.0619348091192467 Zr
   0.6237617971481947    0.8127041717134935    0.0597625684846068 Zr
   0.3789071419119163    0.1856689905703944    0.5613637392466116 Zr
   0.8677129241899310    0.1856029411247205    0.3123098261220439 Zr
   0.3735992349814867    0.4382809483910726    0.3119708230293773 Zr
   0.1300117293250290    0.3126549393303842    0.8127696342273485 Zr
   0.1254180811475729    0.5629786546779137    0.0641395081249211 Zr
   0.1246110818822345    0.0608499519973655    0.5621082961167236 Zr
   0.1250974310351086    0.0623654762796482    0.0626354533153858 Zr
   0.6211667954294863    0.9395741967161481    0.6852944364986342 Zr
   0.6278676391392879    0.9372280985676178    0.1887714298243690 Zr
   0.6294929247028965    0.4385885945125091    0.6881237335889960 Zr
   0.3759576101381903    0.5629551707246016    0.6859728833954135 Zr
   0.3721865923609866    0.5623813538243856    0.1876818708295601 Zr
   0.3734292203891082    0.0614131538140025    0.1908821863761832 Zr
   0.8748759547171217    0.9335058939567087    0.0646025488752710 Zr
   0.1217737717205686    0.8149795924124976    0.3138875993665452 Zr
   0.8790147143872827    0.4371581624537865    0.5630977202622079 Zr
   0.8733376876123545    0.6866726981852072    0.8127537507285182 Zr
   0.3748466229410395    0.3121534527615219    0.4396113453056129 Zr
   0.3730810608227973    0.3112023590251786    0.9380280396524171 Zr
   0.3761372171537116    0.8145698937148246    0.4364863151514360 Zr
   0.3715437108506010    0.8114471270815951    0.9399745344237810 Zr
   0.6298901754245136    0.1887077735779362    0.4369885470554727 Zr
   0.6241545876695576    0.1885575959025969    0.9380491351179533 Zr
   0.6275015602225605    0.6892827930129501    0.4345815962907145 Zr
   0.6226017116998177    0.6865781759128279    0.9372641185960243 Zr
   0.1260182701354595    0.3150793978419099    0.3113235804786686 Zr
   0.8754882551666541    0.1875588775459959    0.8133033768406539 Zr
   0.3715703584862153    0.1883859743379876    0.0623185654358987 Zr
