La13 Ce13 Nd12 Gd13 Dy13 Hf64 O224
1.0
  10.6534315248484290   -0.0009510834717210    0.0021045600648319
  -0.0019021703437865   21.3053951498224450   -0.0003180022465875
   0.0042090872046581   -0.0003179467939287   21.3050219349188481
Ce Dy Gd Hf La Nd O
13 13 13 64 13 12 224
direct
   0.6256792605966255    0.5626616672133210    0.0631060914037630 Ce
   0.6261755175776597    0.6890443275908681    0.1880021793216233 Ce
   0.6241567058587745    0.6864734390325642    0.6861147233651271 Ce
   0.1265570125500115    0.1865172942665835    0.9382180564599751 Ce
   0.6268411621773008    0.8126824120800477    0.8126513302213845 Ce
   0.3742832527935110    0.6877338391329190    0.8119858213237231 Ce
   0.8763469161859979    0.5605569981687077    0.1882645637290525 Ce
   0.1236662056206857    0.3123873758387923    0.5624459165592058 Ce
   0.1279372046365760    0.9382618166308165    0.6867407900676702 Ce
   0.6214661153356840    0.1871010068444405    0.6859258014020003 Ce
   0.3771875291289445    0.9397430176467825    0.0620598539543086 Ce
   0.3741824031139759    0.8134187687373983    0.6853331328976050 Ce
   0.6237170514236230    0.9393914543294666    0.9382768383780850 Ce
   0.8663997823385285    0.0663911524087790    0.1895745247507246 Dy
   0.6272172143515000    0.0641950270784575    0.0627908546317139 Dy
   0.3742532564621643    0.9387978159924943    0.5615137881012763 Dy
   0.6244636746551393    0.0617896025076293    0.5624343539760975 Dy
   0.3737645492415031    0.3116308804782426    0.1888618723990128 Dy
   0.3761368847879209    0.5597925945758602    0.4374881016945037 Dy
   0.3783106782693170    0.0659073870588046    0.9387883175925456 Dy
   0.1274347291705416    0.8151519860752414    0.5601112972256485 Dy
   0.8760089142872272    0.4357797889166127    0.3136064808922923 Dy
   0.1314289483524222    0.0634550621626107    0.8126224259221700 Dy
   0.8768081312109833    0.3141408244219466    0.4366889396557689 Dy
   0.1276151558884718    0.3065120474483017    0.0672498070730269 Dy
   0.8699671129386634    0.8123201799702092    0.9413105626543621 Dy
   0.8756325504530511    0.4344937447831337    0.8102289989899559 Gd
   0.8649620957088433    0.1897492563818135    0.5592584726747282 Gd
   0.8780126503435687    0.6877888979062634    0.0635912576066237 Gd
   0.8754516758727140    0.1859429916431035    0.0646931288549522 Gd
   0.6221700449358580    0.1883735533971697    0.1845533879328382 Gd
   0.6207554489223496    0.8150006382641387    0.3119401031674524 Gd
   0.3714977494145827    0.1868131336482184    0.8123245084314415 Gd
   0.3773130422174431    0.1868164613982857    0.3101574517385199 Gd
   0.1202837056554489    0.4314544253496000    0.1885494501811886 Gd
   0.3758538731412580    0.8147175863619305    0.1880201940154785 Gd
   0.3731695287015143    0.3105479070359962    0.6863180735210186 Gd
   0.3773870366111416    0.4364986192871775    0.5614286971203426 Gd
   0.6198506881863359    0.5638313919533705    0.5597983979319896 Gd
   0.1254872553193481    0.0635748523205960    0.0622268146862222 Hf
   0.1259170833457332    0.0624420622323087    0.5619171052799671 Hf
   0.6225438914768866    0.9384664185955421    0.6869386075745348 Hf
   0.1246573698586884    0.5626068194392165    0.0628476121737663 Hf
   0.6262972481178990    0.9385992419149428    0.1858802478592114 Hf
   0.6237889403898438    0.4369429041141104    0.6869468105901950 Hf
   0.1258325675441185    0.5611908173264827    0.5620004115614159 Hf
   0.8751042349557731    0.8128614650369023    0.6864814939100055 Hf
   0.6257487202081012    0.1875073112393237    0.4383106740772367 Hf
   0.8766857860802829    0.1865305653856354    0.8126179510560845 Hf
   0.8745366608837163    0.0631213921570835    0.4390475857840212 Hf
   0.3733674177497365    0.9384613308403831    0.8135849662825627 Hf
   0.3764832387736717    0.9377105397187627    0.3119083607143187 Hf
   0.3751056897141747    0.4369539455716481    0.8121206739617497 Hf
   0.3748988455427310    0.4366833698546999    0.3121263584535456 Hf
   0.1238801082627643    0.8124296199089593    0.8129952992112784 Hf
   0.1267430580804838    0.8128579261057244    0.3117860665594951 Hf
   0.1270662736166472    0.3117689626026274    0.8123431893207754 Hf
   0.1251352288987694    0.3126761043153635    0.3118949720279942 Hf
   0.6262759097830409    0.6878992267696018    0.9374126982127424 Hf
   0.6236741183768052    0.6867829305413390    0.4379562138115184 Hf
   0.6235016654818333    0.1862318104288769    0.9385184858749351 Hf
   0.6253620117049339    0.4363808466831857    0.1882163441440795 Hf
   0.3743553367837684    0.8127932933139551    0.9379013411754812 Hf
   0.3746745920154889    0.8134061524417638    0.4379458810253622 Hf
   0.3738012375779785    0.3118835384008263    0.9381765815038798 Hf
   0.3750532400635604    0.3128934536511028    0.4376674638521578 Hf
   0.8748964680532174    0.6886374393083301    0.8123437812431968 Hf
   0.8741547262785279    0.6875724904750320    0.3127644477460305 Hf
   0.8740848782557655    0.1874548760897756    0.3125520068491691 Hf
   0.3759043199743446    0.5614074211360466    0.6861207390389507 Hf
   0.1250758882183934    0.4366811677332710    0.9374045010568063 Hf
   0.3747519170487354    0.0628855290707116    0.6870518949336137 Hf
   0.6224725958569866    0.8130619876775468    0.5624583498583254 Hf
   0.6247940048037195    0.8123588776797041    0.0621084842189747 Hf
   0.6250799940566835    0.3130458664046298    0.5620938250894092 Hf
   0.6242693043043698    0.3115216197776792    0.0636593455603221 Hf
   0.1248512362879537    0.6881694044472340    0.6861623916463335 Hf
   0.1247707665592871    0.6883928706970269    0.1871445187675675 Hf
   0.1265458364749606    0.1873303859751185    0.6878588663710258 Hf
   0.1241781559918480    0.1869869861569838    0.1873903966684456 Hf
   0.8745837332281879    0.8121722960485054    0.1873994337702442 Hf
   0.8758592661653004    0.3116507922224503    0.6870341797163670 Hf
   0.8757414138223849    0.3117020215267070    0.1866780792262829 Hf
   0.3735625429034256    0.6873264812597547    0.5621976978749970 Hf
   0.3739401965500015    0.6882138507421789    0.0630977988468631 Hf
   0.3763668855534977    0.1874908823966754    0.5621906489226995 Hf
   0.3760347744665311    0.1870181569041549    0.0629646625259723 Hf
   0.6258551776887754    0.5620050720364876    0.8125080277643546 Hf
   0.6246688022885040    0.5614012924076497    0.3130990945915235 Hf
   0.6215272020195329    0.0636741880864953    0.8129794319089410 Hf
   0.6252384372243903    0.0638992871755658    0.3123386311478095 Hf
   0.1257759552496880    0.9386823939394221    0.9381689359731774 Hf
   0.1273501277040665    0.9375917279781243    0.4384615475312156 Hf
   0.8742405738645176    0.0639673427254332    0.9383790645517959 Hf
   0.1241407611221503    0.4367906517982548    0.4377203806874054 Hf
   0.8751727866778160    0.5619890576878744    0.9378572911468573 Hf
   0.8775077091806039    0.4365456044508076    0.0633137530846165 Hf
   0.8740126625057840    0.4367645279868272    0.5616980001472764 Hf
   0.8738519649276359    0.9382112178331162    0.0619736882835360 Hf
   0.8745390057362531    0.9377027850767644    0.5623563590447475 Hf
   0.3791586520629329    0.0636026928743154    0.1873297239507079 Hf
   0.3744495494307619    0.5618318670700641    0.1874184535146272 Hf
   0.8730863684015974    0.5620898492546836    0.4378132716129681 Hf
   0.3714939852451130    0.4350343771278488    0.0640448100036374 La
   0.8771497162586478    0.0641512779902915    0.6867281254998108 La
   0.1233870798765946    0.9394276865496578    0.1861751125626447 La
   0.3762098480797047    0.6873004564013252    0.3137222190346042 La
   0.1262524383188642    0.5600221478822883    0.3137442923927661 La
   0.1219002346529550    0.5614386020466600    0.8122759205547329 La
   0.8722315110818900    0.9394028489621690    0.3119498836093217 La
   0.8792884405944381    0.9382778442573653    0.8145271619109062 La
   0.8778716777372917    0.3126891061869618    0.9398355266097705 La
   0.1240769774345328    0.1886204302786947    0.4362237544148855 La
   0.6268049703701233    0.3116721506706457    0.3120072749434182 La
   0.8759574169920800    0.8115802330009749    0.4366720768122165 La
   0.6228468462570277    0.3115790048085973    0.8126404041383311 La
   0.6268493066595263    0.4381412938574493    0.4373874440724572 Nd
   0.8710027287753348    0.5588300994624460    0.6854974168171886 Nd
   0.1272754398407757    0.4363535249170513    0.6869484493564270 Nd
   0.8776039479297461    0.6872703758062931    0.5629847296383536 Nd
   0.3774699289244875    0.0629852407842381    0.4378669422218710 Nd
   0.3732744938983396    0.5623053827342422    0.9379128795622425 Nd
   0.1242820621412121    0.8127582430569358    0.0625312561402133 Nd
   0.1287819471940637    0.6867259408438698    0.4401252616294707 Nd
   0.1204818926178807    0.6880458388480146    0.9379137619308692 Nd
   0.1249204779462376    0.0643938874986954    0.3109946072394743 Nd
   0.6227008369876306    0.9376198187764697    0.4389747751880488 Nd
   0.6263030154575234    0.4380538721410627    0.9370996974894924 Nd
   0.4964677277603426    0.5006609887455387    0.3557671201123740 O
   0.5005435414038771    0.4995749028813175    0.8538973664413809 O
   0.7500845016874492    0.2680892814240128    0.1252791965884171 O
   0.7501606486776143    0.2693635087259570    0.6246274657888276 O
   0.7496922339542712    0.7697887481221573    0.1242346732124813 O
   0.7484288078919998    0.7717952344827268    0.6249492804078451 O
   0.0004356371584584    0.1459680664368256    0.2502197276883933 O
   0.0031494930787550    0.1452981965360481    0.7510814510556624 O
  -0.0016763730805832    0.6467227209310153    0.2489549412401772 O
   0.0010608656988584    0.6487750863988628    0.7502214992157094 O
   0.7493443446707579    0.3747675500738429    0.0233808870229409 O
   0.9613715566465245    0.8744753347083383    0.6242285328278008 O
   0.7512819552227457    0.8742167739729517    0.0192654571971481 O
   0.7482535554885771    0.8754224874813017    0.5224808678025813 O
   0.5393434380243951    0.3726654962160876    0.1272679991207551 O
   0.5400869358809206    0.3743678202711630    0.6249911672530949 O
   0.5429690946840419    0.8758330564740636    0.1238663222700461 O
   0.5355294286974485    0.8760759681010384    0.6244897961551659 O
   0.9646727528831270    0.3735784702106347    0.1243106577696023 O
   0.9608380270367992    0.3738589941494098    0.6239990497448293 O
   0.9561692955985178    0.8748273008197125    0.1240530514643600 O
   0.4971209224661727    0.0008737504366244    0.8564379310254809 O
   0.7536898490225699    0.3750923817918102    0.2286242376426104 O
   0.7506493247366419    0.3740966350195410    0.5195519975194844 O
   0.5015877893126658    0.0002888444037030    0.3537022110724727 O
   0.2135158557902976    0.0014088285262012   -0.0006678942706957 O
  -0.0028396849280162    0.4985936689616152    0.3962444789957367 O
   0.9643961390134211    0.1237703946158239    0.8746279370457223 O
   0.9544186166033637    0.6252074062382301    0.3757749532542330 O
   0.9560563805371330    0.6262864947737277    0.8756150239083058 O
   0.7502435268849245    0.1254118351487068    0.4830843798473509 O
   0.7478510658612336    0.1240577052369727    0.9829645454709303 O
   0.7474672217496342    0.6240373062351786    0.4807155476668292 O
   0.7498345791583856    0.6252235150110769    0.9794465786111229 O
   0.7522114598675450    0.2286828805378123    0.3764730014486800 O
   0.7502623971757387    0.2240430215551420    0.8757701366035830 O
   0.7480028977877534    0.7280069154765687    0.3750870319134447 O
   0.7513214175196797    0.7319893706159534    0.8756207572614957 O
   0.7870503924632302    0.0002101591675159   -0.0003023718246830 O
   0.7886159066752267    0.0007729832764143    0.5013066883486783 O
   0.7938391249107651    0.4994733073024127    0.0004691725441352 O
   0.7885517870715625    0.4997832044813698    0.5007082212230269 O
   0.7531456080838099    0.3755923783089323    0.7283782308697633 O
   0.2145630733347486   -0.0012486612060693    0.5015240478522476 O
   0.2060825887959147    0.5009665258971780   -0.0011217295567723 O
   0.2109956318736664    0.5007907866793441    0.4982694309349298 O
   0.0000640868952724    0.1067614340486304    0.0000337501382509 O
  -0.0007831790498832    0.1049498751081232    0.5017467037048301 O
  -0.0001079493333532    0.6054712688504006   -0.0001789434535068 O
  -0.0003648815236129    0.6035438398397737    0.5002347489489122 O
   0.0017423720009226    0.0007203755535760    0.3996321195152710 O
  -0.0013903109060430    0.0006326896611365    0.8982221194771495 O
  -0.0004507322647116    0.4998190311104040    0.8957494137906861 O
   0.7498068612990245    0.8755118185981363    0.2269456385917642 O
   0.2107557230820460    0.7509696396885562    0.2487025143716910 O
   0.7508265971218931    0.4789839770973756    0.1256016871344202 O
  -0.0041166698379144    0.4968900046121219    0.7499624613051161 O
   0.2542527357254508    0.1268210231883908    0.3727892636505329 O
   0.2504445382856108    0.1239171211181354    0.8759260715327328 O
   0.2548048192680451    0.6217362575103185    0.3784493533291705 O
   0.2526036817201848    0.6273816322098630    0.8737751768121397 O
   0.0071524160780799    0.2465187986484395    0.0030426375613201 O
  -0.0063927200434370    0.2532335115407711    0.5016918397518724 O
  -0.0079358746604581    0.7511724382053522    0.0000399668038587 O
   0.0066042692204706    0.7519005899437649    0.5032292430770682 O
   0.7585885022649731    0.3750306145147376    0.3753007012628904 O
   0.7531718359611920    0.3757590098139373    0.8740341390714248 O
  -0.0040976236422230    0.4954985740166565    0.2493166055096934 O
   0.7446221519555446    0.8741196500457894    0.3733248342701473 O
   0.5009772368008153    0.0034447558983595   -0.0004206131127369 O
   0.4999815484723845    0.0003765497384040    0.5047373886729034 O
   0.5030937287845849    0.5020070642599935    0.0021576209716963 O
   0.4956603253707121    0.5009433629428623    0.5005075802859947 O
   0.7477216113942322    0.1245487336304993    0.1245284541234755 O
   0.7443419052840029    0.1267355451339162    0.6225802412590393 O
   0.7520642269567883    0.6255007449843004    0.1253982888864933 O
   0.7428247345749287    0.6241552396151483    0.6243148085434150 O
   0.4957888811302075    0.2489754925352035    0.2469659062081993 O
   0.4946418542659648    0.2466448261967190    0.7477033865413295 O
   0.9571625442715092    0.1247254060723774    0.3751094193361847 O
   0.7484577847513697    0.8737086578361102    0.8783375541370886 O
   0.0105346688601327    0.0016667689017473    0.7518003428760522 O
  -0.0063017093282688    0.0045017506721369    0.2460124593168160 O
   0.2510350726571616    0.8757917651343315    0.6225155026332052 O
   0.7511828945807307    0.4776449936157325    0.6251283595661669 O
   0.7532667149082775    0.9832494567109369    0.1252163164277925 O
   0.7479513716317062    0.9801865789264148    0.6244776140174305 O
   0.7934687883166329    0.2494054420965328    0.2493978993726613 O
   0.7933640847919545    0.2488893848720522    0.7496088936479408 O
   0.7881496479624898    0.7507581860027467    0.2504046060645654 O
   0.7899445970428692    0.7510796248922242    0.7501038269497845 O
   0.2081487055817793    0.2502131601461349    0.2489045781496199 O
   0.2135415869799866    0.2494875463022960    0.7502601276245248 O
   0.2097647440623485    0.7500599097847108    0.7501990379507035 O
  -0.0000357681180160    0.3551565816323460    0.2494301518657117 O
   0.0004565953926182    0.3524743951275000    0.7500656998172669 O
   0.0000080525714594    0.8530627844324290    0.2493589161730948 O
  -0.0009653030974177    0.8536070467866306    0.7502543409882020 O
   0.0018350848374359    0.2497986287190868    0.1428667836899318 O
   0.0017213927995185    0.2492777173180060    0.6454694107140430 O
  -0.0015034128455248    0.7501193332140448    0.1438377862741918 O
  -0.0013851971659673    0.7500107033924666    0.6455536885735316 O
   0.4979341795513518    0.2496515934365893    0.1059592175353319 O
   0.5015188130048455    0.2496455343575510    0.6052768172966185 O
   0.4983593991994313    0.7514140186081033    0.1044510964404224 O
   0.4988835969397467    0.7498645247660783    0.6053309801242674 O
   0.2453899502459574    0.3695556828689296    0.1276166515641592 O
   0.2532795934799621    0.3720345791925331    0.6226190991051137 O
   0.2586417912771700    0.8759849002474697    0.1235004454464821 O
   0.7488788631632829    0.8756700664139975    0.7274549429759105 O
   0.5431342464598415    0.6253852781083605    0.8747990256336700 O
   0.0000398918597549    0.4990041931379132    0.6034928516252076 O
   0.5326830761292470    0.1244934568032979    0.8759650461114938 O
   0.2961800748592709    0.0011168503646637    0.2497464923768309 O
   0.2931979847684744    0.0011832910232425    0.7505613914226571 O
   0.2918008605660537    0.4994522947236888    0.2498539924006948 O
   0.2928678816830256    0.4992434773619035    0.7490169543292536 O
   0.7058398703423955    0.0016230982654467    0.2487800494277091 O
   0.7014377251141110    0.0003230400356998    0.7506963148926022 O
   0.7092346035892110    0.4975625944412799    0.2520342694610158 O
   0.7077132258060638    0.4994962594269976    0.7499195997826528 O
   0.5000249299427476    0.1072080071030479    0.2504411468688149 O
   0.4987427713339103    0.1057769604011348    0.7499264967316471 O
   0.5004344781666049    0.6035567266606576    0.2500055880713993 O
   0.2474666784300942    0.7326739500025150    0.6232920651967960 O
   0.5001594124794835    0.6040718444995035    0.7493794800573564 O
   0.4995702338989833    0.0010514944997005    0.6442764079479528 O
   0.5020043830219861    0.4998717867210462    0.1470720105084585 O
   0.5013355866325873    0.4998014333840221    0.6438204088379321 O
   0.0034927113771823   -0.0009245461491337    0.0991455125060688 O
   0.0009932460458519   -0.0005173427048277    0.6040155181751864 O
   0.0010452001316607    0.4996020169515170    0.1055106021491883 O
   0.5024961209688023    0.7527898626519557    0.2481252523161195 O
   0.2513692557708860    0.2727341733654151    0.3741024689916823 O
   0.2502270324256469    0.2674601524510883    0.8754241878976895 O
   0.2496826775280729    0.7718509027384364    0.3756755575632741 O
   0.2496578428234364    0.7716876999983334    0.8752491307801457 O
   0.5021857632124722    0.0010726108865183    0.1426748964036946 O
   0.4981042651559547    0.1424778708531410    0.0001762665295118 O
   0.2487255796699156    0.7312222067866130    0.1243947372930290 O
   0.2490630375625183    0.2291093736496381    0.1244444142131422 O
   0.2527433814771760    0.0237304157430157    0.1240664811325553 O
   0.2516305811616452    0.0195045488126471    0.6249421755345227 O
   0.2503604754257338    0.5209840527944369    0.1244584659951588 O
   0.2511496722449753    0.5185355647813452    0.6241466095398415 O
   0.4986617225433009    0.3940081049270324    0.2495813868333909 O
   0.4999002083503951    0.3944975330866459    0.7497135706867737 O
   0.5022473959094917    0.8953402328736719    0.2490667286564274 O
   0.4985405767167705    0.8966519720854216    0.7503494028257844 O
   0.2508055534589265    0.1254308303169319    0.0174802853590389 O
   0.2532147142060910    0.1240861887382714    0.5218381215950328 O
   0.2498912887170752    0.6255119109467263    0.0208566129117373 O
   0.2529115805112704    0.2294674986399159    0.6259576284383797 O
   0.2488553530340382    0.6251194659363681    0.5215634001907846 O
   0.0471394821966437    0.1238903716491306    0.6261243069025370 O
   0.0398716194968489    0.6261324809656570    0.1238773103954798 O
   0.0421344746673187    0.6244957849517574    0.6247837011038352 O
   0.4656049763169223    0.1251731084618319    0.1243948334003527 O
   0.4611574231744748    0.1251357583951133    0.6252495900470949 O
   0.4593752837807911    0.6250536135644681    0.1244443471004935 O
   0.4592563889046274    0.6245366778685317    0.6238866738371069 O
   0.2514308101345444    0.1254409245261637    0.2279194332216995 O
   0.2495702950372329    0.1240558473810918    0.7325679571324643 O
   0.2494804974104800    0.6252265054710558    0.2268245033492391 O
   0.2515048961806390    0.6254817048772932    0.7258839166204178 O
   0.0356477795827131    0.1237367696796075    0.1257225657972684 O
   0.5029768889330125    0.1444978370530645    0.5015269761850756 O
   0.4997637692198597    0.6486883277895279   -0.0001848467610105 O
   0.4963898684789058    0.6438017931569117    0.4995556840764798 O
   0.4987382247040142    0.3551940445698056    0.5010219463443848 O
   0.5011223459250405    0.8552399566308249   -0.0006637748071458 O
   0.4982043887302799    0.8567928126790664    0.5005255620048622 O
   0.4990454134690229    0.2494147640348238    0.3979355187088457 O
   0.4991411865222564    0.2490917522223015    0.8966620141246217 O
   0.4999792583430829    0.7506513636160230    0.3970265872020124 O
   0.5002247380928937    0.7505914199595809    0.8952369872361722 O
  -0.0021299882333963    0.2512230634543943    0.3543917238884281 O
   0.0014294723404463    0.2491736482026806    0.8546576665771265 O
   0.0012837764324694    0.7497594896342574    0.3525034379975581 O
  -0.0017619935929991    0.7514592611398379    0.8556885806597635 O
   0.5003678330853518    0.3524554504019024    0.0001888589560189 O
   0.7499055395944553    0.0230052576688105    0.3755333185042099 O
   0.7503209481794282    0.5191087784829416    0.3749630849701565 O
   0.7502169737035748    0.5208913364948067    0.8750591416341238 O
  -0.0000690350411195    0.3952618480171908   -0.0001393516691674 O
  -0.0022758915344966    0.3931604324066126    0.4987673977530503 O
  -0.0024199778526292    0.8954718558435112   -0.0013567855437416 O
   0.0014887188429403    0.8957650671712557    0.5011418092422257 O
   0.7526917635894935    0.1242206085387800    0.2674763416175497 O
   0.7485274057651935    0.1251203542827601    0.7709627758672976 O
   0.7496181516841871    0.6242564719497679    0.2705799115704746 O
   0.7505334451052436    0.6253650908559895    0.7713123357118695 O
   0.5430298460066203    0.1258059210213772    0.3751725015865789 O
   0.7477540794210703    0.0235123706819137    0.8758042646103210 O
   0.7038213451420738    0.7496111109448881    0.5010269529132484 O
   0.7116849331598936    0.7511808615265732   -0.0011016244010596 O
   0.7121340605860484    0.2504698192894477    0.5000812924415179 O
   0.2501101088944085    0.3745088639765645    0.2684242524926641 O
   0.2510325691217095    0.3742081162083232    0.7694691009534259 O
   0.2534308604334539    0.8745215064844610    0.2688385267372250 O
   0.2482633243172808    0.8759928898518980    0.7706578705972392 O
   0.0386766632419068    0.3755326278285734    0.3740204126579081 O
   0.0437568435171766    0.3755734519360786    0.8732915970295275 O
   0.0467636571677927    0.8753008946222193    0.3751354293813701 O
   0.0444096774311797    0.8754385878117213    0.8754557970787722 O
   0.4580839119457816    0.3755144148368170    0.3759002079148364 O
   0.4556613739268311    0.3748313090632794    0.8756758283721703 O
   0.4597136215769864    0.8744790799384233    0.3741727505067715 O
   0.4569432875435113    0.8758590689735962    0.8754752893917062 O
   0.2483274283353725    0.3747768087009709    0.4813012058858518 O
   0.2481762470585932    0.3738529870110737    0.9794552503318823 O
   0.2490559489568393    0.8741292004006412    0.4835385196005235 O
   0.2503297378009156    0.8756452073647043    0.9792354050607883 O
   0.2500191679494725    0.4773806115617835    0.3755059706569027 O
   0.2514579927150986    0.4789519941785176    0.8752127511947190 O
   0.2521107677071283    0.9779466047652114    0.3753543918974835 O
   0.2455001384036303    0.9819034644620972    0.8733765880421608 O
   0.2895087268614926    0.2499633575307625    0.0014553841200331 O
   0.2912888791822924    0.2504536427812967    0.5011124372878513 O
   0.2904170712401961    0.7505738255647451   -0.0000658119160022 O
   0.2919833632690508    0.7501730260980093    0.4999868280524175 O
   0.7055918217696641    0.2486541817677688    0.0010529305908088 O
   0.5417432021646892    0.6232584840848944    0.3764406196745272 O
   0.5002466533037545    0.7507010291074472    0.7493330833636361 O
