La13 Yb12 Ce64 Nd13 Gd13 Er13 O224
1.0
  10.9828995347260836   -0.0012947526153705   -0.0064139918077354
  -0.0025895931389761   21.9651892491059968    0.0009643617903727
  -0.0128284323818336    0.0009640476752223   21.9662687617957459
Ce Er Gd La Nd O Yb
64 13 13 13 13 224 12
direct
   0.8750541867774135    0.3105272551712764    0.1866340395562368 Ce
   0.1292613736148653    0.0608721872547221    0.5613752706498636 Ce
   0.1236833688914662    0.0625252754448890    0.0607827678297919 Ce
   0.6231509921609177    0.9375845441080661    0.6878440308060858 Ce
   0.6251565744272984    0.9347813157112349    0.1899696227167951 Ce
   0.6289968637402716    0.4397251588696959    0.6872219621178476 Ce
   0.6251682324623916    0.4383669305418606    0.1864461228484944 Ce
   0.3758475151439347    0.5635161239857163    0.6871760553142858 Ce
   0.3759143302373432    0.5649255416119987    0.1880450003629569 Ce
   0.3784095526027629    0.0613475136760961    0.6857348382079383 Ce
   0.3720091475204789    0.0605989327187041    0.1885218683180538 Ce
   0.8735123849940463    0.9373121469928675    0.5611076501984050 Ce
   0.8770289657299194    0.9356550613312203    0.0627663867685052 Ce
   0.8744332958459007    0.4401962264812437    0.5643313293640083 Ce
   0.8743432230494996    0.4380475756252466    0.0625733193910479 Ce
   0.8763526233224439    0.5633792369674868    0.9362860680532166 Ce
   0.1253517680578123    0.4386176064949016    0.4387338769196550 Ce
   0.1244962619669154    0.4387706549405366    0.9365079058001543 Ce
   0.8753092924801156    0.0626183570121330    0.9364186835059276 Ce
   0.1287799016048013    0.9357397635286591    0.4391425542480740 Ce
   0.1220266068433232    0.5655069707815076    0.0627113146284066 Ce
   0.1228457276309076    0.9371968127234852    0.9364786434508063 Ce
   0.1224727668838704    0.5630694449772304    0.5649359271321258 Ce
   0.8747322982345815    0.1880599650274097    0.8119435439293303 Ce
   0.8734419605211530    0.0600874144052273    0.4390400710784761 Ce
   0.3770033857241236    0.9363762212811446    0.8128887152177093 Ce
   0.3789629732669386    0.9354169958758635    0.3134596281816778 Ce
   0.3739790449859330    0.4383226831760282    0.8106992659823978 Ce
   0.3763685327931851    0.4379571736866151    0.3136110533183655 Ce
   0.1216225323377422    0.8147128412130288    0.8114125091049000 Ce
   0.1277213729372045    0.8126320787594683    0.3127398814318585 Ce
   0.1268437533469726    0.3121958002080011    0.8108976298383133 Ce
   0.1267242354574712    0.3105556439491630    0.3139954334745037 Ce
   0.6262780837141211    0.6900737265517382    0.9362349374120722 Ce
   0.6243858022494477    0.6886095348165668    0.4376838512746810 Ce
   0.6204225460067618    0.1867989844105578    0.9361212755836820 Ce
   0.6240507212043312    0.1839205974594205    0.4394299508365819 Ce
   0.3757073471079669    0.8126526797761302    0.9362771308294455 Ce
   0.3795188621848254    0.8128983330258166    0.4373098204821327 Ce
   0.3729837971168943    0.3116912478586112    0.9356302050177429 Ce
   0.3730374185235739    0.3114563758173388    0.4385236725090078 Ce
   0.8724186976296744    0.6889066119171108    0.8108506140255267 Ce
   0.8720304508167744    0.6887526493292623    0.3121999666665233 Ce
   0.8766168671610524    0.1853071777524127    0.3144144602180025 Ce
   0.6252645757678701    0.0591982624118999    0.3153682809752680 Ce
   0.8706642006885501    0.5644064703214948    0.4391920625588151 Ce
   0.3763743934581403    0.1858058077423693    0.5616124049105393 Ce
   0.6243324815124665    0.3117073003738308    0.0615222232244381 Ce
   0.6272380775898940    0.5640011707573924    0.8108605924262456 Ce
   0.1213041926991765    0.6879066766562523    0.6878210567791916 Ce
   0.3706204422618974    0.1864556271392066    0.0600337849620071 Ce
   0.6257320717831194    0.3113469721722805    0.5643112304304699 Ce
   0.1245054467733918    0.6893030687958129    0.1878849993121910 Ce
   0.1298969388564091    0.1871880988437684    0.6874678298717167 Ce
   0.8711797971604592    0.8144963972988141    0.6875886384380006 Ce
   0.1226052730982658    0.1868309108204570    0.1862508859931248 Ce
   0.6276968641404496    0.8116454212582801    0.0628386279363550 Ce
   0.6236579131727131    0.8137594308548749    0.5624017680146138 Ce
   0.3784276941054747    0.6875646448624428    0.5639508636351407 Ce
   0.6236987972887293    0.0631593432460485    0.8122330134012697 Ce
   0.8769700223756739    0.3132504161693128    0.6872461635976487 Ce
   0.8756364651964585    0.8139247832554828    0.1897046687048063 Ce
   0.3738701700018511    0.6898039340645420    0.0628184569794400 Ce
   0.6225840689922250    0.5643028825081496    0.3119827677863630 Ce
   0.1335811286550649    0.1851180843055518    0.9361935089852877 Er
   0.1269839340554665    0.9388191069386871    0.6844083270845006 Er
   0.6193901763255307    0.0577219306087022    0.5592816793943375 Er
   0.1195441140367257    0.4374379737282450    0.6868801913554980 Er
   0.6281988768290722    0.6885960918184156    0.6845753109368198 Er
   0.6132376986524910    0.1821657958118801    0.6859277316425549 Er
   0.3729711322385498    0.8131182124288007    0.1946141727316107 Er
   0.8715043375825362    0.5645527637187138    0.6849296768932011 Er
   0.6298282779964840    0.4437090097575515    0.4406932515937009 Er
   0.8774384633391281    0.6931776059855435    0.0679451952812848 Er
   0.8836328858028266    0.1836336040232513    0.0603189907563069 Er
   0.6312890201428314    0.8141520419303137    0.8099062730122073 Er
   0.3785880254282654    0.0564281073790317    0.4400037083733712 Er
   0.1232386429633017    0.3086414787451559    0.0609142838373763 Gd
   0.1222629893370702    0.8137992884696659    0.0665650445183395 Gd
   0.3724424052977002    0.1825305687378962    0.3178840128638141 Gd
   0.3735931827772773    0.3092170083851538    0.6884550987222654 Gd
   0.1284279420364267    0.3103116397178578    0.5638376441632565 Gd
   0.6263172390077373    0.9377996642092080    0.9323787106050937 Gd
   0.8667555868521722    0.6885406582215630    0.5627980273808718 Gd
   0.1224652993647116    0.5625051176571624    0.8086952999390257 Gd
   0.8779571907850877    0.4396033791707955    0.8092583726740282 Gd
   0.6270135655915248    0.4383965003966960    0.9348573276902752 Gd
   0.8677365586535681    0.8164026478214015    0.4332660269901863 Gd
   0.8730156909049093    0.8156727894537179    0.9365692705048727 Gd
   0.6232758606529820    0.6911829991183249    0.1922385305586518 Gd
   0.3776977593202651    0.4378884987630348    0.5634023320897705 La
   0.3721464158400906    0.9360900454174773    0.0631901231974207 La
   0.8740821781604493    0.0604285554142851    0.6874103244957422 La
   0.6252667920283866    0.1849277582400702    0.1876383191014462 La
   0.1242558332324334    0.0584647665298300    0.3145263483705250 La
   0.6226511406354688    0.3119489854637013    0.3147234410328946 La
   0.6307672482407299    0.5662792375605286    0.0636075978971227 La
   0.8756326704289464    0.3115618096618862    0.9369740663162590 La
   0.8784913470349848    0.3113294255831299    0.4404722904406974 La
   0.8732570191917166    0.4401767207669299    0.3124747146143952 La
   0.1299049230931373    0.0619318221551489    0.8129222346315144 La
   0.1223060605457136    0.4391641237954249    0.1871252623529912 La
   0.6237012789915684    0.0604322704827341    0.0598075294884510 La
   0.3751147027369407    0.4374895477148302    0.0607053098451063 Nd
   0.1254666785897997    0.8138815811901225    0.5627220686811264 Nd
   0.8767416176169580    0.0572375734036449    0.1891995223156617 Nd
   0.8750268163453233    0.1846631888686575    0.5632646300643380 Nd
   0.3719899603773652    0.3110576289046546    0.1872396851462112 Nd
   0.6218617049414262    0.3110477746612993    0.8101609957857449 Nd
   0.3762988186097394    0.8141787977027120    0.6869495356984484 Nd
   0.1253182978096367    0.5668250865492320    0.3120137687721091 Nd
   0.1210016512725953    0.6898996543910515    0.9376144943354653 Nd
   0.1262972056084897    0.6900722892046602    0.4371404619871924 Nd
   0.3737460472666814    0.5642011106088952    0.9359896729149253 Nd
   0.3798543053634337    0.5646762982067574    0.4378920850432447 Nd
   0.3769582947036358    0.6891668733475897    0.8105735542683463 Nd
   0.7470704848558434    0.7591482391858365    0.6260350046035548 O
   0.7552546564469700    0.7625497437042112    0.1240560562821399 O
   0.7516792839494103    0.2612780783365495    0.6267612433763069 O
   0.7483648984365057    0.2628597950433081    0.1245475417239863 O
   0.5029734168282408    0.4984643773866004    0.3655340551056207 O
  -0.0021476907002418    0.1380169330796186    0.2483384040688624 O
   0.5010039951215228   -0.0006973322063023    0.8609899867382432 O
   0.4972193884118959    0.0003344663278318    0.3662117735634987 O
   0.0012141210387100    0.5014474946949665    0.8831863530161183 O
  -0.0012307620187405    0.5012356423705945    0.3906550184533960 O
  -0.0003756004925777    0.0005141253313776    0.8880494573325225 O
   0.5017903723099284    0.5005893516978231    0.8588628435363100 O
   0.0015640169892030    0.1400150840822756    0.7499191688106808 O
   0.7461815141525592    0.8721321429400175    0.8741975421745121 O
  -0.0029439091300579    0.6349508704544328    0.7497365716705245 O
   0.7461220561197713    0.3764365004900540    0.0118005951411546 O
   0.0020417340796588   -0.0014568116774183    0.3934101081616355 O
   0.7494429970507647    0.3761420421286636    0.5178180912238333 O
   0.7510659050527630    0.8740547916246845    0.0095931252110481 O
   0.7524867306884718    0.8736426166759154    0.5139671800748730 O
   0.5241151884698202    0.3753379052341336    0.1236356338642124 O
   0.5287308440518429    0.3742268686601964    0.6265437307182081 O
   0.5283416272811663    0.8733745705005592    0.1252508549137016 O
   0.5249905870758103    0.8753286322598610    0.6261051758610368 O
   0.9719716776788659    0.3739651316328890    0.1242739301758569 O
   0.9768242570894252    0.3771243486925390    0.6260896345942224 O
   0.0004020718775452    0.6404548882886838    0.2504071756071255 O
  -0.0003707318351959    0.6104885797929767    0.5012586837131308 O
   0.2183273623421224    0.0004370040525791   -0.0009884139894523 O
  -0.0006885735645839    0.1101386282305969    0.5013361628165334 O
   0.7479313612059053    0.6271381928419199    0.7594612992634497 O
   0.5225582441330975    0.1240955397317242    0.3762544340542675 O
   0.5258102775114144    0.1250700370428551    0.8738960490880877 O
   0.5273290295396005    0.6240866460636512    0.3760753978055957 O
   0.5273718993312829    0.6252993526387642    0.8743739391467470 O
   0.9724987953680064    0.1234230032093812    0.3757785086501593 O
   0.9758384772953038    0.1272228689382259    0.8760087609304279 O
   0.9718840551598633    0.6256719589201359    0.3755870613487248 O
   0.9710563747061232    0.6266270297107818    0.8737627270121604 O
   0.7481261178896466    0.1234795475604689    0.4907334165062657 O
   0.7501176121038408    0.1257538788837083    0.9854793383360068 O
   0.7510436005020534    0.6263611189256652    0.4916896188100016 O
  -0.0020964221308816    0.6149802689646614   -0.0005142778657652 O
   0.7486807042444052    0.6247843582512653    0.9822570547176785 O
   0.7475301625274151    0.2373694068343441    0.8739664814217305 O
   0.7519851309485864    0.7368715924511848    0.3765201325789054 O
   0.7482252074066125    0.7405530756863561    0.8727498612354351 O
   0.7804148707204386   -0.0008732484523652   -0.0005236746140062 O
   0.7672677538720302    0.0008451849447208    0.5031246194505203 O
   0.7794429180173229    0.4993757568288132   -0.0024028818392440 O
   0.7728966089529815    0.4977750324260722    0.4981897732930452 O
   0.9777773540706947    0.8742684130467515    0.1251214475272079 O
   0.2336616707454605    0.0013267868743021    0.4986064773998871 O
   0.2225100674060125    0.5012950702695531   -0.0006225839801802 O
   0.2225481342415513    0.5010704202154026    0.5013976208833820 O
  -0.0037216327176980    0.1161245083961327    0.0002369703919579 O
   0.7487312249507423    0.2344861626907699    0.3767110813498298 O
   0.9741892713761148    0.8762416379959388    0.6260004911624701 O
   0.7530197675746559    0.4926297435537546    0.6263859710431453 O
   0.7535716826957813    0.3772994037584067    0.7369680207868458 O
   0.0003428462855792   -0.0017530236773568    0.2505712853181880 O
   0.0076823542144152   -0.0033403308352226    0.7460720037560257 O
  -0.0012466785311662    0.5016866930471061    0.2499741420090641 O
   0.0003455324391120    0.5002646422930411    0.7477061066748331 O
   0.2598381588200854    0.1223639803475823    0.3776163984227934 O
   0.2457528262003758    0.1277683229466750    0.8768035376949933 O
   0.2503150589208026    0.6258284850211074    0.3761270754682237 O
   0.2456109313798596    0.6247061599058853    0.8719071740763056 O
   0.0021065620674539    0.2467717862664796    0.0004962321807949 O
   0.0045049836182157    0.2514539243838502    0.5041986596157850 O
  -0.0046242677900548    0.7507815225819503    0.0018266140840730 O
  -0.0037427900027996    0.7471496108497150    0.5039125168804353 O
   0.7434902320007671    0.3785456024109333    0.3795759472121703 O
   0.7497287509991764    0.3789612985177081    0.8731538205193780 O
   0.5041911344165624    0.2494185486112018    0.7446007910688889 O
   0.4948879546455340    0.2474999538041739    0.2522830463334489 O
   0.7523383660768954    0.6269266878349256    0.6301865316354738 O
   0.7537558241095154    0.6311824043435801    0.1218646440249627 O
   0.7399721299995882    0.1240268049593945    0.6252337638938597 O
   0.7475991524675457    0.6257400649418466    0.2617286206101018 O
   0.7567115239676772    0.1266746533302394    0.1213467140387400 O
   0.5060191978391774    0.4981193202399313    0.4991802551379821 O
   0.5026398269870500    0.4987967618318483   -0.0039545063670553 O
   0.5002729900961933    0.0039617382638750    0.5004042665630265 O
   0.5043662969751803   -0.0037492225477744   -0.0032091231515219 O
   0.2446135980768213    0.8764348713862569    0.6280700951450429 O
   0.2517677117689203    0.8696328996322710    0.1261337717033003 O
   0.2439443409787413    0.3748733745811103    0.6292586827930916 O
   0.2467729142179519    0.3729909849290846    0.1220325477561792 O
   0.7519629324843640    0.8747316694657166    0.2381173822528363 O
   0.7447272967388890    0.8735687628315603    0.7400241614132549 O
   0.7501587278710092    0.4880849845015970    0.1245762856434207 O
   0.7535204953853999    0.8723622293913529    0.3779552804826233 O
   0.7506114985147873    0.9837906876269478    0.1258334586116494 O
   0.7495601391173899    0.9852705849009529    0.6251436436105470 O
   0.7785636859109553    0.2489822943356668    0.2505760298521342 O
   0.7800057626603045    0.2531309222606530    0.7514397750260360 O
   0.7726118630137366    0.7494575327774372    0.2492251821102901 O
   0.7710034045440952    0.7510540804730684    0.7497512394763086 O
   0.2200454872139279    0.2504333852787105    0.2478497667818404 O
   0.2293578054029631    0.2511592399617895    0.7487575078812535 O
   0.7504616025057166    0.3743929794336893    0.2350847931914513 O
   0.2308778155330759    0.7517018794287852    0.2483177044681769 O
   0.0004748751139463    0.3587240246174045    0.2497466678635099 O
   0.0041060931738015    0.3668298639771601    0.7483092708193115 O
   0.0027826219225601    0.8595175032041443    0.2504785110754167 O
  -0.0007931211626668    0.8614850018683546    0.7484268971452563 O
  -0.0031423898333375    0.2482870362147798    0.1323618973063441 O
   0.0043637368705071    0.2515530798634339    0.6390043512474015 O
  -0.0017463670173510    0.7501984443664526    0.1344302609101051 O
  -0.0025206894615304    0.7508045611585382    0.6403814796945387 O
   0.4953426910847343    0.2504371694573368    0.1102579356975663 O
   0.5020908482939195    0.2478239637111024    0.6136633047542190 O
   0.5015068334041006    0.7501093362897522    0.1115052982387178 O
   0.5013341049064028    0.7498470334203463    0.6154871555712180 O
   0.2244155132629206    0.7500406511892891    0.7501542768310406 O
   0.7474726261131632    0.1276194642865767    0.7614093588151216 O
   0.0001546164268937    0.5004833571412437    0.6184737037222837 O
  -0.0005018783205108    0.8860977711899279    0.5004084658354673 O
   0.2484313276269591    0.7361630556586605    0.6256607717972574 O
   0.2797688995983351   -0.0016444154748962    0.2508606226513387 O
   0.2836504744533669   -0.0015217820201094    0.7487621139496329 O
   0.2795225095123948    0.5014826551936807    0.2512187119103976 O
   0.2686646773573421    0.5005663366034980    0.7495007671775989 O
   0.7217719105056258   -0.0009725467188141    0.2507705458198857 O
   0.7214543686371161    0.0000837530447055    0.7499876745165773 O
   0.7173315942327905    0.4997138927880154    0.2507326627616258 O
   0.7343136092389170    0.5027216842794843    0.7491258774107249 O
   0.4981977189577109    0.1090042420429374    0.2518786277643741 O
   0.2492013627934987    0.7383391421197080    0.1246401654946680 O
   0.5040218263500519    0.1141153205842147    0.7469007619968885 O
   0.4992563711788040    0.6134410457556381    0.7500534495022433 O
   0.4996050041429370   -0.0009177877701703    0.1394542120515085 O
   0.5053470776577620    0.0018635360755925    0.6345435432623023 O
   0.4981086962036597    0.5002484488262644    0.1373640780297443 O
   0.5000967863967698    0.5002712188662010    0.6402854635276610 O
  -0.0034003345768470    0.0011205381629959    0.1093435278140411 O
   0.7500785798539746    0.1232304282670291    0.2645165941151483 O
   0.0002922777462057    0.5006813151116318    0.1092202340045065 O
   0.4993072439415057    0.7512119015236420    0.2453145800834203 O
   0.2530719821981685    0.2597538760569737    0.3742725574704407 O
   0.4997680278676321    0.6150422471181012    0.2499063148396905 O
   0.2527869594930556    0.2391122564530014    0.6244349765394200 O
   0.2463335670954942    0.2378249341519268    0.1231890848632160 O
   0.2477370315391362    0.6250914848777762    0.7362285830378147 O
   0.2477198176681548    0.0143490488823017    0.1241895281043718 O
   0.2464562095946527    0.0108096958501936    0.6276328537815602 O
   0.2501811033496092    0.5150228165837744    0.1243371836727785 O
   0.2474729266420520    0.5123275769071464    0.6269082229487433 O
   0.4992272840795454    0.3881000714804003    0.2492315455577663 O
   0.5023477429767240    0.3892363416780460    0.7498464899969706 O
   0.4968559783358951    0.8836769697863982    0.2489033779733979 O
   0.5010014144883990    0.8841578845895297    0.7511741992671576 O
   0.2430396508013803    0.1279002759586509    0.0091931162445614 O
   0.2533090084576252    0.1241444923574960    0.5134092602253481 O
   0.2496324656051580    0.6260276344657862    0.0113491801868029 O
   0.2493933515840164    0.6248489069500041    0.5169707938955178 O
   0.0224889895371166    0.1262962583771020    0.1226300898707902 O
   0.0286852868699302    0.1254165078298805    0.6245054733123141 O
   0.0225183077186723    0.6284337767259353    0.1234357985134620 O
   0.0172240814664777    0.6247577809092505    0.6265911181095187 O
   0.4680792584849098    0.1249216508763725    0.1243787406168235 O
   0.4795291878577463    0.1258980088831380    0.6252245407804514 O
   0.4736903403808801    0.6263553582385266    0.1247112094981089 O
   0.4809383136150964    0.6268113474391439    0.6278067264419810 O
   0.2493509314925850    0.1261685792692851    0.2375832500069288 O
   0.2530125937550848    0.1245104883572724    0.7345759310076097 O
   0.2465297882007930    0.6248022431328669    0.2353264672638235 O
   0.2451411594838103    0.2626738491295126    0.8758614623191057 O
   0.2500160017950567    0.7637303118064559    0.3760599902751759 O
   0.0039774591758949   -0.0022714571440687    0.6109514636741816 O
   0.4957937879470855    0.1375281233879706   -0.0014303567879970 O
   0.7249836139330333    0.2488448219156266    0.0002997052534824 O
   0.7231562441567150    0.2481965718376571    0.5018921302010835 O
   0.7297350043479502    0.7482898841234304    0.0008693563200217 O
   0.7236222059334089    0.7504938494174993    0.5008813578980544 O
   0.2484899434157059    0.7643674986006810    0.8740688624385967 O
   0.5030637617745425    0.3611747303845783    0.4995646689972538 O
   0.5008508361352304    0.8579744220050737   -0.0006851022656385 O
   0.5020688623813233    0.8615385950255959    0.5007681467964920 O
   0.4989792426807041    0.2477179520356081    0.3913822271554140 O
   0.4980497075143065    0.2508691868607160    0.8854924050760236 O
   0.5012109532805367    0.7493632561081778    0.3884640084092403 O
   0.5000100342886291    0.7505610767459766    0.8846904768622627 O
  -0.0004144423694867    0.2496678552953791    0.3625577751902377 O
   0.0013614681696095    0.2505132653904958    0.8609694833325243 O
  -0.0001309119190702    0.7503245480442295    0.3630254446654594 O
  -0.0016814336156729    0.7502678540170677    0.8612540088072845 O
   0.7510809335287458    0.0121689762378839    0.3762029101019715 O
   0.7472533993908036    0.0126507258050486    0.8759556073797562 O
   0.7458786819747342    0.5137568763614295    0.3772209240319052 O
   0.7492758319811265    0.5133050808647212    0.8741420560134717 O
   0.0013008374624511    0.3874078097106074   -0.0002397743914615 O
  -0.0001116886808615    0.3906020031521239    0.5018560225753337 O
   0.0006845455292737    0.8850496065980342   -0.0001264250346105 O
   0.2774838687467122    0.7493852817970441    0.5010263804540874 O
   0.2736190914171595    0.7505869680076522   -0.0010907178195771 O
   0.4991233843734718    0.3607892572154388   -0.0013761619161004 O
   0.2681039762772494    0.2500632081354444   -0.0015810187932498 O
   0.5005610065405256    0.1321145180034322    0.5010655023746950 O
   0.4984846709067769    0.6415557214229534   -0.0015027702885068 O
   0.4985900103105707    0.6382843462135610    0.5005831900451767 O
   0.2515381621981048    0.3745531128508734    0.2639251373779473 O
   0.2512081402932413    0.3752625772469274    0.7616314785672552 O
   0.2768348198991996    0.2495699857523160    0.5012991611586689 O
   0.2468592849184060    0.8765432489154794    0.7618098766660417 O
   0.0301701412765023    0.3753139998087626    0.3757801066581166 O
   0.0283007680819757    0.3765159582070504    0.8728950806577034 O
   0.0278363159543371    0.8740667368818308    0.3761478665609709 O
   0.0195528349731356    0.8742765571150258    0.8750429902256190 O
   0.2547094135803276    0.8731840816509897    0.2616189512850831 O
   0.4724749014585257    0.3763828079958463    0.8746681642312489 O
   0.4694990771483660    0.3739331202350275    0.3754154342327923 O
   0.2512142433322984    0.9844457907382966    0.8743998155354612 O
   0.2543096816434795    0.9853364163770701    0.3767009567561841 O
   0.2514703444980566    0.4880991549862795    0.8746904075934927 O
   0.2505740230815540    0.4872324233436747    0.3757680159225900 O
   0.5101105605428461    0.7499676101165511    0.7495641823994650 O
   0.2505389460090065    0.8741009717455211    0.4890270622340911 O
   0.2503195983138108    0.3761705737549049    0.9850888518019766 O
   0.2474724970649174    0.3737163358028860    0.4893160844435210 O
   0.4823226205890026    0.8746400703028658    0.8745833125812108 O
   0.4759777045059074    0.8746230612903466    0.3750038948998673 O
   0.2498378509862500    0.8746328010885124    0.9858034322106632 O
   0.3785729555322363    0.9379255738946377    0.5608947731001108 Yb
   0.1243959761961726    0.9333416619821120    0.1914034679514787 Yb
   0.3772683160202842    0.1858562492952309    0.8122491714296587 Yb
   0.3781459493434123    0.6915547169455516    0.3127918682018165 Yb
   0.3760664082599022    0.0633602497369131    0.9346176287136941 Yb
   0.8745763489946022    0.9357191713602665    0.8115858576038725 Yb
   0.8731842496752940    0.9340875366333352    0.3140590485092409 Yb
   0.6234547482895612    0.9364479305449165    0.4372191313455551 Yb
   0.6239568725796063    0.8135511296090244    0.3134885793663975 Yb
   0.6271529039308231    0.5653734777228957    0.5645175360863796 Yb
   0.1300524738836111    0.1842094788635120    0.4402300791036064 Yb
   0.8753937309701242    0.5679944659975151    0.1871639231342873 Yb
