La9 Ce10 Pr9 Nd9 Sm9 Eu9 Gd9 Hf32 Zr32 O224
1.0
  10.7086384106594643    0.0006566376154553   -0.0010217908044463
   0.0013132292779304   21.4206035917860227   -0.0052372559883071
  -0.0020436548127470   -0.0052371996420325   21.4183707780515604
Ce Eu Gd Hf La Nd O Pr Sm Zr
10 9 9 32 9 9 224 9 9 32
direct
   0.8731234345563744    0.6873933532462647    0.5634718527930543 Ce
   0.8773269887389379    0.0622509077618753    0.1869243891634027 Ce
   0.6280377481367559    0.4396033821562779    0.4381955233021315 Ce
   0.8766976760853497    0.8117757028204799    0.4384074065833167 Ce
   0.6247223114480838    0.0624519211177260    0.0603861031691612 Ce
   0.1231764018909561    0.9362830092803236    0.6875337673629884 Ce
   0.1217904470252141    0.4361843570788904    0.1878987707174163 Ce
   0.1303641987335023    0.0626704861127506    0.3119155266185938 Ce
   0.3765492611515929    0.4370660695220903    0.5635189038784240 Ce
   0.3714893085340294    0.9389203399616400    0.5623853226597642 Ce
   0.1272675159873654    0.4363377524747785    0.6883485460566792 Eu
   0.1290963134000084    0.9373911354970274    0.1875978701113193 Eu
   0.6270471241052691    0.5628629607328154    0.0622669666353642 Eu
   0.1263113071519494    0.3132589680508533    0.0615047824916081 Eu
   0.8731130754281158    0.0628399177317465    0.6874976030738605 Eu
   0.3753559972275926    0.1871392124260082    0.3115089264205969 Eu
   0.6265185155310925    0.3137082821138797    0.8112866848679556 Eu
   0.3748096580744020    0.0633598348051764    0.9375123035755065 Eu
   0.3729156953574833    0.3114762843744148    0.1886173501884428 Eu
   0.3714534379906869    0.8098241302277229    0.1856507761971426 Gd
   0.6219624035442477    0.5634166853775909    0.5637558655987031 Gd
   0.8676381743018143    0.6857479542183748    0.0571762282447148 Gd
   0.8732377353055445    0.9381505732581924    0.8126491391158213 Gd
   0.8889077185293233    0.4308460297469704    0.8126887012663933 Gd
   0.8733833294871578    0.4363993359295809    0.3109459434349408 Gd
   0.6218301636195374    0.6863589760442148    0.6884831554955938 Gd
   0.1251219346247171    0.8116115501304345    0.5642937448455928 Gd
   0.3816439854167622    0.0660295714534542    0.4383987096525014 Gd
   0.3744959590151946    0.9375121691847702    0.3130152248375658 Hf
   0.1261864091186811    0.8118426877502928    0.3124727983971093 Hf
   0.1279431967326307    0.3116663642611645    0.8124916316812694 Hf
   0.6238452005442805    0.3119016404688753    0.5623414896980098 Hf
   0.6253087150350840    0.5623967531116018    0.3126889573953446 Hf
   0.8728787447583136    0.4369018958936338    0.5626161771091971 Hf
   0.6239033711284310    0.3119531878935380    0.0628368788344104 Hf
   0.1248864181808741    0.6889207399226492    0.6867028269930047 Hf
   0.3751340115729834    0.0622180052559734    0.1875795651451685 Hf
   0.6240294369248125    0.5636798208382923    0.8112360140119045 Hf
   0.3758811292497368    0.0622178730469642    0.6862649748791727 Hf
   0.3733338032880935    0.5626286221311222    0.1881962565824220 Hf
   0.1230481592772286    0.6877369680474202    0.1879343885165094 Hf
   0.3733828159264610    0.8121907969055083    0.4383101238348127 Hf
   0.8736532256350540    0.0629395512615380    0.4373103125285985 Hf
   0.6245944647770667    0.9378495320392491    0.1880581754959808 Hf
   0.3753152024172164    0.1865600921599293    0.0623666116803916 Hf
   0.1247614164423396    0.1863640377840650    0.1886013473456319 Hf
   0.8745712219826501    0.8117230807874913    0.6865335466051560 Hf
   0.8744579709616078    0.8112674480262373    0.1880579941547476 Hf
   0.6251413262917331    0.1878708435200591    0.9384151487886083 Hf
   0.3761100523362186    0.4370083718465593    0.8118037320002321 Hf
   0.8752647590611368    0.1864409568989847    0.3130156223915565 Hf
   0.3746956528384409    0.6879660067228696    0.5631177697094155 Hf
   0.8746426956123725    0.6885762505398706    0.3130642680307421 Hf
   0.6249565658659381    0.1868663125177789    0.4385129752194392 Hf
   0.8733394302624183    0.6881053226825177    0.8115962040766952 Hf
   0.3763238647357616    0.3133963702420924    0.4396798239019342 Hf
   0.3765679263592962    0.1880303363893288    0.5629226912617658 Hf
   0.6237598089886329    0.4376738604194503    0.6862380216107677 Hf
   0.8750909778598815    0.5622181631115906    0.9353222492192828 Hf
   0.6236496351948567    0.8121156657305726    0.5630451014546937 Hf
   0.3791403847487057    0.1881851838730814    0.8136895129181724 La
   0.8703340561950884    0.5605805514126102    0.6881501617265973 La
   0.3773778675341804    0.5634190097655423    0.9369816821341279 La
   0.1271884517896102    0.1890120625430099    0.4379970083777384 La
   0.8768988178996392    0.1890310995094024    0.0624223624381030 La
   0.1226399894171646    0.6881269135256299    0.9360983190316846 La
   0.8774458927758300    0.9364040656609651    0.3118505863571324 La
   0.6237528178232566    0.9380201349447000    0.4384124293624723 La
   0.6286210912722913    0.4380363907357190    0.9358696098192788 La
   0.3716760982385878    0.6869734899657333    0.3102624540351635 Nd
   0.3744835564528571    0.5628899036152922    0.4377511094734570 Nd
   0.1270483606212372    0.6881855181093719    0.4380643018969838 Nd
   0.6239300548887641    0.6889249404397232    0.1850264851183165 Nd
   0.8754236560691206    0.3135209913081856    0.4388077594153070 Nd
   0.8776110521317022    0.3111813224708291    0.9362455957333538 Nd
   0.1251453035135425    0.5619567490440782    0.3129413678321961 Nd
   0.6241776379555353    0.9370275979821689    0.9348058668907525 Nd
   0.8739515657557716    0.1878413466842771    0.5633726300978693 Nd
   0.0009752851625443    0.0001341779704079    0.3964374850437841 O
   0.2186021614103751   -0.0011448329622071    0.5002078255272483 O
   0.7506955896585930    0.3734361912928886    0.0225142632783918 O
   0.2085763668319233    0.5001907324411812    0.0006099539278015 O
   0.0006034137601618    0.6501258337723593    0.7492465242107214 O
   0.0000473381838897    0.6479711185270358    0.2518189500977542 O
   0.2168022526186268    0.5001931000555957    0.5002422675839273 O
   0.0002068516103928    0.1048148978797306    0.0000982253567004 O
   0.0026712907165767    0.1442877777346183    0.7497977062014995 O
   0.0007491319891452    0.1411193889567244    0.2516543163476741 O
   0.0006629455149756    0.5017605107800335    0.3966743765132384 O
  -0.0025805334083414   -0.0006486392976243    0.8920030295565776 O
  -0.0005315204734176    0.5001272526186271    0.8931145391382395 O
   0.4998849382756523    0.5009338562198988    0.8503972441922543 O
   0.2053845785525733   -0.0014498152329186    0.0013254155574681 O
   0.7507179386192898    0.7690278305351615    0.1258589591954041 O
  -0.0000693474874407    0.1020444786439168    0.4992562960468419 O
   0.4973724126413235    0.0003471620770603    0.3569417076978557 O
   0.5009026517322942   -0.0010773993195245    0.8536841244716910 O
   0.7478987155784601    0.2708386816832704    0.6241966749812147 O
   0.5020782282420820    0.5003659876884680    0.3586482601006724 O
   0.7487939612187654    0.2715292962939516    0.1263134074251204 O
  -0.0028654285036120    0.6040776484943746   -0.0001536501925587 O
  -0.0011804213142679    0.6095590272752812    0.5004657762904727 O
   0.7496657429430810    0.7700033721997821    0.6243718389815558 O
  -0.0061343268067136    0.5020101030178312    0.5989487076864289 O
   0.5449186689240313    0.6246292254128619    0.3760115316382103 O
   0.7980510567564492    0.4993062773032558   -0.0022993105551120 O
   0.7523715464590802    0.1242721021512722    0.2689070448040498 O
  -0.0008752645753974    0.8897009585897913    0.4988456216551067 O
  -0.0025827417984276    0.8952646673804109   -0.0000110774388609 O
  -0.0032572007164037    0.3957639286151681    0.4999122921607622 O
  -0.0013439000336312    0.3940089565066615   -0.0010948457047204 O
   0.7493493634419255    0.5243117172364349    0.8724384616072569 O
   0.7468957313172290    0.5195319931901546    0.3768395308540537 O
   0.7484933666468168    0.1260939758985658    0.7676379220241857 O
   0.7513995408379409    0.0171882726249162    0.8745052473512825 O
  -0.0016343835740822    0.7501889444951962    0.8527147251651082 O
  -0.0010819677370456    0.7509776592533693    0.3579218817733592 O
   0.0017675615738993    0.2508789897438211    0.8538467788788034 O
  -0.0024762654242360    0.2494989336733158    0.3547225948726918 O
   0.5004648604731311    0.7501098150229033    0.8899917901694409 O
   0.4984777592960135    0.7504727502798696    0.3974340383002338 O
   0.5006626972525086    0.2486479771484263    0.8975730769174161 O
   0.7503104492455632    0.0198819912920987    0.3753786294553326 O
   0.7482638559943959    0.6262474006944188    0.2749621001098608 O
   0.7473968890298601    0.6274177335907070    0.7685750120285449 O
   0.5392173508060530    0.1245196280614830    0.3767413504929518 O
   0.7940585025636582   -0.0007109263598881    0.4989501597277254 O
   0.7836080982209549    0.0012405636026513    0.0012318721337782 O
   0.7512000302289001    0.7332470368476839    0.8732617235360066 O
   0.7528509131049798    0.7316413208721582    0.3771990076995008 O
   0.7532870412260712    0.2268493743837008    0.8777598313945855 O
   0.7501430864873397    0.2253331423258709    0.3755711490354919 O
   0.7536667453790482    0.6260454466262073    0.9775734310837265 O
   0.7493262235577504    0.6253263430090482    0.4859841203706464 O
   0.7462763841865921    0.1236466805147339    0.9821693408820757 O
   0.7497106993348100    0.1241146231651665    0.4796347362665521 O
   0.9549526423734730    0.6254627438391249    0.8733794579327998 O
   0.9544549599338993    0.6262305401517250    0.3756714296366688 O
   0.9609606183651895    0.1249842839015430    0.8752709815848509 O
   0.9596856201879137    0.1232898508373022    0.3742798896666975 O
   0.5397525776946923    0.6259351228304265    0.8731873694205710 O
   0.7480360802523326    0.3748173390545821    0.5198211819262124 O
   0.5472136259436545    0.1255679170360248    0.8748149000786275 O
   0.7831170004440492    0.4983131278458964    0.4992565942006124 O
   0.7497170463722858    0.8751256693735878    0.0175100902661885 O
   0.0001743637778719    0.3532759879015326    0.7513423570799385 O
   0.5435130352289343    0.3743236187266549    0.1256833379007211 O
   0.2422602938839103    0.3786495176455113    0.1299238396618748 O
   0.2591618138020352    0.3766008808089321    0.6215198712220118 O
   0.2524019680325263    0.8729473010539027    0.1273275577563583 O
   0.2483373071012837    0.8765824005872084    0.6234354383702879 O
   0.0020530108395045    0.0055664280585932    0.2508212743209907 O
   0.0041127436440263   -0.0068025866036487    0.7474464695230333 O
   0.0015703722632465    0.4961506739846870    0.2504246681423297 O
  -0.0057875138462709    0.4976397302848188    0.7501007208329289 O
   0.2483547865170237    0.1188476293418187    0.3744069872737397 O
   0.2494088665354606    0.1254077350283812    0.8752292106018459 O
   0.2492825156182935    0.6254139223771965    0.3757783543347498 O
   0.2522168321357275    0.6271426299710285    0.8712989413417284 O
   0.0026930163622988    0.2487010783823723   -0.0006529310149193 O
   0.0024384587554099    0.2517209073584126    0.5008521976560091 O
   0.5001098305531770    0.7498948628576413    0.6034175485313354 O
  -0.0083211852865698    0.7495952881376927   -0.0000871052998103 O
   0.7472474504602596    0.3806207867678573    0.3782184243575133 O
   0.7575322071086674    0.3760507387956922    0.8725271452083123 O
   0.7574336470379666    0.8713102904565225    0.3791364466061274 O
   0.7517750116051535    0.8752374735386176    0.8712777150717619 O
   0.5077492738511702    0.0021449011659877    0.0034059291326796 O
   0.4918885966361926   -0.0004147647631581    0.5026803754564749 O
   0.5014031504235371    0.5000810968699416   -0.0000674601161213 O
   0.5037656374827542    0.4982372640187866    0.5014241575102835 O
   0.7496704268704524    0.1183886892091877    0.1255286861735064 O
   0.7454949757879860    0.1253829685766998    0.6241947677233068 O
   0.7533090969210251    0.6278696525615912    0.1234886917558177 O
   0.7478573619953157    0.6284997582121749    0.6216696703075152 O
   0.4994975426502092    0.2495147979241771    0.2511559118041792 O
   0.5007438255583222    0.2505557524724749    0.7468644227124340 O
  -0.0054027221735096    0.7512625628355396    0.5029213584961522 O
   0.4987122812768902    0.7515103943293712    0.1078733229268288 O
   0.5020212818211778    0.2491162809310652    0.6021214241759449 O
   0.5009566223635497    0.2482152600840056    0.1026131038135178 O
   0.5388138907917557    0.3741574702191778    0.6244798465982354 O
   0.5425054686876301    0.8755362234753122    0.1269207955029431 O
   0.5346938881130857    0.8745259165012039    0.6226269601850004 O
   0.9649847633333959    0.3759583794635637    0.1271984730797985 O
   0.9617450520012959    0.3756958873026008    0.6230837870278558 O
   0.9517175307238177    0.8737835250041786    0.1253506859513747 O
   0.9672226330363770    0.8736302911926389    0.6247924799823793 O
   0.7525627713102215    0.3757106145646263    0.2356807304731052 O
   0.7540377036737939    0.3799865812305981    0.7270307593699815 O
   0.7490869110642959    0.8747667809985196    0.2291081975039741 O
   0.7492897014232797    0.8729480264757825    0.7257700067913770 O
   0.7509595000666593    0.4807095861154048    0.1256404845035553 O
   0.7471178789949279    0.4797371997444522    0.6229619712227416 O
   0.7464347055468495    0.9824260497005259    0.1254376882896102 O
   0.7474247769729843    0.9790294417589832    0.6224001184507325 O
   0.7940923795287651    0.2494400819069291    0.2519802615986150 O
   0.7883398233944504    0.2503106401732533    0.7486374914911720 O
  -0.0014756805017375    0.7498951629185240    0.6415786754958599 O
   0.0008765536491245    0.7509106334555516    0.1481743335253909 O
   0.0004338376002734    0.2510270511762087    0.6420184424568379 O
  -0.0003496893105729    0.2482892924222645    0.1497304554339362 O
  -0.0016978094861169    0.8554194564855158    0.7474329930767998 O
  -0.0015880721439459    0.8518429644942531    0.2516187824739295 O
   0.7506057808783851    0.8730502824763648    0.5210013341568626 O
   0.5024588217846147    0.2517490403712948    0.4013815752381772 O
   0.2132860356515554    0.7499053153332447    0.7478836880063300 O
   0.2078796622280730    0.7492269305245765    0.2516669234586252 O
   0.2106426499446620    0.2511937831036706    0.7490690980956162 O
   0.2002696299465082    0.2481290285980603    0.2515877497727128 O
   0.7931459386379900    0.7505325904284518    0.7485838310699228 O
   0.7895271163833193    0.7505181961476538    0.2514547462384576 O
   0.0007518286511690    0.3606569945495173    0.2504319998599900 O
   0.5006942181209116    0.8525089972062269    0.4999504252767979 O
   0.5026409991397971    0.7500117980920633    0.7465229138375487 O
   0.4993957784153831    0.3592506610501265    0.5016217699236585 O
   0.2489502761535319    0.6256528229973692    0.2297322380880833 O
   0.2477833624777485    0.6252026299199761    0.7225306508355730 O
   0.2510363357829284    0.2211520478198859    0.1268014721337465 O
   0.2519671149677690    0.2321924043471719    0.6235647795066198 O
   0.2493547791330231    0.7314597226105111    0.1276044259109080 O
   0.2491923427705897    0.7318619127492596    0.6236457881312659 O
   0.2919566882302918    0.0011074549958663    0.2518428545444762 O
   0.2905894435477419   -0.0008799916715278    0.7469683320993207 O
   0.2514020591266445    0.1236999161307608    0.7250192928909421 O
   0.2864743635691736    0.5010926055668894    0.2510192440367612 O
   0.7152744815938697    0.0001499544767621    0.2492403567523665 O
   0.7140602039978969   -0.0031238460239935    0.7505895820114885 O
   0.7137264405152919    0.5007227053655372    0.2522438538100095 O
   0.6932498465741789    0.5045352486082907    0.7446662675909036 O
   0.4997644915019592    0.1038811751349621    0.2492185198293793 O
   0.5011291868566192    0.1008138352819970    0.7474803162488398 O
   0.4968026032779078    0.6017262324925530    0.2526762639659155 O
   0.4995039218436902    0.6094142266698350    0.7490060137965978 O
   0.2939377734104408    0.5007306084191300    0.7501140996514882 O
   0.4996343200401648   -0.0000779073924025    0.1476821815641210 O
   0.2461361202697631    0.1218925367470157    0.2314202568572227 O
   0.4573903890376972    0.6258140935292917    0.1280304842805783 O
   0.2514903626267706    0.0209594559435692    0.1257371850421623 O
   0.2528549949103605    0.0146699243483566    0.6239088267829686 O
   0.2490361833164383    0.5201117514095426    0.1269990174762068 O
   0.2512640878567294    0.5187370735990946    0.6236740716541074 O
   0.5026689404410939    0.3952494935793683    0.2529714448133401 O
   0.4973173103862188    0.3974667318336307    0.7469546584901929 O
   0.5031140498213900    0.8992732675451133    0.2523427199561171 O
   0.4995246215497303    0.8913227520218161    0.7479919819151410 O
   0.4654874054738600    0.6256125711292070    0.6237196750831171 O
   0.2484776714937554    0.1254843905048381    0.0206504352895974 O
   0.2496291494052083    0.6251889112198312    0.0215028339928913 O
   0.2509595526141722    0.6262400071260639    0.5205341797658923 O
   0.0324003435359560    0.1233163690641816    0.1283008165441072 O
   0.0408801472064559    0.1257472476681405    0.6225891147956029 O
   0.0396196773927049    0.6263518315705373    0.1259717378871106 O
   0.0388344624146821    0.6274165869130368    0.6237953693488655 O
   0.4613151778072349    0.1228287827316275    0.1244934862420605 O
   0.5006698821477201    0.8557462279820947   -0.0002003749605562 O
   0.2533198057306424    0.1246891925086616    0.5193295455175218 O
   0.4988325777004579   -0.0004512534436785    0.6413535292075310 O
   0.4562837599225990    0.1236589780587110    0.6234157855870123 O
   0.4990953438635234    0.4988612883542704    0.6380406425705480 O
   0.4637636035257641    0.8744368092029169    0.8731780548134876 O
   0.2513286066287441    0.3753805560204368    0.9817699340519459 O
   0.2525105451882386    0.8748784720488250    0.4842749547364064 O
   0.2498472013840178    0.8748531081259683    0.9790774012988386 O
   0.2491772973522440    0.4814470768613803    0.3755895866543776 O
   0.2503313217552036    0.4789189982326085    0.8733586203556606 O
   0.2472297216396653    0.9801436935201672    0.3737291112569334 O
   0.2475850042181799    0.9769999028308727    0.8726876709510109 O
   0.4533203174911119    0.8753063320027580    0.3763373242402735 O
   0.2931705760140057    0.2477845453883859    0.0001639786169033 O
   0.2895996324967769    0.7503051125077591   -0.0000497352013606 O
   0.2902229967837764    0.7499267013691214    0.5004674378861234 O
   0.7077300182618150    0.2497227050985478    0.0008368229948390 O
   0.7068559060564892    0.2500774308083671    0.5000204907290418 O
   0.7120678801175659    0.7501033690534530    0.0000072651393778 O
   0.7170883412440625    0.7503750717704447    0.5013959701958208 O
   0.5013028304710753    0.3548218082025243    0.0013838358329193 O
   0.4965720726466316    0.4992197797588265    0.1502937626251196 O
   0.2953894867921824    0.2501263698575596    0.5003331045128935 O
   0.4585606960112758    0.3758243869767242    0.8742685512585273 O
   0.2502006146009593    0.3750581411890893    0.4830811824006183 O
   0.0338841575063290    0.8741442579206348    0.8737116769490010 O
  -0.0050133578784146    0.0011440297685346    0.1086630500800947 O
   0.0061756320476312   -0.0031327630293657    0.6055186644499124 O
   0.0017176748007451    0.4992351419601850    0.1096701439677581 O
   0.4954503696352035    0.7513562079597388    0.2486192503429284 O
   0.2499848609671139    0.2757851260275520    0.3773756333366861 O
   0.2485890512840200    0.2699148958051064    0.8757353943032814 O
   0.4604659772274936    0.3763141204342781    0.3779675464473790 O
   0.2514122001026132    0.7716678216490387    0.8724706126351712 O
   0.5031174373675629    0.1432131251853382    0.0017095894945779 O
   0.5003873866646267    0.1432675425817381    0.5003803633965201 O
   0.2486616636402780    0.7712993724943494    0.3764664719477543 O
   0.4984374803231534    0.6451218776594456    0.5007721019493135 O
   0.2479734213766116    0.3764756798794368    0.2700157492562931 O
   0.2527413424847401    0.3739244354289373    0.7701409005971396 O
   0.2521398380460125    0.8737073021420018    0.2739535720489805 O
   0.2471017136667692    0.8754911393959410    0.7633100814974679 O
   0.0323688574456935    0.3759191344663336    0.3754850546747286 O
   0.0414157028493219    0.3749353702490649    0.8732043547673227 O
   0.5006657008011958    0.6489108065362772   -0.0000891406732082 O
   0.0417525166127503    0.8735273814025509    0.3759365932425794 O
   0.6231889172871284    0.8125766939067044    0.3109148770436514 Pr
   0.6221276911976997    0.3129476487910326    0.3135003201863989 Pr
   0.3720535251450633    0.9369008057327010    0.0624506517486435 Pr
   0.1223723157514580    0.0631079667694348    0.8127491391618603 Pr
   0.1190313699996988    0.8117690537160391    0.0645123907097054 Pr
   0.8742340474460850    0.5624654159241845    0.1860742267870197 Pr
   0.1260452031564811    0.5606489129980254    0.8118435580960116 Pr
   0.6204922931852508    0.1874134283690630    0.1874775030672024 Pr
   0.3773941151202114    0.4368704556565663    0.0638157793127884 Pr
   0.6214127845662478    0.0644079283906400    0.5647913753812135 Sm
   0.3761119817776344    0.3137296116489141    0.6891941292271403 Sm
   0.3765818431185033    0.8122505578944456    0.6870955483637341 Sm
   0.1248076404463177    0.3123985864172351    0.5648005524592247 Sm
   0.6310701279566029    0.1891025668974690    0.6888323995269876 Sm
   0.3794619025717869    0.6893584010343445    0.8119136603490642 Sm
   0.1317992888710322    0.1882433371288471    0.9392563152830424 Sm
   0.8726030157148578    0.8130111288893512    0.9358853978768357 Sm
   0.6271049689328713    0.8119126682136384    0.8104681459224818 Sm
   0.1243499244828004    0.4370633804676309    0.4380919161101770 Zr
   0.1266966298048296    0.9371805622727780    0.4376945472022793 Zr
   0.1232463567897589    0.9366887135630606    0.9363852343601137 Zr
   0.8752365378217355    0.3128227901010234    0.1887259607829966 Zr
   0.6274220050333809    0.0624107172918819    0.8120064851808830 Zr
   0.8753239229024308    0.4367205363099956    0.0621534131047440 Zr
   0.8751079971901302    0.3136036154777454    0.6869141729543458 Zr
   0.1257457395026084    0.1881642336081865    0.6865662956917663 Zr
   0.6262731132494841    0.8130542685626921    0.0630433899383313 Zr
   0.6240983087062799    0.0624911810267282    0.3126379189886102 Zr
   0.1256133674179067    0.4374215809758257    0.9378472071537897 Zr
   0.8727176481624204    0.9372922699255835    0.0627837397956552 Zr
   0.3772368716681483    0.5623434274325505    0.6872384828877741 Zr
   0.8736755818818650    0.5631194134030623    0.4382982279180391 Zr
   0.8746710185734693    0.0627547482506433    0.9370743734393543 Zr
   0.3760432274385753    0.9372882989576511    0.8110684401857287 Zr
   0.3753391164186057    0.4382284289891823    0.3129351692671626 Zr
   0.1233809299372046    0.8124484309983789    0.8108186076679853 Zr
   0.1236529897645999    0.3131865291158298    0.3129246236795774 Zr
   0.6263393420204466    0.6881618554904440    0.9357801506629526 Zr
   0.6241187215118887    0.6874296655858073    0.4382954042591240 Zr
   0.3761881102340408    0.8124653238831249    0.9366816664080354 Zr
   0.3761842953413808    0.3129196662248926    0.9382354242929324 Zr
   0.8758178334372644    0.1879659286235572    0.8122560500020741 Zr
   0.1258374831448328    0.5630055386028718    0.5628042637813808 Zr
   0.1235100170292111    0.5629003554927822    0.0633203803932855 Zr
   0.1263323878796496    0.0629249135527493    0.5622108420502648 Zr
   0.1250569029812443    0.0626304935095132    0.0631108077726485 Zr
   0.6249603382415269    0.9372461638989125    0.6868984967548781 Zr
   0.6259889545197453    0.4374018935372943    0.1883626769786288 Zr
   0.8761160876112238    0.9371424328700150    0.5624591139977431 Zr
   0.3743563212702142    0.6878925889798887    0.0636155082869108 Zr
