Ta39 Ti38 Nb39 V38 W38 C192
1.0
  13.1470093091954983    0.0009700619053067    0.0006872938862932
   0.0012934030432981   17.5320130130484593   -0.0014313179469530
   0.0009163425994917   -0.0014313005015207   17.5334258127156168
C Nb Ta Ti V W
192 39 39 38 38 38
direct
   0.8319484872726999    0.8741756599388102    0.8753405661319792 C
   0.8371211597898744    0.2459263112457646    0.7482405120456038 C
   0.8326402708240513    0.2461477946877769    0.5029919701019864 C
   0.8321085731433361    0.2482106700484627    0.2465466850420087 C
   0.8341100555204917    0.2506790975700545    0.0036458671832001 C
   0.8338897526284130    0.0020766897669046    0.7492838226478128 C
   0.8340664921694509    0.0045070715806455    0.5039178059797234 C
   0.8332643557979043    0.0024165769649621    0.2498602012510002 C
   0.8336659450908412   -0.0004650088463023   -0.0020870742527612 C
   0.4963866415408766    0.7524305707470141    0.7494680997925814 C
   0.4979127122367602    0.7539599933835550    0.5002449249755495 C
   0.8343164752907773    0.8765430476625446    0.6279135739060266 C
  -0.0036200382325659    0.1235867905186483   -0.0038197808628223 C
   0.8297063315968239    0.5009230635129044   -0.0005184003150947 C
  -0.0033686257824046    0.1241100295262989    0.2508605967622436 C
  -0.0019129651251873    0.1255897590016769    0.7513304874884820 C
  -0.0008842205693872    0.3716386397106395   -0.0011435113300745 C
   0.0028058270950045    0.3726167296441575    0.2493187001829243 C
  -0.0003237405548130    0.3737500897206799    0.4998935479930767 C
  -0.0025582645085482    0.3707161206559960    0.7517865510399212 C
  -0.0031871827230477    0.6293007061814736   -0.0011272828443097 C
   0.0011314476457893    0.6264247856881934    0.2488239496679567 C
   0.0012143929730236    0.6275081412593231    0.5005507574038369 C
   0.0031578296833970    0.6302899478630073    0.7482121650723580 C
  -0.0032508587856466    0.8747746269943725   -0.0004318857496110 C
   0.0005940228820015    0.8761042396030794    0.2502128939644498 C
   0.0000172208536023    0.8729806443003078    0.5006460267018518 C
  -0.0046376489883367    0.1238169128801991    0.5029593524468345 C
   0.8288878278175870    0.4983119687540623    0.2481269109913118 C
   0.8327736680313754    0.4994977208959158    0.5031788948199070 C
   0.8324507068196403    0.4989083391694672    0.7495509301198063 C
   0.3353286829827825    0.2534617977814809    0.6247258541692585 C
   0.3375773598434873    0.2530620566532097    0.3774932110608347 C
   0.3396195963081774    0.2539622276277962    0.1254058398189314 C
   0.3347251762663523   -0.0011988352098071    0.8764694068270948 C
   0.3313326560698261   -0.0002233929512945    0.6260138051713995 C
   0.5052484105670091    0.7516689798458068   -0.0028450395080601 C
   0.3339510199774359   -0.0024132370886683    0.1254864019326141 C
   0.0019188308902092    0.7512739858660381    0.8739928314302602 C
   0.0010347974236957    0.7517647466551056    0.6242506860309820 C
   0.0021766001617206    0.7520310902493519    0.3775026931009617 C
  -0.0013935626747766    0.7519946468258711    0.1229921429843436 C
   0.0012470056248809    0.5010416157486293    0.8745788766683429 C
  -0.0004452174719947    0.5019587542318248    0.6234728811440381 C
  -0.0004465323664713    0.5017336565841418    0.3769611965550943 C
  -0.0003207075614482    0.5034312313528063    0.1244076397410329 C
  -0.0016229218227563    0.2474067972645492    0.8738698697961645 C
  -0.0036733088567972    0.2488727845275946    0.6263542077880313 C
   0.0005867985925628    0.2496795422103706    0.3753707036529283 C
  -0.0038793929873877    0.2497891726267625    0.1240501882075689 C
   0.0018064633425634    0.0001207105201675    0.8738130422978192 C
  -0.0025299962069089   -0.0039301794932514    0.6256934328802064 C
   0.0007920302104674   -0.0058329715565251    0.3763270074840491 C
   0.0009087097294825   -0.0029324017880585    0.1246219637798136 C
   0.8365409886087712    0.7534308449130238    0.7494458704120345 C
   0.8355127928455043    0.7502958798717111    0.5020665340520957 C
   0.8308546990230765    0.7501453006483757    0.2468240566468094 C
   0.8367611547364125    0.7540148454236796    0.0002451596592554 C
  -0.0000298840286938    0.8738439188071858    0.7470034591436865 C
   0.3347825231652278    0.2490610832823423    0.8752367420240205 C
   0.3368760573982962    0.1225048814532725   -0.0052581968045243 C
   0.3364617558649718    0.1253431810856147    0.5027397852956959 C
   0.1636464012156260    0.0020599265549460    0.5012015854031568 C
   0.1635648267560137    0.0012503846933121    0.7486149338813919 C
   0.1649346654706314    0.2541094328038835    0.0011594095651877 C
   0.1656951121699116    0.2535429865808344    0.2505330662644579 C
   0.1668308028523040    0.2481348879031716    0.5007157617266295 C
   0.1609723135032639    0.2467396734182822    0.7490484600443539 C
   0.1664027841073245    0.4981720902047922   -0.0000344819112393 C
   0.1700319589537348    0.4980581136427996    0.2474515650330087 C
   0.1655207515706833    0.5006451132850008    0.5016055339502187 C
   0.1697386084692219    0.5025815832646141    0.7510996302938990 C
   0.1604056736079800    0.7498659157176756   -0.0015851126538919 C
   0.1686158147766370    0.7497840452916694    0.2506671181999508 C
   0.1670265485173208   -0.0010380676394788    0.2519518343444728 C
   0.1641965978422968    0.7487404858072391    0.4988495926031885 C
   0.5008888112046297    0.0007590579503084   -0.0023369310370404 C
   0.5016064948400543    0.0034996507903805    0.2531586601890035 C
   0.5031340634255427    0.0042025999565502    0.4985720884075791 C
   0.5030840677627983    0.0010946775257093    0.7505057812393887 C
   0.5029797920750528    0.2513614240281237    0.0015360609503536 C
   0.5051516221298303    0.2496874720592619    0.2488617478167645 C
   0.5008143292550937    0.2462654850513502    0.5008579843434076 C
   0.5024346183504207    0.2450781994875920    0.7484322700786603 C
   0.5017270080056689    0.4965214946938145    0.0004612069247212 C
   0.4991803553315767    0.4993689996697423    0.2518337200028837 C
   0.5009961386720250    0.4990448936359081    0.4998786123698257 C
   0.4981672625155650    0.5024940975912869    0.7488744751365027 C
   0.1659699140480559    0.7503445403390154    0.7496961484091730 C
   0.1645788175964973   -0.0016109483658407   -0.0020047746018415 C
   0.6670764371883805    0.8763672733590951    0.7501850803257988 C
   0.6679288710658337    0.8779608266632639    0.5003922364694413 C
   0.3348442466834798    0.1248658162697081    0.7534729352726481 C
   0.3341619654754233    0.3751653480649888   -0.0000476005667912 C
   0.3323045821741881    0.3773928833068760    0.2467177701567754 C
   0.3342650737310479    0.3733169129217019    0.4994173713404528 C
   0.3340969605164947    0.3766952997564836    0.7507197549282909 C
   0.3339116136417402    0.6252686564651644   -0.0000983134528275 C
   0.3347647591513685    0.6229780815171836    0.2480175217967357 C
   0.3302066051803581    0.6248784906560130    0.5022068353398598 C
   0.3301640965679313    0.6270825196308055    0.7473309493493681 C
   0.3342533515530729    0.8769972763045941   -0.0023171508865527 C
   0.3337064081753969    0.8745502252012652    0.2507682255845849 C
   0.3378278163426945    0.8717032712588575    0.5004413612901548 C
   0.3333233342814682    0.8722190718340528    0.7527916185131064 C
   0.6681067673508180    0.1251126333723976   -0.0011634270084429 C
   0.6707448638777366    0.1246077787754600    0.2516867653729248 C
   0.6667637299720361    0.1269785893037634    0.5015562450808242 C
   0.6680480372708795    0.1226589102414069    0.7497890961531999 C
   0.6611676626093443    0.3739319286595779    0.0006317046943040 C
   0.6659653857594527    0.3761879811488982    0.2483421434668641 C
   0.6656823596855613    0.3743727189228981    0.4995056485566393 C
   0.6684413579745666    0.3734268651068920    0.7488629746256840 C
   0.6703437034316911    0.6248876771099683    0.0001799806143654 C
   0.6629896945520272    0.6207940035418653    0.2477922103457768 C
   0.6670433979344890    0.6247886518168989    0.5010756876918298 C
   0.6629073751425542    0.6258103660679760    0.7524234701067691 C
   0.6719239164346296    0.8772506240556647    0.0003267370831574 C
   0.6658869170799939    0.8745318040420736    0.2470071964276188 C
   0.3391395239897358    0.1232262676280479    0.2505412533723477 C
   0.3327480420738317    0.4984878722852691    0.1281100349886680 C
   0.3331986163342746   -0.0038119982150498    0.3744905233840475 C
   0.1700786420839552    0.1235626170692803    0.8700667340783667 C
   0.5059028693283357    0.1261971625447517    0.6254961278517970 C
   0.5085251629902023    0.1253149164512186    0.3772660935372482 C
   0.5079437623323591    0.1297398227423179    0.1262011527355851 C
   0.1701423611655947    0.8758715950797096    0.8731813709474349 C
   0.1629553457370095    0.8753156068374546    0.6270153543032116 C
   0.1647119531563830    0.8729307562644877    0.3754191586283704 C
   0.1661794371403107    0.8734134700972410    0.1249855754756190 C
   0.1676108957274901    0.6252280928996291    0.8738830801141196 C
   0.1684394673327620    0.6242241007546490    0.6251465843839417 C
   0.1652333536750584    0.6291772210259794    0.3751808204629410 C
   0.1650075577166198    0.6257187940971266    0.1241978164077560 C
   0.1709332300627514    0.3748609918324256    0.8790988369701569 C
   0.1719086992108579    0.3764545672033003    0.6257035744620124 C
   0.1692385914201828    0.3746493300065838    0.3724346908683681 C
   0.1716956755609419    0.3767701695707609    0.1246529470363524 C
   0.1657725108083384    0.1232191791514185    0.6281779901730568 C
   0.1685128198033721    0.1229728589705503    0.3788387732571052 C
   0.1686743602922523    0.1255295421013356    0.1245232524194671 C
   0.6670707137624642    0.7487370940096633    0.8765110241510014 C
   0.6667008798480608    0.7493265177161522    0.6260681047400100 C
   0.6647493502347739    0.7517856131063593    0.3728360259424358 C
   0.6708359295035500    0.7491738168541793    0.1229598528122536 C
   0.6647568978371825    0.5012922038555679    0.8768680258290238 C
   0.5027235848736920    0.1245049963764571    0.8722685739483619 C
   0.6657185841048083    0.4992075994741335    0.6242887005984488 C
   0.5000113285934774    0.3719782628074388    0.1232205703037970 C
   0.5000692152496633    0.3744527963402663    0.6242406132962589 C
   0.8331606007653745    0.8746077756639449    0.3753907645962039 C
   0.8283338067035132    0.8711730550764905    0.1207173362709106 C
   0.8294490143946087    0.6277625852861097    0.8763422383317855 C
   0.8322198866012039    0.6268304429902771    0.6249838753108641 C
   0.8332332946025309    0.6267927454930816    0.3750070593080045 C
   0.8284824033200405    0.6280732909082920    0.1212881230694701 C
   0.8293277342361621    0.3751243642871471    0.8766755930041233 C
   0.8269484965897134    0.3747092217878792    0.6273676315751376 C
   0.8288172634363280    0.3742714351653269    0.3751282988585555 C
   0.8270867201968862    0.3722917424970494    0.1232855629144197 C
   0.8287139782461037    0.1231402377361270    0.8737494796552583 C
   0.8251247984460681    0.1259319961686973    0.6273530047351467 C
   0.8258334375797011    0.1244310190694384    0.3778120602959262 C
   0.8260435501503179    0.1278840680525413    0.1247390024062249 C
   0.4994330696687054    0.8766969633216474    0.8728445435655757 C
   0.5038452110984487    0.8723847240961220    0.6244217044542476 C
   0.5003606938823018    0.8761725971927981    0.3775163760803517 C
   0.5037751841523290    0.8753168661217318    0.1242436402309221 C
   0.5039215451504646    0.6262391688074647    0.8715446844256760 C
   0.4969709118713235    0.6248751379649499    0.6264253799279469 C
   0.4993346304674992    0.6248100433369472    0.3734628561711675 C
   0.5027060125933450    0.6232136952838353    0.1248935925254483 C
   0.4978814047474713    0.3738261649359838    0.8785322817382161 C
   0.5012617836378491    0.3717341072500301    0.3748839308700168 C
   0.6642859553087439    0.4964625867971214    0.3738519322924138 C
   0.5013900643649650    0.7474706997634829    0.2531178206460275 C
   0.3317930207129164    0.7464619018727642    0.6263220709705190 C
   0.3336480601525231    0.7511902535119404    0.8722980775124056 C
   0.6667373428124581    0.0003517965319535    0.8752402485398111 C
   0.3330916787547198    0.7496867399042888    0.1267403418510814 C
   0.6656847187439131    0.4991903158670600    0.1276032446564769 C
   0.6653155114800321    0.2506542620060546    0.1268395953182135 C
   0.3311980684081622    0.7500060933992414    0.3742112865702946 C
   0.6647240405709209    0.0013034399897536    0.3754303637093605 C
   0.6635875888994395    0.2499673699602597    0.3762252404684657 C
   0.6667515194963166    0.2510849166007389    0.6234339721266864 C
   0.6695401166899045    0.0013573338809191    0.6255053349562210 C
   0.3342457025239171    0.4975666240617623    0.8720495763957894 C
   0.3340807759700112    0.4996380012194359    0.6247796347210945 C
   0.3375319163690768    0.5005593800769862    0.3721541156548303 C
   0.6654841898707726    0.2476304603959739    0.8767218602259397 C
   0.6669838577379553   -0.0006483858052555    0.1240032701645603 C
  -0.0025997815684220    0.3735804016138012    0.6276196060678564 Nb
  -0.0045994928721211    0.1261337261098447    0.1243853395976100 Nb
   0.3338803328067289    0.2543245373220812    0.0010040048862035 Nb
   0.3367157548718502    0.2501760230822625    0.2493339672304170 Nb
   0.1690159320066086    0.3763604464501504    0.7507610013265021 Nb
   0.1670700391777037    0.2479992309119259    0.8726389099809725 Nb
  -0.0042123332451175    0.1233285140236035    0.3786320462834323 Nb
   0.3335593953499259    0.2487538877345090    0.7508214676191306 Nb
   0.1629830656351687    0.1231737435246570    0.2524868422707772 Nb
   0.1714568432380585    0.1233871689044188   -0.0033748166884049 Nb
   0.3332531341651357    0.4961664744985317    0.0023470968164290 Nb
   0.0018729462666807    0.3730981202922958    0.1217879523883570 Nb
   0.3348467829709800    0.7516332328235702   -0.0008457752821432 Nb
   0.5025753895690122    0.0007580570926720    0.1278112076320370 Nb
   0.8298194587416288    0.4997099088721306    0.3758637630981189 Nb
   0.1677572809944477    0.5013420399527860    0.3732367546778974 Nb
   0.3339421606306853    0.0006495254468933    0.7553356573150994 Nb
   0.8373385977583950    0.6281606186161300    0.7470489625088699 Nb
   0.8295851648359182    0.2455814865228663    0.8747039032981225 Nb
   0.8346140267249647    0.6246305023056612    0.2474757173191708 Nb
   0.3347319423075989    0.8747543466260039    0.6261169342956863 Nb
   0.8316486420203836    0.8756141005821774    0.2458049362293729 Nb
   0.5036093947220073    0.7504611187468117    0.1257390777093473 Nb
   0.8372577118314921    0.8763185238287176    0.5053051697024296 Nb
   0.8321700364508009    0.0000190058053514    0.1206078194127930 Nb
   0.8313236378208420   -0.0002114882653555    0.3781883783699717 Nb
   0.4996497904410738    0.8750439811276642    0.2536179502977562 Nb
   0.3323962427371013    0.0003753306944086    0.4979672477338603 Nb
   0.4990047382602025    0.6258141226814766    0.5029856734612130 Nb
   0.0012479255243671    0.4983773466369520    0.0001846343680350 Nb
   0.5084090666160119    0.6262630780056049   -0.0016939457681666 Nb
   0.4990730721200758    0.3728720401118568    0.7470520973336154 Nb
   0.0002718883503706    0.5005082777432794    0.7492794713042614 Nb
   0.5028463429419233    0.0007644954770900    0.6246915702567601 Nb
   0.3428278315959339    0.1262500647469317    0.3772416018083121 Nb
   0.8292992747272792    0.2480241953002866    0.3758560744382442 Nb
   0.3404477292131081    0.1245069270336112    0.1257690619152383 Nb
   0.0011489763239950    0.4990283973987607    0.2486436661645274 Nb
   0.1624419309841269    0.8745104762848124    0.5000068354987511 Nb
   0.8307887022774766    0.0004088377321708    0.8751985563543839 Ta
   0.3334899689797949    0.5013076256092925    0.5032237592016713 Ta
   0.0019941829641845    0.7524065175621768    0.2496123783124151 Ta
   0.8293822763862569    0.5013931108681625    0.1211719088511905 Ta
   0.8271164891617389    0.5028433356325472    0.8776388012218762 Ta
   0.5002717930352544    0.4966561746289163    0.8755262553929598 Ta
   0.6644681214680905    0.7512291216661350    0.5048229685481949 Ta
   0.1650505103626858    0.7487751941050765    0.6275033284324729 Ta
   0.8356934343316614    0.6258657687402092    0.5031753330466359 Ta
   0.8295678605758287    0.3734464881332354    0.5036296952552017 Ta
   0.8279374151796165    0.3727494294325498    0.2464036772766065 Ta
   0.3333105673840551    0.6255674077299943    0.8713312939277431 Ta
   0.6617206504883232    0.6217838077876108    0.3718399259839077 Ta
   0.3356130217975701    0.6251172016357089    0.3722048565948948 Ta
   0.1675637022304947   -0.0013786366220721    0.1264481920313295 Ta
   0.5015779100946330    0.8782072813622726   -0.0057507164148823 Ta
   0.5008791382514624    0.4959517214367021    0.1260944191260007 Ta
   0.4987786597392202    0.3723524997633927    0.5019190649213876 Ta
   0.5048770901536094    0.3730979413830549    0.2491299663200390 Ta
   0.1704192325462023    0.2530518427555480    0.1267673907723530 Ta
   0.1706747411726754    0.2494679540492352    0.3751544942963837 Ta
   0.3377634516857471    0.1245216000772226    0.6292453720004030 Ta
   0.5037882384446259    0.1231214293327389   -0.0019716123456237 Ta
   0.1689818749687655    0.8736390537279887    0.2533252455987384 Ta
   0.1661042381586879    0.8725375260769804   -0.0020224753077200 Ta
  -0.0011403943534323    0.8724314114012377    0.8728465333640641 Ta
   0.1648751992813729    0.2485613223459485    0.6268192831765312 Ta
   0.1674407999111981    0.6263502183402094    0.2474428454639433 Ta
   0.1656398338785428    0.6271291408417229    0.0014925550890304 Ta
   0.1706365822179483    0.3741307153725471    0.5020947064168053 Ta
   0.0023762071111421    0.6302674748996440    0.8740652505039453 Ta
   0.6654563854639021    0.7490402599147263    0.7488023820845491 Ta
   0.6655715386449447    0.5000862676958965    0.7481049064113828 Ta
  -0.0039581271980444    0.3722959687033540    0.8765662784678789 Ta
  -0.0000667879541090    0.3751467303302508    0.3743246441840214 Ta
   0.6705663198830882    0.2459371348533647    0.7462814376909991 Ta
  -0.0063023545120592    0.1253281692856222    0.6283271065232954 Ta
   0.8335352693234822    0.7524156479295625    0.3756589661037377 Ta
   0.5014692848393014    0.2494296778976217    0.8747200037921137 Ta
  -0.0025869427240917    0.0019245641271923   -0.0017718285917985 Ti
   0.8342969800645541    0.8774440770297736    0.7473815236294676 Ti
   0.8354313660696056    0.7512311809818096    0.8722119627813406 Ti
  -0.0028993374983238    0.2466606649633491    0.5005089950445232 Ti
   0.8341424747048999    0.4999727454341671    0.6256101116930400 Ti
   0.0008849404590594    0.5011696854849768    0.5021023506320322 Ti
   0.5004304904107210    0.7512233844470723    0.8743765794051254 Ti
   0.5042033826972206    0.7515838997945894    0.3747950985646508 Ti
   0.5003880529680721    0.4983852319040959    0.6247778228271791 Ti
   0.5032808593950547    0.2470670009954923    0.3779093774375715 Ti
   0.5074797620776490    0.0047970441184857    0.3758950103091993 Ti
   0.1648361395129907    0.5029536245650021    0.6250666850712830 Ti
   0.1661234732778732    0.4988416955559469    0.1246405454235966 Ti
  -0.0015875505697450    0.1250557826047799    0.8706014064806361 Ti
   0.1645020594395790   -0.0005916704355165    0.6268446479720240 Ti
   0.3353370049573460    0.7509941624255763    0.2501036569938726 Ti
   0.8322267843731594    0.3734957399155862    0.7482844644370636 Ti
   0.8331546537040084    0.1251455106680411    0.2511150006922320 Ti
   0.5002747245792684    0.8758304512707461    0.7533014530578804 Ti
   0.6709031365599644   -0.0020901670930403    0.0010024352240978 Ti
   0.6680338598962927    0.0010742234007429    0.7486163878081806 Ti
   0.1656593178955082    0.8767808233348829    0.7487146201057493 Ti
   0.1662972201408317    0.6247227887775018    0.7486416722608265 Ti
   0.1621746501204192    0.6251117320606482    0.5002998173294668 Ti
   0.1632807342463139    0.1237921302156479    0.5030336889402482 Ti
   0.6654557094698869    0.4985012974945305    0.5037960997124159 Ti
   0.6667487530039385    0.8746184115824196    0.6284302906762145 Ti
  -0.0009229352794788    0.2502076236575254    0.2486251506021765 Ti
   0.5034277719996528    0.2486619825314517    0.6254687661410681 Ti
   0.0026143236159032    0.6251359711807408    0.6240530338044941 Ti
  -0.0036354362892053   -0.0025780112952127    0.2510705089864941 Ti
   0.6663547893417295    0.3719579023081362    0.8746751442907694 Ti
   0.0013651978009117    0.6249628150275243    0.3781744008671999 Ti
  -0.0011533821969166   -0.0011238059837546    0.5049236675787601 Ti
   0.3389303217146620    0.8771384073284184    0.1258675843995761 Ti
   0.3357554703770938    0.6232963880760456    0.1251183570371205 Ti
  -0.0007728576593252   -0.0008494954477509    0.7468874882278416 Ti
   0.6653419161999037    0.2496019810724302    0.5013295322620906 Ti
   0.8228681235892416    0.2458100966724411    0.1268331179563903 V
   0.3280329583308594    0.3790526544686025    0.1288295571623357 V
   0.8273184267524740    0.1214103340600399    0.7542810818027456 V
   0.8263066692204903    0.1258877935944726    0.4970663966815572 V
   0.6669663440620734    0.1217539168237228    0.8672229608117771 V
   0.3356502139123346    0.7550663888305019    0.7544329232292831 V
   0.6597085041199946    0.3679316139391264    0.1192923227131537 V
   0.6680145071583019    0.3762146757639934    0.3783112960720362 V
   0.5027992484393055    0.3703399391902711    0.0058569931830168 V
   0.6622194080775470    0.1239278757239039    0.6217090965474340 V
   0.5092531240932624    0.1226643810046779    0.7536884008308375 V
   0.6666394807605363    0.3722020566784895    0.6270979080265003 V
   0.0051675012114765    0.8709235956636040    0.3811150304433141 V
   0.6615674399348537    0.6199774561617221    0.1293352506676056 V
   0.1739007714488265    0.3787174294370962    0.2447137627171669 V
   0.1751685065302467    0.3781258907835345   -0.0020452971111916 V
   0.1598527396628067    0.1265446950977485    0.7494912821836234 V
   0.6665631651162550    0.6292253784289757    0.8737741732294569 V
   0.6636382086181203    0.8777608682334274    0.1286302082895532 V
   0.5084162723510848    0.1247859435814531    0.5055439136762906 V
   0.6668989957354062    0.1284046399289475    0.3826555332135185 V
   0.6674459745913496    0.1321488323636195    0.1218156994781779 V
   0.0026927049009152    0.8716974222772046    0.6294866662590981 V
  -0.0063005068569290    0.7554278593072020    0.0041684351112018 V
   0.3342708017818191    0.3763607978076539    0.6293987369011400 V
   0.3375768306233296    0.3723910381687934    0.8809805694248382 V
   0.0052508883323035    0.7540353427477928    0.4959033530266196 V
   0.6693501431982619    0.4954490584079968    0.2464381493103023 V
  -0.0053236019072063    0.2452502118312550    0.7524705709093222 V
   0.5001350752064152    0.2557044083631602    0.1196512316432809 V
  -0.0036142079430627    0.7547003636746532    0.7442714811549076 V
   0.8372694290251739    0.8702512001960075    0.0025993853000577 V
   0.3303490321385351    0.6280728190722652    0.6295631180902131 V
   0.3305582561056291    0.1273988636812461    0.8699148700515142 V
   0.8259549875273664    0.7487511578242123    0.1265667909570681 V
   0.3269282477486492    0.4948705058490189    0.2454577281821882 V
   0.3300264724839118    0.8697148009213195    0.8699535884340851 V
   0.1590908244543162    0.7506831831157381    0.3804015913511473 V
   0.3265640681446146   -0.0013392098841621   -0.0092915217717437 W
   0.6724158989570290    0.0094166776657647    0.5056098887246351 W
   0.6709040761907765    0.0041184246884442    0.2418005626586370 W
   0.3394292827583776    0.0025377735973478    0.2580243458156477 W
   0.3393359413795919    0.2434723234963405    0.5055649508649636 W
   0.0072462902031369    0.2435768013821938    0.0017724537985509 W
   0.6644944628686306    0.2463637024999315    0.0081310627254827 W
   0.6693621106009733    0.2515536846815890    0.2564204154102538 W
   0.3354972674449156    0.4959407081962772    0.7408010351787391 W
   0.3251346051071909    0.7434708009694494    0.4953863376764348 W
   0.6716644334218331    0.8813726548486691    0.3669844854350313 W
   0.6752935634561527    0.7606664329121816    0.0004261622317760 W
   0.6598064149557851    0.6216177855296979    0.6310502864509187 W
   0.3271285695190955    0.8683897574109365    0.3820930127951496 W
   0.3297181264411872    0.3821109608962807    0.3669350431710703 W
  -0.0129352539473090    0.8733903580251074    0.1190353189380719 W
  -0.0091332796541843    0.6336679387866824    0.1179303003029863 W
   0.8473859421820550    0.7561864715985267    0.6256294977797685 W
   0.8291135719835527    0.2437274002825065    0.6248514438883365 W
   0.8304101573962396    0.0085888978491672    0.6275936281700787 W
   0.4877893743596195    0.7510901784280539    0.6220134793632319 W
   0.5078973101396810    0.4910044141093285    0.3722620811724662 W
   0.5099757129118093    0.0059132122843259    0.8692907299003175 W
   0.6612544368048493    0.4951108902651738    0.0065521696532316 W
   0.1713903378015563    0.7552343120664171    0.8650159895577436 W
   0.1760675480134679    0.4924907121437982    0.8777364136368477 W
   0.1633938141319033    0.0057858456154930    0.8666538422954749 W
   0.1564792496197011    0.0017171969174889    0.3785376712787910 W
   0.8249101962760099    0.6364807192486025   -0.0004687767162721 W
   0.8207135164031258    0.3692326996540788    0.0050304415286026 W
   0.8258847775873671    0.1306300638353869    0.0022559688555821 W
   0.5120925409929971    0.8841459462300036    0.4961398363939956 W
   0.4869067661937998    0.6325913419221753    0.7456617072970776 W
   0.4951570564962527    0.6182237831355683    0.2450502405582441 W
   0.5158867465322801    0.1309223317679689    0.2478413803506670 W
   0.6660542203655193    0.7401701038650462    0.2409207554158290 W
   0.1752761290635970    0.7532163530673978    0.1204886669301941 W
   0.6722448273108964    0.8704537211767689    0.8715791364986726 W
