Yb12 Sm13 Eu13 Y13 Er13 Zr64 O224
1.0
  10.6298921481540543   -0.0003851610880628    0.0013328513193080
  -0.0007705144339285   21.2629424090288381   -0.0060161652186778
   0.0026656926938092   -0.0060161818440360   21.2612869941466336
Er Eu O Sm Y Yb Zr
13 13 224 13 13 12 64
direct
   0.1300295276384899    0.8105252367383059    0.0629567634049088 Er
   0.8697879463302101    0.8125028586069296    0.4426033693113560 Er
   0.6154279030205624    0.0612622277780540    0.0658804588098815 Er
   0.8734033232957278    0.6859946054101181    0.5617147926611923 Er
   0.3808437179551245    0.8097554294563432    0.1817244414162612 Er
   0.8824137023255961    0.3176997882444662    0.4381850414634170 Er
   0.6346453646801000    0.3100843352030964    0.3132840816690712 Er
   0.3722842547469445    0.6883833467504837    0.8105678542638487 Er
   0.3750930452974104    0.6852473074102412    0.3075888572496679 Er
   0.8701871881625792    0.4384910620715106    0.8093494685825569 Er
   0.1202717897654168    0.5613824527390575    0.3154895402667527 Er
   0.1273889100630627    0.6893236302875935    0.9377162952966809 Er
   0.1239136086195450    0.8110525890101179    0.5625728834558195 Er
   0.3798464487199280    0.5649357207394099    0.9373767873441929 Eu
   0.6253808109408558    0.8106035906452069    0.8118389266885727 Eu
   0.3757024511377554    0.1886602648391394    0.8133177329272567 Eu
   0.1233107267235813    0.3134546419504441    0.0640906408016566 Eu
   0.6240444666556061    0.8109534603733978    0.3118551287760219 Eu
   0.8765692816629869    0.9367702672134777    0.3146891426249770 Eu
   0.8759023731444165    0.9360646761854707    0.8141227872054463 Eu
   0.1209250503164467    0.4396011648764069    0.1894936370653268 Eu
   0.3715274034834851    0.3148724726024884    0.6864122549859426 Eu
   0.8684021618171376    0.3148958929881702    0.9359434000929404 Eu
   0.1238704518657209    0.6881957635437393    0.4371507327630860 Eu
   0.3755492276110474    0.1874330990340198    0.3115715240440882 Eu
   0.1243090907080735    0.1875474464744709    0.9384471374788205 Eu
  -0.0003528059230447    0.5004069553023862    0.6062637627960515 O
   0.7479032971991847    0.1238841510302856    0.9840566318960192 O
   0.7500073413477895    0.1249372645966790    0.4819519676843166 O
   0.9646192523774539    0.1257773016583480    0.3761781718937132 O
   0.9676410020927856    0.6243964961740992    0.3735995181412970 O
   0.9614969318747748    0.1241430260135430    0.8749540241140090 O
   0.5421697233695129    0.6264935173760767    0.8740434967481754 O
   0.5351927545149360    0.6259968284112016    0.3748752126739686 O
   0.5338606284988565    0.1229877955944562    0.8759628553297274 O
   0.5381436569710196    0.1255026262539886    0.3755446212013914 O
   0.7537631650192085    0.6258322636563020    0.7683135672344200 O
   0.7533179120444659    0.6245234593927621    0.2691572121805150 O
   0.7478112268617738    0.1243929593851205    0.7676212154087528 O
   0.7525379899525140    0.1233192364734382    0.2697087324716630 O
   0.9663705346013965    0.6258526621060903    0.8752625680676671 O
   0.7529232449955219    0.6266043851423974    0.4828941820215774 O
   0.7535295588361562    0.7359967697095110    0.8745958515545612 O
   0.7474403795000000    0.2312351568002118    0.3740424501346311 O
   0.0002501395363543    0.5002151346636727    0.8919122126591392 O
   0.0036519662538398    0.5027722529914784    0.3933105659502551 O
  -0.0000248232017842    0.0000372434598969    0.8948326674208820 O
   0.0000000859462399   -0.0015944165011914    0.3978708495202359 O
  -0.0022195406816146    0.6102803208338401    0.5017906356091288 O
  -0.0013361025587540    0.6092634603932157    0.0000968938939386 O
   0.0010019934306425    0.1081349554705042    0.5004779043240610 O
  -0.0011668798434966    0.1063036755016089    0.0004910627040564 O
   0.2107630326197746    0.5005908497168408    0.5000178903993979 O
   0.2087868615336765    0.4995387356315411    0.0013488040467962 O
   0.2141326721933501   -0.0016816119615265    0.5006619318173329 O
   0.2128137799412061    0.0020580945896984   -0.0014422452899567 O
   0.7915497307794889    0.4993396252854100    0.4993636088842250 O
   0.7901616710478975    0.5006562470441307   -0.0007973165672142 O
   0.7921507392048415    0.0003565609669737    0.5011901253026128 O
   0.7857122958136422   -0.0018821402603495   -0.0008899162631995 O
  -0.0001877149031571    0.8876446088536945    0.4991075468837499 O
   0.7523158582334935    0.7309571592437165    0.3758693336886446 O
   0.7527259277306581    0.2243399893059299    0.8776983045245959 O
   0.7491501014806585    0.6255988830222288    0.9795334714716817 O
  -0.0003435685100198    0.8907231798998566   -0.0009319273593187 O
   0.4992469267307267    0.2492625216824300    0.8963212780384467 O
  -0.0007064352520192    0.3960993269350199    0.0009638936139517 O
   0.2742885756539987    0.7503269293204494    0.0010487665316170 O
   0.2883491236674385    0.2494638365285539    0.4984318120885926 O
   0.2923267028110300    0.2499411802539507   -0.0006464370410346 O
   0.2502148423691375    0.9816383600032622    0.8749978996168143 O
   0.2509491319542681    0.9789649722047145    0.3759373472152053 O
   0.2500810006976084    0.4827854886729079    0.8753732149776018 O
   0.2484559784244779    0.4839629405245762    0.3745802165461149 O
   0.2815561113997527    0.7509466966592845    0.5013686056097121 O
   0.2499285776013235    0.8738802682145450    0.9814442089465789 O
   0.2489390489919321    0.3756351646483022    0.9816803840902102 O
   0.2514651386901681    0.3774398813393058    0.4805747334335844 O
   0.4532016377991271    0.8751848167547673    0.8761403691882492 O
   0.4604894336699374    0.8742904032722396    0.3753089812631255 O
   0.4626736859979244    0.3764088281085999    0.8750789119477782 O
   0.4632753246558729    0.3758977878007377    0.3747686501930316 O
   0.0416273861544142    0.8753829260262811    0.8736525934112784 O
   0.2509506406656117    0.8740230102164538    0.4844345150439905 O
   0.7031243351373124    0.2485278038376817    0.0018301212349718 O
   0.7184391418832863    0.2501528944336352    0.4999019890608054 O
   0.7226954049777113    0.7505519916149369   -0.0007346719286522 O
   0.7533426536109500    0.5204142054472902    0.8730310379468487 O
   0.7469633662952492    0.5219231502435081    0.3766354403225265 O
   0.7491021695051560    0.0186765176404085    0.8753095521251117 O
   0.7513645965927547    0.0193929792125786    0.3744381960678074 O
   0.0027018154727232    0.7501639153550325    0.8611341356115140 O
  -0.0011349405253246    0.7512713029174853    0.3591175642061222 O
  -0.0007066388716765    0.2501195893359673    0.8540108285576558 O
  -0.0009673913321973    0.2502216637610223    0.3578513979437560 O
   0.4990154570545171    0.7495653334191067    0.8891185529599352 O
   0.5006319443945392    0.7494930546489563    0.3941622804332228 O
   0.4986840858056303    0.0003585885811846    0.3563729739574289 O
   0.5033066318650276    0.2522306377457718    0.3955439628115937 O
   0.4989265779871846    0.8526017012921743    0.5009041953410893 O
   0.5058362816062068    0.8511720456979057   -0.0032418936414086 O
   0.4994124211259878    0.3579657105299706    0.5003284672666061 O
   0.4968817807149915    0.3573922055207111    0.0028519606069005 O
   0.7198053326418872    0.7506584375444049    0.4988098369735115 O
  -0.0020871479575574    0.3935490920717509    0.4982790385690885 O
   0.4997168201792268   -0.0012608196132161    0.8559714373894612 O
   0.7529469185416300    0.8729245734458182    0.5193696374097726 O
   0.5019152982404801    0.5015543096213295    0.8539992308676422 O
   0.2494332527327661    0.1274509335056891    0.3754934882807154 O
  -0.0078245625203791    0.5018837972624485    0.7502203729116250 O
   0.0006283374195454    0.5049932481860441    0.2508269428535495 O
   0.0030224324169799   -0.0053963396149948    0.7487370240036749 O
  -0.0022693879538027   -0.0025095780018810    0.2505388270047725 O
   0.2499494273589969    0.8729898387190509    0.6237845486080714 O
   0.2504346724584336    0.8700087591230345    0.1251257462078893 O
   0.2525298919223155    0.1237248774634113    0.8773210705496716 O
   0.2558418479224429    0.3770792601853195    0.6238525466606477 O
   0.5015488502802725    0.7499239571862321    0.6089707990941781 O
   0.4963813675579354    0.7511476837537724    0.1077911082835247 O
   0.5012605090574351    0.2494602927347974    0.6031154478960473 O
   0.4949314066465135    0.2513221175716687    0.1097495841109204 O
   0.0022229192284685    0.7490689551156287    0.6374205001395605 O
   0.0020504947981478    0.7496840775941501    0.1398372101856098 O
  -0.0057082875756864    0.2474704875280399    0.6470535352721680 O
   0.2507042305217637    0.3746294069303172    0.1280940624877297 O
   0.2497763372909287    0.6256450335337584    0.3713164759042774 O
   0.2518935942749106    0.6288218836980798    0.8745940278124414 O
  -0.0033277654819255    0.2512832345066595   -0.0003730398909116 O
   0.4945604234098915    0.2511795465046789    0.7492225124070705 O
   0.4999122862248268    0.2539110181604454    0.2529673988803721 O
   0.7563309168417642    0.6269567665100603    0.6257673930184315 O
   0.7598556630244760    0.6251957614744132    0.1246760297812553 O
   0.7505372674226481    0.1248916356954712    0.6246997936016270 O
   0.7432329607643234    0.1213989285360622    0.1236654315723667 O
   0.4977907815337761    0.4996947251947290    0.5006589755117561 O
   0.4981616082895435    0.5036393754393297   -0.0003639797899484 O
   0.4969019358903047   -0.0030708315653482    0.5009197504016598 O
   0.5036994107683985   -0.0000183460879183   -0.0012508413730647 O
   0.7492212062641828    0.8749504593596188    0.8776610739715647 O
   0.7555513337677544    0.8710948964009596    0.3755262758100270 O
   0.7556724257430338    0.3781105308346733    0.8727343809150166 O
   0.7504425130983056    0.3711092909764988    0.3758118169635233 O
  -0.0037331306392893    0.7511646833907329    0.5016300541417017 O
   0.0033807166758516    0.7498535105711861    0.0000803065255948 O
  -0.0003968147580388    0.2515790668393411    0.4962468604999103 O
  -0.0033528065308621    0.2501339775572486    0.1441624782011583 O
   0.4997696424590120    0.5008738630466246    0.3564292733605350 O
   0.0021599996966546    0.8458111621876209    0.7490295529851406 O
  -0.0036381685040094    0.3601093537672411    0.7519412342045627 O
   0.5338654416061290    0.8743490584865942    0.6243476609349293 O
   0.5343979677668270    0.8732929274859466    0.1244910858875560 O
   0.5436418290937095    0.3756617032319267    0.6241585821413526 O
   0.5344411026517304    0.3751190533612601    0.1268402558192433 O
   0.0420006595774535    0.8738499540899987    0.3747304629994033 O
   0.7486064687302202    0.8749564224413767    0.0180431975482524 O
   0.7517405349005383    0.3747829698801224    0.5160573220069498 O
   0.9574292153480126    0.3757454510407255    0.1258376810636020 O
   0.7496399354652979    0.3737207690664061    0.0218816581479343 O
   0.0020207372564850    0.6457618902644978    0.2502797479973694 O
  -0.0011195417996906    0.1377540529100029    0.7504770903038253 O
  -0.0010980820206164    0.1438947228900124    0.2498545423023680 O
   0.7513401782296639    0.7639920197547193    0.6230301343558394 O
   0.7517121652661578    0.7666270243176527    0.1234546274043846 O
   0.7477336274122705    0.2700457055360311    0.6259059650274633 O
   0.7489950307110569    0.2675824779107099    0.1255903009243715 O
   0.0055990513668945    0.6494249034290993    0.7514411267201702 O
   0.9605392149817117    0.3742395804379905    0.6248428329112802 O
   0.9669664318199900    0.8743698228697091    0.1239949734833663 O
   0.9719758029255127    0.8743392393001959    0.6247993463675037 O
  -0.0016451002212705    0.3569089955045926    0.2498358047187461 O
   0.2228998531846095    0.7494701042046182    0.7504350761050396 O
   0.2191742279718881    0.7489013576871111    0.2508602762359977 O
   0.2036069143362134    0.2497661843774861    0.7510641954485217 O
   0.2103425780328522    0.2516484618973096    0.2481629421532790 O
   0.7875499923165594    0.7490051450231554    0.7481348828138931 O
   0.7925399926081437    0.7509427135956903    0.2504397199145090 O
   0.7857851692772276    0.2497847519907032    0.7502162823384892 O
   0.7870853662163207    0.2510501971767163    0.2531526615241661 O
   0.7511751725882588    0.9793047044383483    0.6247632294914492 O
   0.7495569129458868    0.9799951212014666    0.1241062136401932 O
   0.7529029423813511    0.4832000770614770    0.6256510456957626 O
   0.7469151007316552    0.4823597857345819    0.1259533546642974 O
   0.7531824204095517    0.8744313567346236    0.7264439241079461 O
   0.7510701458816518    0.8753510562684093    0.2270503478503503 O
   0.7513894557694920    0.3769665397504605    0.7333112102338211 O
   0.7436354336377847    0.3727282166089895    0.2341035039446125 O
   0.0020882090747353    0.8513079198618715    0.2491186521951146 O
   0.0347265511476196    0.3758964154895740    0.8758139474628600 O
   0.4981835797563489    0.7481793864058049    0.7481451020968822 O
   0.2479695530538550    0.8751252599005637    0.7671053071442774 O
   0.2514515961978246    0.7358654851396903    0.6249862366398622 O
   0.2504342572816690    0.7355016322374894    0.1260804647350230 O
   0.2495800157747825    0.2269979647564711    0.6259062331867208 O
   0.2471684135730333    0.2298279338286344    0.1236766347907039 O
   0.2502671342316610    0.6262529477231841    0.2335159696996940 O
   0.2486087123261203    0.1238404337849435    0.7324293366214466 O
   0.2508775893813333    0.1254084061020718    0.2272962806566943 O
   0.4647263724422104    0.6265733334937521    0.6262316923348726 O
   0.4566687200201635    0.6241314627574273    0.1234959956830511 O
   0.4610672623719408    0.1249542123300754    0.6249804833007292 O
   0.4661022855341729    0.1238742451807653    0.1236124014151730 O
   0.0365646342337975    0.6243962523990318    0.6267229590199588 O
   0.0413877572804005    0.6259651817075228    0.1256008804544893 O
   0.0360956051281948    0.1233196576360814    0.6252695779569100 O
   0.0314017505960903    0.1252617222918362    0.1246300110718983 O
   0.2518693985840251    0.6247918296177328    0.5189755568420702 O
   0.2469846642840670    0.6261728423779112    0.0171122496898719 O
   0.2495175362992847    0.1241683406785997    0.5172233527761394 O
   0.2504303970618164    0.1253515840300977    0.0200438466240592 O
   0.4995112183043978    0.8922410880369117    0.7497279170876543 O
   0.4986784103115108    0.8921580584961827    0.2486485689875568 O
   0.5006286427278076    0.3956729012253388    0.7495661990575352 O
   0.4965259899974113    0.3931269067138338    0.2500945945963438 O
   0.2539215846324782    0.5225102941323412    0.6231468276108529 O
   0.2494324075702695    0.5208320515125512    0.1243714238178913 O
   0.2501044668505731    0.0152018927388636    0.6249512100348800 O
   0.2483662697398073    0.0175945674521567    0.1255952380436311 O
   0.2930868187651466   -0.0012638447221184    0.2487308041309291 O
   0.2850325214435753   -0.0005854381642191    0.7494659404994292 O
   0.2525001775542051    0.6265238924431606    0.7316088326583299 O
   0.2875915799387800    0.5022176255304116    0.7512597308197040 O
   0.2487042656137343    0.8751557894905186    0.2683270389444667 O
   0.2510856159711176    0.3749781200763800    0.7695429624912008 O
   0.2507488688306958    0.3745209651325827    0.2710111887470336 O
   0.4979943605808072    0.6479399227297181    0.4992390861202964 O
   0.4965506131954003    0.6556506605449629   -0.0026373419181717 O
   0.5007746021604940    0.1416625018578612    0.4998829813389024 O
   0.4978072428130303    0.1383936142380421    0.0007547475091587 O
   0.2516910932921200    0.7630382510999926    0.8751267502122427 O
   0.2820682431252728    0.5013225578379009    0.2512400409427719 O
   0.2490164490242457    0.2716204483630394    0.8755516367218036 O
   0.2479447369816427    0.2698195852586938    0.3751271288939032 O
   0.4934072782889623    0.7501773156589098    0.2499277902789292 O
  -0.0037698081989795    0.5018512870195144    0.1073181590088600 O
   0.0014573840865007   -0.0012823334526776    0.6070764069794483 O
   0.2530057467778171    0.7663876102486443    0.3742702285094740 O
   0.4988673124203844    0.4990513998631235    0.6455142183779047 O
  -0.0002998646613279   -0.0003833436322133    0.1054688941274030 O
   0.7106330075931501   -0.0006967579129622    0.7497371994603499 O
   0.7132032633541425    0.5011264641883459    0.2498239977306583 O
   0.7177220707674692    0.5005401143528584    0.7496475754811653 O
   0.4991879998388712    0.1062085412368176    0.2501336919728078 O
   0.7057581658914618   -0.0001099203863953    0.2487216849505792 O
   0.4972506912852471    0.6089754588641869    0.2511921172037213 O
   0.5002399925980903    0.1049119920640985    0.7495623049548163 O
   0.4933330863035499    0.4970919043132052    0.1493300107280333 O
   0.5003374579436800   -0.0003019794804727    0.6426062144149298 O
   0.0345213447441023    0.3744836575014233    0.3759467548732943 O
   0.5020066754880631    0.6097035368398264    0.7502956140848118 O
   0.5026025746273820    0.0012023191527068    0.1395522965723772 O
   0.1308125818300479    0.9369236474606505    0.1869369678279799 Sm
   0.3733908837826146    0.0605296945448039    0.4364774786789148 Sm
   0.3762988026421312    0.5637314398756800    0.4381164000222730 Sm
   0.6251830221938611    0.0607762875305787    0.5604999285392919 Sm
   0.1248249230032061    0.5629898882294222    0.8104696897564583 Sm
   0.6290788139690213    0.4386364271809243    0.4376964236769492 Sm
   0.8671943663188686    0.1866271423735406    0.0647721043852501 Sm
   0.8786180292868161    0.1894290523536097    0.5612251144581930 Sm
   0.8704529276900068    0.0624145430469079    0.1891145398192620 Sm
   0.8760110640485166    0.0605344556015084    0.6860348797475940 Sm
   0.6254299274576893    0.1897460095515841    0.6868065483900130 Sm
   0.1271706446959451    0.0608074539510362    0.8121271344906766 Sm
   0.3805169791743979    0.4405980075674921    0.0643883331715246 Sm
   0.8749789793646281    0.5590385792286514    0.6827415517910740 Y
   0.8667067527298300    0.5632318895217462    0.1896664708478789 Y
   0.1244018705550494    0.1892724734645897    0.4367855229043132 Y
   0.6241324612651918    0.9347465461516264    0.9424764309290338 Y
   0.3747078660153403    0.0597832588233093    0.9400742233618714 Y
   0.6265098416419878    0.6857022035619924    0.6856254140094209 Y
   0.1283430751598439    0.9361673820868112    0.6846588456100204 Y
   0.3756941414692379    0.8103254241157521    0.6854421001581369 Y
   0.3784622005728353    0.3143453000870451    0.1911802907856870 Y
   0.3756085001843520    0.9349551881523926    0.5608624895414218 Y
   0.3729160239494944    0.4399429552789680    0.5628915225999254 Y
   0.8738685608010093    0.6875613869147562    0.0632360102926540 Y
   0.8773619329754598    0.8111737569732075    0.9396863369019669 Y
   0.6228721757684983    0.6863420660565671    0.1848353593161649 Yb
   0.6360290028427684    0.5631548760734936    0.0609759607064715 Yb
   0.6230381803636182    0.3191416854631511    0.8101434306630654 Yb
   0.6199005926189937    0.1864717152048239    0.1874201825008427 Yb
   0.6278733832535300    0.4428087636241643    0.9343089772707699 Yb
   0.6234437495169640    0.9366175871257167    0.4363704695408295 Yb
   0.6292947456922942    0.5619489795818819    0.5631115288972638 Yb
   0.1206374859763752    0.0635706692049877    0.3137902249017480 Yb
   0.1245524641459537    0.3164637550289708    0.5600218245040242 Yb
   0.1179001296789228    0.4365971021001031    0.6855475178149389 Yb
   0.3742485594209479    0.9370599439472316    0.0633679046564388 Yb
   0.8745237493615298    0.4373081318021400    0.3129327231706035 Yb
   0.8698419996371113    0.3122906447034668    0.1895170875291656 Zr
   0.8764104894958358    0.4368804678008631    0.5631139953205611 Zr
   0.8757868420009752    0.9365654563895283    0.0623735869868883 Zr
   0.8768359444737265    0.9362205262612799    0.5612397385937249 Zr
   0.8754865506251894    0.3140322539787882    0.6880521260312312 Zr
   0.8695832862646686    0.4397014233422610    0.0628392701986815 Zr
   0.3726223354539341    0.1875481459522444    0.5611866449602662 Zr
   0.8763544890087043    0.8100983814847080    0.6839752743446458 Zr
   0.1222987629045161    0.1865142185189097    0.1876008918633249 Zr
   0.1226567044231124    0.1864396594349063    0.6871523591035879 Zr
   0.3765385356613513    0.0617278804106749    0.1867421628586009 Zr
   0.1260044300110177    0.6882395966777001    0.1876895395897494 Zr
   0.1276113336337322    0.6885046033934253    0.6862910318408100 Zr
   0.6224212264015629    0.3123249410797394    0.0650608133006589 Zr
   0.6259443115435119    0.3128616329740150    0.5605408231982218 Zr
   0.6251304959114414    0.8108805108497766    0.0633921735524974 Zr
   0.6258444230364151    0.8117149057514851    0.5621986666501397 Zr
   0.8755277505992493    0.8111190414470080    0.1849571296449461 Zr
   0.3729118540928460    0.6874268383417237    0.0637648194182385 Zr
   0.3747234848680468    0.0622548648712026    0.6867086422422132 Zr
   0.3767060130967330    0.5625424020263156    0.6871322204450014 Zr
   0.1287171421667931    0.8104634125616863    0.8134146006838132 Zr
   0.3749512318136892    0.4388285210830131    0.3133579490055440 Zr
   0.3756769560754005    0.4387978504870321    0.8117142431555696 Zr
   0.3753452159884119    0.9372900558865747    0.3128255908083081 Zr
   0.3737066859971251    0.9370016254928848    0.8119552913868948 Zr
   0.8760578934328035    0.0627551587213762    0.4374213780528842 Zr
   0.8726833225998066    0.0621199272063207    0.9390025828747839 Zr
   0.8745379971796658    0.5626138867195242    0.4381525762579430 Zr
   0.1277897500156025    0.8111496943460956    0.3120301881647636 Zr
   0.8745734497172393    0.5630861655273615    0.9374753927737681 Zr
   0.1238159597155138    0.4387832050199533    0.9371276967286554 Zr
   0.3760649526356385    0.6871696134609017    0.5636166216253694 Zr
   0.1269326112316703    0.9369731094067857    0.9393790098939727 Zr
   0.6241496056139975    0.0625223503749118    0.3128617964065086 Zr
   0.6236720466356310    0.0615043691642952    0.8125741244027874 Zr
   0.6254393223315684    0.5636321224141521    0.3118198238717097 Zr
   0.6281396901366616    0.5638200798251930    0.8112460644491011 Zr
   0.3783629242540562    0.1875263002717581    0.0637471134132547 Zr
   0.1231861626830349    0.4378136898469789    0.4371540344424105 Zr
   0.1223083568966062    0.3153404059017940    0.8118713058364968 Zr
   0.1206938382731218    0.3129856746793138    0.3127945950255812 Zr
   0.6298264533545314    0.6894898704396316    0.9365207005204969 Zr
   0.6265256389236091    0.4377814351136393    0.1895292091326162 Zr
   0.6271657993069573    0.4384912108385473    0.6867312320602605 Zr
   0.6207587853470977    0.9371513812557397    0.1850959756072175 Zr
   0.6234049061966465    0.9368505882175203    0.6866952127403233 Zr
   0.1257029559919218    0.0618379909560066    0.0637353070990946 Zr
   0.1258471172057226    0.0618368677974467    0.5620274123382758 Zr
   0.1220268286798187    0.5641407398820193    0.0622570914493133 Zr
   0.1237247229224669    0.5624901062637558    0.5629761707587484 Zr
   0.8752242592607870    0.1862768608296914    0.3132774350495308 Zr
   0.8736965807625251    0.1867760505513169    0.8106336581609340 Zr
   0.8755388344275455    0.6878942217601697    0.3119784513671098 Zr
   0.8780986510419119    0.6881899688978238    0.8129818308816367 Zr
   0.3736024817547542    0.3142563243569966    0.4380025917710305 Zr
   0.3789892346441984    0.3149640267300734    0.9373863291030495 Zr
   0.3753588475443626    0.8119126981932767    0.4378083009796929 Zr
   0.3727956716764102    0.8103687389109518    0.9388134942789175 Zr
   0.6259881362140821    0.1882273349830368    0.4385011081940938 Zr
   0.6226296928588754    0.1850560320281554    0.9383567192547415 Zr
   0.6269110571333674    0.6863013665224041    0.4379098830373885 Zr
   0.3756266370459635    0.5642764281746124    0.1882481372256017 Zr
   0.1264608447609957    0.9360932980936350    0.4378457086295731 Zr
