Mg38 Zn38 Co39 Cu39 Ni38 O192
1.0
  12.9160351223383820   -0.0001741064837478    0.0004443792631441
  -0.0002321450124310   17.2207700691910652    0.0005512488140597
   0.0005925217750758    0.0005512740262585   17.2202130860374005
Co Cu Mg Ni O Zn
39 39 38 38 192 38
direct
   0.1690304644101037    0.1307992252720214   -0.0029671624339147 Co
   0.4983394366664184    0.6299438961148887    0.2500321294070893 Co
   0.3322289773547289    0.7477472587964702   -0.0039272348128375 Co
   0.4984137034025371    0.6272297422816726   -0.0006208901162408 Co
   0.5003555451093787    0.2531833660895037    0.8748565658374363 Co
   0.5057880185092589    0.1337486899879166    0.7469529893317741 Co
   0.6646312530530778   -0.0020810757072547   -0.0023334588737259 Co
   0.0020338588940490    0.8775916316146074    0.3815102754103757 Co
  -0.0006422881672479    0.6283287962960290    0.3790493463216423 Co
   0.6651974980640225    0.2482873452295891    0.2468508633295201 Co
   0.4974652210576040    0.6169489032458733    0.7506177647310717 Co
   0.4985355155312072    0.1243511188107716    0.0004392415001464 Co
   0.1725752218362621    0.8808043603239063    0.7525411947226476 Co
   0.6731988475837755    0.5009261839674536    0.7500539631182697 Co
   0.6682485682798434    0.7496203131635683   -0.0041727112053211 Co
   0.6654193679331238    0.7522458211756872    0.5037196834063803 Co
   0.8314826601291299   -0.0009706651465115    0.8761464775447776 Co
   0.8302932396603790    0.8740296398570051    0.7516061988808396 Co
   0.1651495573131587    0.6261160018539164    0.2528484174548708 Co
   0.8330732210812073    0.5053779609832623    0.1297525275321353 Co
   0.1675309680141396    0.6178442797654449   -0.0045428656298753 Co
   0.6722915186655634    0.2543746454618500    0.7533518580910034 Co
   0.3341949498669462    0.3730726509003459    0.6228886946156315 Co
   0.1640072497273204    0.3758487420720343    0.4999565450629298 Co
   0.6680445307889754    0.3766793456537944    0.8793136927942217 Co
   0.3336147062377161    0.2485251625922950    0.2553258080321118 Co
   0.6665410933458306    0.8739074432488692    0.6291560531367685 Co
   0.3283078598793712    0.8782560854099812    0.3780153543406561 Co
   0.8319531673246294    0.1247874782297265   -0.0006680257280346 Co
   0.3382799855283992    0.8780101680004947    0.8716355086562961 Co
   0.3305702640431522    0.0016955107322987   -0.0035177195072052 Co
   0.8368849501297183    0.1206954910441233    0.2451768164132329 Co
   0.8336323138337934    0.6285429525273332    0.4989384784097440 Co
   0.1649770812121661    0.4940070991960366    0.8740623267727228 Co
   0.8336978308446226    0.6211246288429105    0.7495119407905233 Co
   0.6662570217412411    0.6248309788889910    0.6250759804735112 Co
   0.0014336395661076    0.7461705199186417   -0.0105843381850488 Co
   0.3321938011414954    0.6259407183262438    0.3741157979326642 Co
   0.6622686773195988    0.1282115185010688    0.8797910105669270 Co
   0.1701724732363863    0.6154169729510442    0.7489792535567840 Cu
   0.4935564416728539    0.8756457174734731    0.2511530781692005 Cu
   0.8329595307102576    0.8732788916206050    0.5045049565690359 Cu
   0.1727014304559936    0.2495222463728052    0.1255437396126523 Cu
   0.1605639944617323    0.0010919443197277    0.3837485167061437 Cu
   0.1695103642358682    0.5018816552828803    0.3739710674543474 Cu
   0.1609980462603419    0.8788931293963493    0.2546715784027548 Cu
   0.1544693512722611    0.2508976123380854    0.6232745431975187 Cu
   0.5038891420709979    0.4991194420534849    0.8776325314373903 Cu
   0.5124762692814118    0.1237729162860392    0.4996145923131694 Cu
   0.8383051168031755    0.1230926426770613    0.4958372176796745 Cu
   0.4965245532260612    0.8736835040702270    0.7469419581711578 Cu
   0.1539422492462072    0.3715256582502045    0.7484460719943373 Cu
   0.1683387580041841    0.8715673242884983   -0.0110716490198413 Cu
   0.4959374423066983    0.0007919067904614    0.8709221982599494 Cu
   0.1677667594654532    0.0023569057577132    0.1183101336483564 Cu
   0.8265802968943198    0.2524015383348026    0.6244089690966018 Cu
   0.6710668594065042    0.8721194478285245    0.3741797112496693 Cu
   0.6719655896464590    0.8738129693279474    0.1214457884229085 Cu
   0.6646081360247379    0.3760807103495718    0.1257281668609098 Cu
  -0.0104296218199229    0.4966191688408870    0.7468351672147641 Cu
   0.0057431531085010    0.7489527751738817    0.2551320315195045 Cu
   0.6770550842643475    0.1236242325829142    0.6309993157891672 Cu
   0.3309653649983407    0.0039321254227412    0.5023872193217198 Cu
   0.3345294823617266    0.2528881748561980    0.0007914821524998 Cu
   0.3384750385210948    0.4916788144004355    0.7504190699022213 Cu
   0.3329561626467462    0.1283922068261140    0.6229343377659883 Cu
  -0.0005568608869460    0.8723253996256277    0.8684901269057139 Cu
   0.3357422133848901    0.3720527798726103    0.1275309350380277 Cu
  -0.0018864731311397    0.1220308872279076    0.3751124485850215 Cu
   0.6616710809489584    0.0002535744688536    0.7531790429155653 Cu
   0.8332920407908454    0.2568692539168334    0.8846384386657927 Cu
   0.0039843023005745    0.6254644196666204    0.1210778035762747 Cu
  -0.0010348555665746    0.3759219636798852    0.8737249608500202 Cu
   0.8338446092838709    0.4988047872977098    0.8810240245312151 Cu
  -0.0122664020588025    0.1273343513051886    0.6324144356606997 Cu
   0.8421636402206431    0.7495524318576576    0.1205254770190566 Cu
   0.3333595241821748    0.7473605930042657    0.7488549495066634 Cu
   0.8357754395021340    0.7448771865280610    0.8674252181424644 Cu
   0.8296029160906628    0.5019859454812999    0.3723573792171275 Mg
   0.6675616139095335    0.6222333108370104    0.8770275639685136 Mg
   0.6662214417188042    0.6292992055724974    0.3741040536011632 Mg
   0.6665855314621929    0.6325435125407209    0.1249228657787145 Mg
   0.1644303494052511    0.2475303492822331    0.3786275924972653 Mg
   0.1690109237200265    0.2542625452766173    0.8720160330016857 Mg
   0.5028834885239108    0.5004218471991602    0.3737704844347854 Mg
   0.1649975802813331    0.7528516378422920    0.3795812738390660 Mg
   0.6649181932052539    0.1190610125108528    0.1247656207497959 Mg
   0.8329188079358486   -0.0007510775799346    0.6306192269297836 Mg
   0.4951093723497160   -0.0043458789395868    0.1272392146645770 Mg
   0.3343047777769655    0.3743897707196334    0.3780957566488125 Mg
   0.5062331497626028    0.0057248577794280    0.6241239867140623 Mg
   0.8303177839823771    0.2483690697097486    0.1258703959722212 Mg
   0.3347242483755126    0.1322632500617464    0.8708263332949273 Mg
   0.5019590602040297    0.2486794633456241    0.3770716433330911 Mg
   0.5114811019344798    0.2485755720077420    0.6202897007136957 Mg
   0.1640288526622854    0.7451555260458524    0.1201745826289966 Mg
   0.0055726967718751   -0.0009101006472632   -0.0058708897442968 Mg
   0.1712155259872567    0.5017145143966923    0.1267499284612628 Mg
   0.6648357902961182    0.5011742921880395    0.4970459418599534 Mg
   0.3345870432035786    0.5006636946138897    0.4972910325943113 Mg
   0.6688455333161114   -0.0076859575538104    0.2479487115130260 Mg
   0.3370843994985456    0.4968726160051249    0.0007735551029429 Mg
   0.3271903718707720    0.7531479926909616    0.2508234099686250 Mg
   0.1683349313941717    0.3744626499531283    0.0021028842284635 Mg
   0.1621552986043693    0.1279989470366208    0.7473740933996071 Mg
   0.0037326929851903    0.7481211160684912    0.7497150187487659 Mg
   0.6636997142978229    0.7439068189569469    0.7509684215538034 Mg
   0.5071276008201719    0.3751405535165245    0.7478306689191845 Mg
   0.3361010464615520    0.5010828058604908    0.2520147779625664 Mg
   0.4978547800811496    0.8772627706699981    0.5019969299941949 Mg
   0.1677593274234785    0.6242872970066470    0.5005353080630669 Mg
   0.6660402838715891    0.5017752919651464    0.0063166656138477 Mg
   0.8358645353135497    0.3791375207057814    0.0077212320028996 Mg
   0.8364862369011905    0.6302397201523318    0.2512173263999548 Mg
   0.8301680412338237    0.3774016745748369    0.2482150730486093 Mg
   0.3321880483610832    0.7496829967601414    0.5027927863329777 Mg
   0.0021220432164763    0.1245970248580448    0.1198636470615553 Ni
   0.0005204695543654    0.8720273036129923    0.6289913957027310 Ni
   0.6640233302909500    0.2513753494156118    0.0037951077943541 Ni
  -0.0087599930187704    0.3777234996627097    0.6194484497946523 Ni
  -0.0030470508160996   -0.0004550278920183    0.7524838115209261 Ni
  -0.0067267480845358   -0.0032551412468154    0.5054829367384320 Ni
   0.6636576479070566    0.5045405444804271    0.2481671913786752 Ni
   0.6687167937485058    0.3767423533896584    0.6218123821908338 Ni
   0.0025266646351486    0.0006707898736626    0.2509695442394345 Ni
   0.0010853815647788    0.4988576578993834    0.0054988248491383 Ni
   0.8390710034817265    0.7523594469006130    0.3803035870033686 Ni
   0.8325661614081244    0.7495741534247203    0.6276492837894053 Ni
   0.1537840969871655    0.1246972259539216    0.5050796091270493 Ni
   0.0041355230731016    0.7515761135244841    0.5066046934428063 Ni
   0.4977366905930397    0.7486099407731612    0.6272629559727804 Ni
   0.8333647951307473   -0.0042266889478397    0.3730417273444041 Ni
   0.1697923286827506    0.0059813817960747    0.8713322811497413 Ni
   0.8374509433732765    0.8716368954713801   -0.0057011618202275 Ni
   0.8353601220726329    0.6239542973143957   -0.0005641705641703 Ni
   0.8272453480505225    0.3771141676113118    0.7513982936087066 Ni
   0.3279080125584554   -0.0029340024399215    0.2546041791053714 Ni
   0.8310630837806671    0.3761472516070427    0.4941688178609241 Ni
   0.0006921879109789    0.5011482108414055    0.4946147528811393 Ni
   0.8300023451361230    0.1258284602509744    0.7594006834906905 Ni
   0.1695717367807430    0.7504249881830836    0.6286289823206036 Ni
   0.3365830107805578    0.0098726498009931    0.7472304379840384 Ni
   0.1670452775759528    0.8753035269087539    0.5059412840344424 Ni
   0.5029737871387576   -0.0026691063361800    0.3777300823298990 Ni
   0.3353545204230832    0.6177811460899556    0.8731853964210088 Ni
   0.3332922779859142    0.6222959557668151    0.6271894347416744 Ni
   0.5031489157579544    0.3736311171517459    0.4993403699128726 Ni
   0.4989159179762856    0.3741685263763031    0.2508349561110014 Ni
   0.4991190174283128    0.3735867010302895    0.0013086513920725 Ni
   0.3328814939568063    0.6270173590059915    0.1243997811994609 Ni
   0.3341467758060920    0.3736352594680114    0.8716928333126592 Ni
   0.4965921134027195    0.7456361897427798    0.8722422082277902 Ni
   0.3201207661118677    0.8747572632408105    0.1230083892427862 Ni
   0.0001943108094219    0.6180639410959842    0.8713993559762496 Ni
   0.8322850419231757   -0.0067214443726098    0.5050865374039883 O
   0.3343807746882293    0.0109188087258990    0.6211844346394195 O
   0.8345023072698337    0.7529777961423478    0.5036475361345971 O
   0.8358812644670190   -0.0032671060286814   -0.0012474222477571 O
   0.6501680177413178    0.0010173886751498    0.8719778849019263 O
   0.6705100133827061   -0.0026218434832400    0.6355050914516420 O
   0.6702397788359671   -0.0124365199025419    0.3685044231322868 O
   0.6643881340742051   -0.0059923452414843    0.1244558318696814 O
   0.3340653602868800    0.7444512607645003    0.8682913539473791 O
   0.3341393600818729    0.7449333869491576    0.6292258969950557 O
   0.3283832315018793    0.7525882095783262    0.3759783748015297 O
   0.3251849196266075    0.7501472106773668    0.1256169408534601 O
   0.8380009543800462   -0.0047048472497591    0.2440152198194246 O
   0.3308460807018633    0.4946307540500625    0.8779786725290003 O
   0.3400017117195492    0.5004821786545679    0.3753763853425752 O
   0.3359156379315098    0.5059541602762206    0.1253471474075133 O
   0.3322969498142453    0.2533885838900350    0.8603476764904088 O
   0.3526343953644598    0.2468307416988526    0.6228788030541836 O
   0.3407006652434870    0.2447691400956485    0.1379106444575783 O
   0.3422804888334629    0.0093497930516468    0.8722606000352737 O
   0.4951819839486193    0.7527086899414007    0.5039252136427166 O
   0.4925726862503424    0.7349132245664655    0.7481932600783572 O
   0.3307450722005903    0.4981512321487302    0.6196940846685833 O
   0.3342640586527449    0.2484801702990314    0.3807081318644908 O
   0.8296430368560621    0.2502100438143206    0.2476564558626178 O
   0.3212764786128052   -0.0010102891391967    0.1252876018647377 O
   0.6645504831420740    0.2385479691068442    0.1258602220821494 O
   0.8359970582151344    0.7463680850094960    0.7525610852049381 O
   0.0132947176177823    0.0012210759321784    0.1183403410407977 O
   0.8336878968610179    0.7472650709289270   -0.0205582837856558 O
   0.8338381132624283    0.4992207646482741    0.7357987368431135 O
  -0.0109988493064498   -0.0008730480385961    0.3782995282143095 O
  -0.0059584016111704   -0.0102931956605657    0.6307175353292547 O
   0.0038048179632356    0.0044689823778530    0.8729318727095002 O
   0.8300599255286589    0.5016314436844665    0.4953883902640396 O
  -0.0065342695011706    0.2468049668063493    0.1266430030411165 O
   0.0010833706967241    0.2482956046541291    0.3709757024480373 O
  -0.0242661604766315    0.2599440016154211    0.6258348290156542 O
   0.8264787331657175    0.5046022197769811    0.2481591980311361 O
   0.3443181365147527   -0.0009570688269513    0.3841247094151771 O
   0.0062891451429286    0.2576715749135437    0.8749307443015590 O
   0.0067511550623896    0.5089349971138069    0.1275180034594684 O
   0.8298943286955340    0.2547711084623787    0.7717722470748960 O
  -0.0058490801187125    0.5017778695857772    0.3754142956239795 O
   0.0051601505812088    0.4993793257035546    0.6110519421244858 O
  -0.0071076597783491    0.4915909115347733    0.8881642390095971 O
   0.8326926067100910    0.2543714834699836    0.4857153513917659 O
   0.8527936266192562    0.7509526737827534    0.2620015974073298 O
   0.0002038201541972    0.7393247196701164    0.1078294120995534 O
   0.0031975249222095    0.7528717631780274    0.3882041272754406 O
   0.0029788083846827    0.7494792728227714    0.6293783365798193 O
   0.0086460473626764    0.7410465440135038    0.8683342981202206 O
   0.8291887925893381    0.2536939020142414    0.0006475773312042 O
   0.8339523064188099   -0.0000450227396877    0.7534456671311458 O
   0.8320536301555954    0.5008827029866929    0.0159987416128411 O
   0.6638935770785824    0.2504746607773449    0.3683405032549359 O
   0.4913895916013308    0.3753823668613549    0.1260369772283135 O
   0.6606704447619544    0.2562235110768147    0.8832098365555034 O
   0.5003989574921925    0.3742361030064307    0.3752694693132810 O
   0.5056115379395605    0.3745129871796088    0.6219132003306072 O
   0.5019807441377220    0.3656038863730265    0.8751597598250522 O
   0.4996665734176848    0.6341564675687703    0.1248991080252028 O
   0.5017497343806629    0.6283539492056299    0.3737779722070671 O
   0.4968008089772591    0.6226559688421469    0.6255608166033177 O
   0.4999473272137430    0.6264084033962066    0.8768197892192379 O
   0.4783764081419897    0.8756410175945686    0.1291000518440861 O
   0.4925905571644134    0.8760789952351793    0.3760012378371870 O
   0.4969516398160406    0.8769176835219878    0.6298310932043730 O
   0.4966468267517133    0.8644770363827385    0.8635221234048974 O
   0.8312584864507562    0.1231886454904911    0.1212694166499544 O
   0.8438533034745553    0.1177114754904982    0.3629264312930947 O
   0.8292028226425221    0.1263740405001162    0.6413182283537959 O
   0.8291196158457560    0.1126671397432329    0.8794102356973906 O
   0.8328187866252746    0.3733981249496512    0.1284460084316561 O
   0.8277042803781421    0.3808512300100426    0.3688172395275107 O
   0.8276920396453534    0.3746508923103133    0.6175759311213093 O
   0.8287219903881003    0.3856567543842310    0.8817163523814654 O
   0.8310990295004522    0.6325904360221430    0.1257644860758324 O
   0.8296961933629502    0.6271895689337318    0.3758528845971000 O
   0.8334528987344696    0.6289326960819722    0.6223862211817732 O
   0.8348333855018970    0.6122324991785335    0.8755192477963566 O
   0.8585456579019468    0.8669225148136835    0.1159631813416954 O
   0.8404923286775201    0.8752347042628987    0.3822648692217576 O
   0.4946560355960759    0.7569358279032519    0.2506292824033395 O
   0.6749363885581245    0.2539037681356027    0.6239997936516969 O
   0.4966611019670126    0.1430291880947587    0.8765547093807609 O
   0.5025506494423736    0.1223297260637178    0.3800011439779976 O
   0.6597147280611986    0.5135850119665761    0.1274875331801896 O
   0.6646332882724297    0.5056575837480007    0.3725096815755849 O
   0.6639659787021422    0.5014103720437604    0.6206005455839225 O
   0.6765781901762352    0.4999866962152461    0.8807923510420770 O
   0.6800031985078320    0.7552347392918629    0.1202944952063048 O
   0.6698314996698235    0.7561388524982700    0.3766021817993941 O
   0.6642061818760181    0.7460643446704344    0.6284046437010739 O
   0.6584436703379672    0.7446476469098297    0.8732935852347283 O
   0.1676931002887519    0.1319267521804379    0.1222162678324536 O
   0.1539051254471717    0.1258895803391610    0.3832086264643254 O
   0.1430330850644037    0.1313230805475374    0.6274860778604731 O
   0.1707270670177763    0.1318837402439722    0.8681653705911643 O
   0.1783331538946369    0.3732491740349703    0.1270222900704900 O
   0.1699500756838593    0.3684698973217134    0.3764625387090710 O
   0.1674989330959263    0.3688712596200208    0.6205800765497524 O
   0.1703367882996948    0.3740676771391859    0.8778177212591138 O
   0.1714443271781519    0.6235762241561472    0.1263202464682987 O
   0.1690112320520668    0.6322560428100885    0.3772886034860861 O
   0.1699910375309283    0.6246618467217120    0.6307297821568160 O
   0.1687130269624579    0.6143433319664311    0.8660226383249001 O
   0.1620998527943498    0.8648792218409064    0.1025822316075088 O
   0.1660704399137248    0.8745703525654811    0.3879270791247530 O
   0.1682693061489761    0.8754432010286471    0.6276823852716572 O
   0.1843051372777635    0.8843968056471938    0.8753614058857895 O
   0.4991361819581835    0.1161616260118748    0.1263646209767320 O
   0.5274354118634202    0.1267956729278795    0.6168384442601467 O
   0.4977310348309776    0.7516438640342032   -0.0021519929404424 O
   0.8157456687613055    0.8883307994727471    0.8749254802257083 O
   0.4998800408889759    0.4986179797314803    0.4960668817483613 O
   0.3292621022100900    0.1283822383903712    0.7432947669214304 O
   0.3351887236580741    0.3720740420983088   -0.0051725459696997 O
   0.3369284801531328    0.3760089754950215    0.2574847887796184 O
   0.3361378320638743    0.3739966707672206    0.4995682747771379 O
   0.3488227364589929    0.3788917310124902    0.7459480901866716 O
   0.3353624261917969    0.6215096350846824   -0.0018386982445740 O
   0.3344745496831449    0.6278424246767091    0.2502570869734858 O
   0.3312879084995937    0.6251460544920965    0.5016763492465487 O
   0.3321608242445582    0.6036377470948102    0.7507136833035455 O
   0.3343337619998427    0.8743858357768753   -0.0033477928438669 O
   0.3098142040035569    0.8760179168260093    0.2491650571507585 O
   0.3345412512510110    0.8751533768151472    0.5047619708408435 O
   0.3373179188601262    0.8941070456352298    0.7484331803669976 O
   0.6645479560453322    0.1226495677218195    0.0016720979977858 O
   0.6662616866273937    0.1159495389124876    0.2485934184394566 O
   0.3126352997825479    0.1255590654295659    0.5044968816647845 O
   0.5149941697344044    0.4976439234721517    0.7605623207677193 O
   0.3356340511028073    0.1323330028116265   -0.0040016753515914 O
  -0.0017346933338854    0.8734916537251860    0.7549229008747336 O
   0.8345714116754389    0.8712953360274680    0.6302428886115494 O
  -0.0015186680285451    0.1278412818957026   -0.0017914671908080 O
   0.0016913817318497    0.1203421941230056    0.2379331462549756 O
  -0.0129994479774625    0.1219206708317392    0.5160048468454287 O
  -0.0036638071021684    0.1268184568966925    0.7513532139023468 O
   0.0030810137593056    0.3761016999065068    0.0130546553298683 O
  -0.0002022495572927    0.3796892228460262    0.2490167873457225 O
   0.6907314800833900    0.1217682919159082    0.4844703435418274 O
  -0.0037279581263792    0.3776966403046597    0.4958936981114805 O
   0.0006981603429310    0.6195895225527663   -0.0105107922670935 O
  -0.0000174083727013    0.6239743604646508    0.2604111756679544 O
   0.0039428144658876    0.6263794744513596    0.5004844161000248 O
  -0.0033427019008494    0.6187710076287944    0.7502563032866096 O
  -0.0015875137965703    0.8732652383634404   -0.0185999982078030 O
   0.0092346905848569    0.8804098412018136    0.2516993952613980 O
   0.0084412427105524    0.8737705029055818    0.5070401465382398 O
  -0.0189175546275196    0.3798311298209816    0.7388901639692697 O
   0.6710590028011684    0.1375647048716089    0.7630230568830051 O
   0.3326910288542779    0.1189794181439461    0.2580258514591821 O
   0.6635605568183954    0.3782357822805730    0.2419368707136392 O
   0.1689282962900573    0.5012407310418380    0.4922528588713853 O
   0.1432584073093698    0.4840976990522016    0.7514122927256590 O
   0.1712352992584081    0.7356792069164555   -0.0066439322502633 O
   0.1598296013217949    0.7484222061914093    0.2486128837413670 O
   0.1702478840070952    0.7486625071336470    0.5064125919536989 O
   0.1738918237801378    0.7618962282529731    0.7489319591688549 O
   0.4970677285463424   -0.0069285104935444    0.2511593069065038 O
   0.1737270603187633    0.5019172254217128    0.2532844049297117 O
   0.5154559572591040    0.0013981086809571    0.5017409486448110 O
   0.5008702012780682    0.2515825986237685    0.0021965461127302 O
   0.5012345031497947    0.2485191590857361    0.2546535381550753 O
   0.5108405388042698    0.2477685131552170    0.4981964600564407 O
   0.5098642551761484    0.2520143349965559    0.7442131249421641 O
   0.5010628894370148    0.4975734613520565   -0.0037404986299377 O
   0.4996250568320573    0.5010618829403276    0.2521914548386869 O
   0.6651073318970490    0.3769234896758621    0.0092289529504726 O
   0.4982074767064676    0.0199787423113760    0.7448990350001854 O
   0.1699388878727004    0.4966627482597694    0.0032690801763338 O
   0.4955318484924778   -0.0006262763104596    0.0036199500597450 O
   0.1558740189537077    0.2492764225682259    0.5035893875602379 O
   0.1601655966674680    0.2551696329204093    0.7440690697930796 O
   0.6689802502261831    0.3768583062541002    0.7479463854478073 O
   0.6670772728019606    0.6255666577153749   -0.0000529817449369 O
   0.6686241050570549    0.6342065513835659    0.2502971051179612 O
   0.6656774129818909    0.6264958558203763    0.4978352460785820 O
   0.6707523355122793    0.6232014583940270    0.7521816544171851 O
   0.6643944973111350    0.8745303300361571    0.0036239448826828 O
   0.6846594064198760    0.8720952128686609    0.2364692323382584 O
   0.6663735857187566    0.3792416904623752    0.4987916000078302 O
   0.6643452549134720    0.8629483863418730    0.7476992933579157 O
   0.1689686269724357    0.0138536989125983   -0.0106702336581199 O
   0.1661842439542168    0.0016475925580666    0.2677450285539899 O
   0.1507479898932011    0.0015222067362318    0.5024590768563029 O
   0.1659468752738497    0.0053440162441664    0.7496143219699071 O
   0.1700110363215137    0.2527792264205522   -0.0041567636252971 O
   0.1690789867846361    0.2466910082793454    0.2566827917654064 O
   0.6573783150446231    0.8725029697575239    0.5120441709045236 O
   0.8425511847955995    0.8702599899178592    0.2459184500025785 Zn
   0.4973308701223382    0.8757737446084638    0.0031362111101943 Zn
   0.4981300575735557    0.6272932198212903    0.4996574969007189 Zn
   0.4972280814338222    0.1214120569108001    0.2510670955700815 Zn
   0.1724522741145684    0.3729715642519579    0.2525185679875626 Zn
   0.1664497541716184    0.1237289933661342    0.2510526299315182 Zn
   0.6645306919290899    0.7548798723812385    0.2488066638919967 Zn
   0.6736117903721549    0.2458507147788077    0.4970346760564237 Zn
   0.0036576161927433    0.5030906927510179    0.2518500598949034 Zn
   0.3315797523624050    0.2537533639544708    0.7411703288940119 Zn
   0.3314533616878685    0.2486401494387590    0.5030254796401314 Zn
  -0.0095851509335598    0.2537309189220990    0.7496813988167830 Zn
  -0.0078736306271010    0.2495786582940068    0.5008592630356313 Zn
   0.0022131988424803    0.2436861205668250    0.2488703980914347 Zn
   0.0019580762560325    0.2533995208905035    0.0009523287204178 Zn
   0.1585720673005903    0.0032019102837489    0.6264511720836309 Zn
   0.6736307906900632   -0.0025131940628369    0.4985109150169020 Zn
   0.1669902361335039    0.4958019310201701    0.6284192639479642 Zn
   0.6651824013836986    0.3750854417215290    0.3738444526639182 Zn
   0.5016756543129949    0.2477339897671683    0.1280840607485597 Zn
   0.6698320978290477    0.1244205809651328    0.3675137674974445 Zn
   0.3332299013998795    0.8802176526745502    0.6268321436230821 Zn
   0.3334466972810926    0.1231124735254594    0.3813544025428335 Zn
   0.3337644460809348    0.1245112727256965    0.1231246125772767 Zn
   0.0119804181302491    0.8754807336175359    0.1232775633062555 Zn
   0.0020525707537888    0.6224325166767847    0.6251672014914849 Zn
   0.0032559499523373    0.3758090454891976    0.3736953142300428 Zn
   0.1711032595103308    0.7438165864612241    0.8702671068946608 Zn
  -0.0007910604912688    0.3717176388582284    0.1303990000520165 Zn
   0.8319840445193439    0.5011493086241305    0.6159795126333810 Zn
   0.8343062852001529    0.2501601000964872    0.3675361361697135 Zn
   0.8353007241562673   -0.0026394774868810    0.1210899146723061 Zn
   0.4950994949243777    0.7535475333084919    0.3764074023512204 Zn
   0.4912002789161528    0.7552387869098622    0.1243682719588361 Zn
   0.5006736017575077    0.4976694783579677    0.6195761556039091 Zn
   0.4985884062335074    0.5012485736118654    0.1277349087215011 Zn
   0.0027495123709116    0.1278577289582932    0.8756949660567570 Zn
   0.6586979354509893    0.8698185615809586    0.8703513513559370 Zn
