La5 Yb5 Nd5 Sm5 Eu6 Gd6 Dy6 Y5 Ho5 Er6 Tm5 Lu5 Zr64 O224
1.0
  10.6551193978784173   -0.0050414058911857    0.0073065109804487
  -0.0100782307675405   21.2953742826532633    0.0188633974342810
   0.0146060624824001    0.0188554605479753   21.3005262188804529
Dy Er Eu Gd Ho La Lu Nd O Sm Tm Y Yb Zr
6 6 6 6 5 5 5 5 224 5 5 5 5 64
direct
   0.3917584917122353    0.8273986718736202    0.2051952787464968 Dy
   0.6191896119266505    0.0681202293289734    0.0610563981708503 Dy
   0.6433566984510823    0.4295892886758552    0.4435596104629989 Dy
   0.6245736217212445    0.9304016547568297    0.9465708107431936 Dy
   0.6281880064874981    0.3108698622822146    0.8199367383298117 Dy
   0.8891964814950900    0.1934614208270244    0.5764037079796251 Dy
   0.8847623351485212    0.0685346233954685    0.6911833843833461 Er
   0.6243501452647050    0.5546118234600663    0.5708749532673714 Er
   0.8915364542835214    0.3185505922457509    0.4382310667305126 Er
   0.1457291794527712    0.9338613775472533    0.2035932709764028 Er
   0.1164523456425214    0.3050282645170588    0.0719713464243600 Er
   0.1018127840209700    0.8111631105404162    0.5793322769068161 Er
   0.1187678316152793    0.5580304599651684    0.8130119632814412 Eu
   0.1388466657866609    0.0625505499570584    0.8124894921585932 Eu
   0.1247370874547819    0.0632904465224039    0.3135030847564222 Eu
   0.3785737624936506    0.1792143097250742    0.3027905579645065 Eu
   0.3843305633495857    0.4311557497765363    0.0661112788485565 Eu
   0.6372636361425681    0.1888515557058025    0.1874623984110894 Eu
   0.8668873026712564    0.9447881372902959    0.3103904829998696 Gd
   0.6422558651240166    0.8153682046881906    0.3181224223532333 Gd
   0.3727734291180858    0.0730440115735341    0.9438329602501748 Gd
   0.3768617914577402    0.9316360907306817    0.5482539221457251 Gd
   0.1305881612725801    0.4503220933463807    0.6743829258543855 Gd
   0.8740008719231115    0.8185115344344754    0.4458367183822991 Gd
   0.8598973905477936    0.6856720423737128    0.0563613685409301 Ho
   0.6223224861374863    0.1882114060904467    0.6881062336572848 Ho
   0.8741566506856985    0.5693020448154842    0.6930439536053905 Ho
   0.1264114117028639    0.4365494542759177    0.1838859434929360 Ho
   0.3788313525929329    0.3095836604668903    0.1859395280207233 Ho
   0.6138160341133184    0.5656083808281577    0.0602718380677799 La
   0.8654034750855834    0.9415007618413176    0.8135438212481576 La
   0.1161190276380472    0.1844290451219669    0.4451344665172792 La
   0.3632913155227910    0.5649826698936771    0.4426025927244583 La
   0.6185424317819743    0.0605526822301975    0.5619906008946639 La
   0.6473371509763934    0.3074401221804008    0.3130706556756942 Lu
   0.8564522798811988    0.8062762456443913    0.9460669604297380 Lu
   0.4110249833679120    0.4249157186109213    0.5660159866641657 Lu
   0.1420393840883639    0.5546741500528382    0.3066592598641669 Lu
   0.1396624609535066    0.1979133211583593    0.9443361291233743 Lu
   0.6179611056715900    0.8130938889264395    0.8170849662339965 Nd
   0.1363935361144858    0.8050367922832825    0.0711052950502242 Nd
   0.3836642732453580    0.6849412021266758    0.3097082261690350 Nd
   0.3700554152411384    0.3126910249277871    0.6927932879729793 Nd
   0.1230343347511716    0.6860451513122520    0.9391290859069209 Nd
   0.7800758767196374    0.6251717259700011    0.3730593759725410 O
   0.5261231358359698    0.6090732212343374    0.3682542194849107 O
   0.7587060724968192    0.7289379329120670    0.8792253415334187 O
   0.5305990959387559    0.6356686393867870    0.8661235022662871 O
   0.7633811810808070    0.7462349454682805    0.3773629291781183 O
   0.7570419466588023    0.2455919153900192    0.8782352233147784 O
   0.7517853892757199    0.2354232144901454    0.3759333226859025 O
   0.7487774075009166    0.6243135839479893    0.9812643981351465 O
   0.7227845366326238    0.6139914470330917    0.4953755318536449 O
   0.7548681247607353    0.1211693313199859    0.9971681501796685 O
   0.4862250804613860    0.5095254225516372    0.8436550079980835 O
   0.7243952401406057    0.1152330345043998    0.4577539250962993 O
   0.9575182049937970    0.6228532865474716    0.8792402633437325 O
   0.9652219003211445    0.1266674422260192    0.3767283382791577 O
   0.7925334676905286    0.1217561290372725    0.8760068697273277 O
  -0.0122492496371061    0.6178796390365099    0.0064444250286946 O
   0.5002486705967201    0.0017982068359809    0.7729606853067164 O
   0.7563833442803605   -0.0034987240458101    0.0012396488139988 O
   0.0155041235178511    0.1142898179616614   -0.0259917822268266 O
   0.5293119120788280    0.1174511486683792    0.8759569683864421 O
   0.1697024712304520    0.5100389998460459    0.4873855772206175 O
   0.0320816114481638    0.4967164343763604    0.0001673472598878 O
  -0.0190977902538543    0.6144750881679218    0.4866030933820295 O
  -0.0020564695635938   -0.0040044288274769    0.3904543746050426 O
   0.0008169933398308    0.0027519035513624    0.8885697467079144 O
   0.5046824355565541    0.4966930764382105    0.2701469616215670 O
   0.1975499336026879   -0.0068253145654313    0.5101288188978474 O
   0.2385065925495117    0.0052363800943244   -0.0004384172255929 O
   0.7986071988520016    0.4909801995599170    0.4927837503892269 O
  -0.0132823468917142    0.4945977701460591    0.8805966323981037 O
   0.7741471198518638    0.4969508228686940    0.0107043734817738 O
   0.5032249545716628    0.0036903269457838    0.3614309697460498 O
  -0.0158750472160395    0.1096457414145273    0.5060567715092436 O
   0.7995427232577133   -0.0026372615570751    0.5012040383461868 O
  -0.0038551501257204    0.5180155763242623    0.3801020855525213 O
   0.5271633355186188    0.1310106599800872    0.3692342799147046 O
   0.5154453235294275    0.7455310022833207    0.3848432789497343 O
   0.7566666522964103    0.6290280267830558    0.2527435739799168 O
   0.5124066856773760    0.3571986308874401    0.5024286283888221 O
   0.5134321601633179    0.3561672759767497    0.0049868247623355 O
   0.7088189086518044    0.7413353748940811    0.5009572593833331 O
   0.7201849876763897    0.7466996576947711    0.0029206820334312 O
   0.7102949171956542    0.2380653473693149    0.5061325132634250 O
   0.7153243319177605    0.2496917765535821    0.0014439596709658 O
   0.2835119186628072    0.7587141981951085    0.5010325079663385 O
   0.2820556898813804    0.7488035032468333   -0.0020780109632112 O
   0.2949422534757675    0.2570701035309574    0.4918519099965382 O
   0.2835320628359425    0.2584967698064893    0.0058350208238587 O
   0.2754871370846507    0.9974739461777152    0.8768915337605306 O
   0.2475533969901132    0.9903384939616526    0.3765084166486589 O
   0.2442030156198770    0.4840017231875635    0.8817426811199014 O
   0.2598979594227109    0.4883527664330926    0.3689278704357866 O
   0.2383854271745148    0.8783190049768304    0.9984353438128568 O
   0.4889035872665662    0.8588575881474421    0.0066403718938739 O
   0.4999950246183358    0.8464153871267021    0.5075110385873587 O
   0.4961835071330121    0.2639385280422019    0.3873069008057119 O
   0.5063032904429836    0.2482703929787752    0.8954592764839806 O
   0.7525445184131627    0.1286261033123366    0.7539826497934090 O
   0.7481422615810197    0.1318769435740485    0.2769393431585351 O
   0.0164842312395108    0.8900307033102608    0.5091907351363666 O
  -0.0188270260426249    0.8874346500643929   -0.0314345796794506 O
   0.0096963193241794    0.3936896707031587    0.4965266432678511 O
   0.0123568019031043    0.3752236475090455    0.0037250156860570 O
   0.7343216508354734    0.5257826583940909    0.8850042798178164 O
   0.7598007921741793    0.6267688756927053    0.7688205148544522 O
   0.7281867897371519    0.5013162989659660    0.3676075377954967 O
   0.7542140384229209    0.0158127217451602    0.3711891508242628 O
   0.0106558231911224    0.7534230947201945    0.8622673787874084 O
   0.0177716462617749    0.7333044294329200    0.3538265911419186 O
   0.0147104331096950    0.2299878626271352    0.8615878781953290 O
   0.0128281108936737    0.2570485405927681    0.3629818958911201 O
   0.5164356077327998    0.7664614643586483    0.9128753745080630 O
   0.7592174055874802    0.2648923101359845    0.1273526863981237 O
   0.7160051957240969    0.0036989798683995    0.8771828867943867 O
   0.7545976025343433    0.2661850991333331    0.6284562894274573 O
   0.7400368872715974    0.8776918859576206    0.7369747872988559 O
   0.7651299436463442    0.7626752213026230    0.6279816801506505 O
   0.2476932598602999    0.1357182979431740    0.8788508589930233 O
   0.2489682117501485    0.1308810968655160    0.3728472683295536 O
  -0.0024721297378812    0.4994211542403872    0.7420925839604026 O
   0.0062961315386523    0.4999718223407363    0.2509123805676701 O
   0.0044547587984573    0.0015183000410653    0.7464193499629806 O
   0.0077859080500741   -0.0014713192982071    0.2462384886026343 O
   0.2480023477245595    0.8759912328276965    0.6160175939369081 O
   0.2604106036163205    0.8733523605374943    0.1379560893531429 O
   0.2655714220914864    0.3841022910272757    0.6264125485580653 O
   0.2530003359559140    0.3673990363168136    0.1212387179358357 O
   0.5088158538072891    0.7431119532470126    0.6129135462895706 O
   0.5107895415868581    0.7317461992867751    0.0987715598636226 O
   0.4990679984562865    0.2492548386493801    0.6100523520122826 O
   0.5113055120051831    0.2520089477522813    0.1059344662016324 O
   0.0189424722273826    0.7613016237549031    0.6642878493731296 O
   0.2347630607997317    0.6250587176715037    0.3743567095304943 O
   0.2482882300532978    0.6250944676789727    0.8679635174013877 O
   0.0025895225195624    0.2482067574488256    0.0019318911845354 O
  -0.0069887107982805    0.2549797279276932    0.5072914124770381 O
   0.5074227883918250    0.2526663170619022    0.7540270804682797 O
   0.5077578909149206    0.2458268880892942    0.2484127830016990 O
   0.7419358943484523    0.6208554458344232    0.6296560278066653 O
   0.7513913278344050    0.6272316021649937    0.1251234582967301 O
   0.7547525100400703    0.1267765928069333    0.6235960061420801 O
   0.7384657295061839    0.1205449151393684    0.1293694038216366 O
   0.5065487176833045    0.4964255380577108    0.5050744839369156 O
   0.0071367816563349    0.7512731938087557    0.1608381064199306 O
   0.4913953095751643    0.4967066940305349   -0.0068657780570277 O
   0.4988658185644351    0.0020792580191836   -0.0030201555500212 O
   0.7535599249893178    0.8685565460252532    0.8832618262351721 O
   0.7664450544974636    0.8791594198014708    0.3772732783144319 O
   0.7499839513337838    0.3772501252369956    0.8761956305415871 O
   0.7481431455041979    0.3673121187307716    0.3798148073196720 O
  -0.0054352608333635    0.7506312689670375    0.5106319872898223 O
  -0.0097590043450236    0.7522064665766348    0.0059539012529589 O
   0.4961096680526247   -0.0011663657639490    0.4979539539664773 O
   0.7542846998233960    0.7708167202182344    0.1263007233241288 O
  -0.0079157550444680    0.2433713852906199    0.6607134122709056 O
  -0.0170036813786108    0.8486235265503561    0.7730728254786997 O
   0.9748640405778177    0.8777368471905167    0.1168012222325737 O
   0.9718802327004192    0.3750189707059551    0.6273948346444808 O
   0.9947995086643620    0.3757659901501008    0.1243873155242825 O
   0.5518977389347569    0.8691246389115148    0.6331861020641116 O
   0.5490009146060708    0.8649947665149563    0.1345615447710911 O
   0.5499999597266177    0.3729958320853562    0.6244261829125781 O
   0.5170522754834436    0.3705231990594217    0.1352226059468308 O
   0.7616043048413017    0.8682024495451244    0.5235420807053212 O
   0.7469429732855882    0.8686570456376340    0.0164535642902132 O
   0.7623069514966048    0.3669663992241540    0.5179492280310560 O
   0.7642807618557521    0.3721851137002791    0.0068553754899426 O
   0.0025454315689321    0.6411633449655214    0.7496985586744028 O
   0.0078580411307057    0.6351719961627292    0.2634719159763943 O
   0.0027205432992652    0.1397769056929865    0.7595682895527135 O
  -0.0045871894218073    0.1451607148938850    0.2499576859140854 O
   0.9674800824859919    0.8778774488183959    0.6358765370484364 O
   0.7493182602875059    0.3776082492279936    0.2511951676939136 O
   0.7462978643495658    0.3749492531160464    0.7330260897734030 O
   0.7554445637745474    0.8774385607505506    0.2354840189703679 O
   0.0127986579641856    0.8580595766668846    0.2498213002711550 O
  -0.0084275343402177    0.3490405013615133    0.7587957660896312 O
  -0.0029794195280517    0.3659484732174620    0.2483608276290652 O
   0.2224885358153780    0.7466283464485561    0.7499576030019982 O
   0.2319577185734910    0.7503623272805328    0.2481975185624575 O
   0.2214980754441539    0.2473591416806666    0.7545921241034296 O
   0.2003437487674725    0.2465546033566542    0.2616775184924589 O
   0.0053820363450074    0.2559982322239848    0.1501482611369785 O
   0.7802805378734112    0.7497739319635549    0.7547894113634811 O
   0.7789173587417527    0.2519511798841141    0.7550887861624145 O
   0.7985893732388945    0.2581284551111299    0.2530043414783211 O
   0.7356531066666865    0.9711424814165560    0.6257806260211107 O
   0.7782605713966103    0.9715346063167678    0.1256857041030208 O
   0.7409386830679227    0.4771903992819146    0.6188665726784615 O
   0.7526257976478697    0.3952162512592884    0.1276879214979312 O
   0.2852438173591993    0.8866915657111619    0.4536420469203725 O
   0.7928844617093829    0.7516414329641333    0.2496607712752993 O
   0.2677596661805098    0.3912575159512048    0.9730288030228463 O
  -0.0086777531977887    0.5034548516070307    0.6035319147798341 O
   0.4685052889894809    0.8901461266836705    0.8804302578699528 O
   0.4575829699153068    0.1246893606284672    0.6275702841167805 O
   0.4215979863238738    0.6073687094183965    0.1167170841594976 O
   0.4577141538081678    0.6138610931883678    0.6077089891884360 O
   0.2489701076346940    0.1222032395547517    0.2270842630674547 O
   0.2614466058231487    0.1241365663714811    0.7382241376693088 O
   0.2583486312219773    0.6178453127301023    0.2359674943191238 O
   0.4464032871626932    0.1207795433581687    0.1193462391857875 O
   0.2590628925232232    0.6267230905734773    0.7285180870205356 O
   0.2431085294203225    0.2329611471121436    0.6250227907349731 O
   0.2359137034956501    0.7153258525011527    0.1196556194676852 O
   0.2469107320406871    0.7315651513015334    0.6221444211387458 O
   0.2925976791369276   -0.0062133739811428    0.2495137661541915 O
   0.2636258081953471   -0.0029179587572436    0.7497641658451697 O
   0.2661882164563283    0.4945945747403079    0.2441981350293665 O
   0.2577760715592362    0.2302896084976959    0.1314231456037383 O
   0.2841919673868948    0.4967015985968707    0.7450493703849441 O
   0.0147353726506284    0.6325303274460093    0.6198575736452534 O
   0.0330616444667685    0.1264319683047686    0.6308457230845305 O
   0.2697686988257179    0.3903550376427670    0.4933391747371686 O
   0.2227294969306132    0.0153982972075338    0.1252354124998498 O
   0.2407317084391823    0.0321586633169120    0.6349199164010493 O
   0.2347900745096625    0.5050917538771668    0.1140898927128504 O
   0.2313725792973956    0.5328660526692529    0.6222783137592982 O
   0.5017828213576311    0.3718261469059871    0.2593685253637311 O
   0.0375124075679075    0.6217095088249273    0.1339316536578627 O
   0.4918232727637240    0.3968860472546258    0.7498012133408927 O
   0.4863419935480158    0.8809477517787079    0.7532058286172607 O
   0.2503327202410544    0.1328207421233812    0.0156693425165994 O
   0.2423810015415786    0.1267179381200814    0.5226019655079525 O
   0.2417981564416966    0.6092855297368827    0.0108760852965714 O
   0.2399050380822310    0.6308449110497804    0.5196039075739356 O
   0.0334179950049598    0.1225761981373976    0.1201430611964273 O
   0.4987075178307094    0.9062416264823069    0.2508627622356217 O
   0.7157894140358658    0.0048383338636297    0.2481934397576546 O
   0.4978016825271036    0.7440945536714919    0.7524041734535941 O
   0.7439581787443584    0.5036922877869791    0.2333406933555337 O
   0.4926638345999430    0.1498593654792389    0.4983209305584614 O
   0.4896216795674430    0.8732713469838487    0.3740960655135064 O
   0.4785298379216401    0.6621084216102511    0.4826192910292455 O
   0.2510284364480618    0.3723217832942428    0.2499278123602287 O
   0.2454982052251700    0.3711001307685482    0.7804841374494056 O
   0.2577849393562625    0.8738867380506652    0.2787682717981164 O
   0.5091623076089605    0.1481065852601200    0.0002406779278113 O
   0.2394654866401568    0.8743730858887625    0.7515279477948733 O
   0.0238498013003866    0.3658705156071472    0.8802165966929881 O
   0.0454479454663992    0.8628363926517215    0.3832623879307401 O
   0.2092948760997945    0.8784198171883864    0.8755913895484048 O
   0.4756073519779047    0.4055465159291776    0.3853592864066059 O
   0.4759225435150395    0.3784308218863632    0.8774146454174986 O
   0.7398788028106345    0.0067244742729008    0.7458424098092461 O
   0.0076386404152860    0.3858303652631425    0.3722643834278502 O
   0.2764911730924204    0.7581758210004216    0.8694008458687419 O
   0.4931296048784825    0.6392454449343737   -0.0067012189997582 O
   0.2506386748036428    0.2742664210346512    0.8834355796487405 O
   0.7202993883577139    0.5028657522202085    0.7490277708995109 O
   0.4982313306160700    0.0963266288920242    0.2460312310222531 O
   0.5098822601752570    0.1223911824154827    0.7507903620650517 O
   0.2610860984555322    0.7663477326876427    0.3745753384273416 O
   0.5105912938430079    0.6067934440792593    0.7398182468446088 O
   0.5035049293242594   -0.0025605748889685    0.1376100287218039 O
   0.4868920119765320   -0.0046891208530509    0.6402938593028269 O
   0.5164003627688303    0.6188685748987653    0.2380247873056382 O
   0.4908646410167221    0.4934957829857952    0.6418562378517577 O
  -0.0024877982049053    0.0011782499102322    0.0224509796755777 O
  -0.0080533642648014    0.0030904770588328    0.6117498957024486 O
  -0.0383375167281207    0.5032117718672011    0.1192794508496398 O
   0.5187904074882693    0.7555899752691454    0.2464456452756147 O
   0.2473965928604032    0.3567766572434712    0.3727116767378897 O
   0.5199362706214667    0.4954144036661208    0.1409456442887813 O
   0.3689041565725623    0.9404950028349025    0.0633225537766299 Sm
   0.3791426439261404    0.8117878729194588    0.6837101054457795 Sm
   0.8780356779706817    0.4309050469755501    0.8087642472499593 Sm
   0.3862817164790048    0.5652098019534340    0.9261502099660101 Sm
   0.1395326039441125    0.6982901985120346    0.4434688755312880 Sm
   0.6479468659556734    0.6960217965724762    0.1888847513469274 Tm
   0.8927774406291815    0.5683290009448040    0.1950519943808778 Tm
   0.8699624451246311    0.3072317494309427    0.9456252940931055 Tm
   0.3633729710260237    0.6829129513129155    0.8018147659428236 Tm
   0.8731722439916567    0.4401293645916065    0.3103621024150438 Tm
   0.1327638044571194    0.9481438386955838    0.6805258175698151 Y
   0.6341147740246559    0.4326516760644034    0.9435756335789564 Y
   0.6387435226046654    0.6901883108832714    0.6936221271804667 Y
   0.8516233812451079    0.6805115553689343    0.5556105036585698 Y
   0.3871604109638989    0.1865710643302088    0.8157379562029187 Y
   0.1387642842281191    0.3205590437859610    0.5592934042687727 Yb
   0.3840415475580756    0.0670191098934492    0.4331281305736542 Yb
   0.8660983812533736    0.1884170480947944    0.0656703558479116 Yb
   0.6326853931367827    0.9439253248475854    0.4330703092077192 Yb
   0.8693614296646239    0.0689544457333743    0.1952167902961460 Yb
   0.8666195233723151    0.6900041320474744    0.3116854385990266 Zr
   0.8637647156077061    0.1889265270199157    0.8128338190242999 Zr
   0.8815000794594510    0.1923637927978938    0.3144394014092796 Zr
   0.1064473509124685    0.5683050451755316    0.5553018727383385 Zr
   0.1033487990310622    0.5611327082112700    0.0678258265115633 Zr
   0.1227478882363644    0.0631978296384580    0.5662908792876615 Zr
   0.1206324152530602    0.0702137918274738    0.0517140701581856 Zr
   0.6082110418179144    0.9434532679928118    0.6992083701776657 Zr
   0.6354672462793038    0.9410894648187031    0.1862383272387802 Zr
   0.6131221330178059    0.4306408787635864    0.2026620402034139 Zr
   0.3771404597723583    0.5617574074533949    0.6831294134027244 Zr
   0.3960257330825837    0.5539162861593786    0.1966697921897035 Zr
   0.3912118106673794    0.0580108805800931    0.7002429321854188 Zr
   0.8844681612129348    0.6890361795875116    0.8167564926863438 Zr
   0.3676475499570692    0.0578704736285609    0.1833655025202291 Zr
   0.8727998572761414    0.9375291581662718    0.5684054413825516 Zr
   0.8754389890187754    0.9322714170752799    0.0508805839584861 Zr
   0.8819357208908297    0.4328205406285260    0.5620894140245035 Zr
   0.8963621854158631    0.4312324015318851    0.0581767033318577 Zr
   0.6247023607487255    0.4366944792513842    0.6901401180815779 Zr
   0.3843579995767689    0.3265705564581736    0.4374598281407518 Zr
   0.8641247348229213    0.0563176447998678    0.9461272829402592 Zr
   0.3941660525825277    0.8087301323127130    0.4343637715101050 Zr
   0.6445200930644983    0.5649738775012384    0.3011655222483405 Zr
   0.6307417747878208    0.5653895696166792    0.8121024308595479 Zr
   0.3852639575537282    0.1941163391705386    0.0635728264429758 Zr
   0.3726554387952947    0.1878355257356324    0.5636447731113308 Zr
   0.3644355692533308    0.6778845741842284    0.0591452950799832 Zr
   0.3805107208514722    0.6912475692841202    0.5599691372921540 Zr
   0.8647398542117568    0.3259141543732837    0.1832429860467202 Zr
   0.8772267451413246    0.3137254667029971    0.6902922578617160 Zr
   0.8809394801965944    0.8195068272888745    0.1848516286974332 Zr
   0.1178057029424969    0.1867457714287737    0.1878195314515815 Zr
   0.1357349841113244    0.1842781079691508    0.6913011242535827 Zr
   0.1318263737086446    0.6840248413081919    0.1956264493492575 Zr
   0.1257008067117001    0.6846856585278267    0.6842791519267111 Zr
   0.6453315970216511    0.3214120031480138    0.0717415906086147 Zr
   0.6333183982384178    0.3042373818272522    0.5637659627359627 Zr
   0.6119286208001248    0.8066330456125470    0.0640745970501958 Zr
   0.6332305709679920    0.8097603493166673    0.5683486107767163 Zr
   0.6422446654457157    0.0690930243374264    0.8091228454478755 Zr
   0.6261061450487979    0.0648830019141627    0.3144670171984040 Zr
   0.1350159935145970    0.9464140333086698    0.9428041079890903 Zr
   0.1242264215755801    0.9367835176154460    0.4383833996032976 Zr
   0.3561734771022911    0.8222781769251196    0.9353018488469921 Zr
   0.6165687136360342    0.1906569116449306    0.4338411338959889 Zr
   0.6505925730109167    0.1821593204340572    0.9364830092863310 Zr
   0.6398925598546981    0.6800425087098294    0.4298210238895664 Zr
   0.6213753012183176    0.6892653009700620    0.9368426327374259 Zr
   0.1149372665896006    0.3223289858153631    0.3077912314729835 Zr
   0.1227204266407033    0.3043894857949879    0.8173973075234758 Zr
   0.1272459865121516    0.8078708588066853    0.3145378189755531 Zr
   0.3858024216224713    0.3156623283177815    0.9407908819724046 Zr
   0.1448702674736452    0.8089545596914479    0.8115772503037594 Zr
   0.3687892554861474    0.4367357609058430    0.8150534378872141 Zr
   0.3806545521404054    0.9402571908348064    0.3249421003619813 Zr
   0.3528926848040186    0.9317643515346885    0.8090616464481328 Zr
   0.8738385078140414    0.0609908357241763    0.4369243652475607 Zr
   0.8577779695152059    0.5575973003104446    0.4328231368988387 Zr
   0.8841847820388256    0.5549891045801567    0.9463727871148295 Zr
   0.1415729715420840    0.4319182937030763    0.4316437200805322 Zr
   0.1077300689276998    0.4314714022888780    0.9351388108862679 Zr
   0.3654820292675900    0.4285155483341047    0.3068131966581245 Zr
   0.8705726469359977    0.8160314251592529    0.6970349425368314 Zr
