Ca13 La13 Ce13 Y12 Mg13 Al32 Sn32 O224
1.0
  10.3004287308225653   -0.0079486084619081   -0.0012377497170101
  -0.0158967326178508   20.5942425948855394   -0.0114268695371310
  -0.0024729711573700   -0.0114259291823214   20.5952158756707959
Al Ca Ce La Mg O Sn Y
32 13 13 13 13 224 32 12
direct
   0.6242571999756608    0.0675388164059545    0.3090305221213545 Al
   0.8864534797023700    0.4345014468744712    0.5600816324378457 Al
   0.3815723579885537    0.0722889679701571    0.1861687089884079 Al
   0.3776305868875856    0.5617380479250800    0.6868961741653945 Al
   0.6312851116181687    0.4390393391408098    0.6921114039253015 Al
   0.6182451384787587    0.9350890125623770    0.6877502911424029 Al
   0.1214506495399646    0.0678092969063041    0.0641342306560321 Al
   0.1215172956943062    0.0604184879778272    0.5660010397714690 Al
   0.1223271401361463    0.5557457825969179    0.0582673613193253 Al
   0.8714856926372166    0.1954074036670927    0.3100222369146093 Al
   0.6096871089937153    0.8154935530254916    0.5664797277469106 Al
   0.3833124729218439    0.3138144967891450    0.4334999436663219 Al
   0.3715188144526393    0.3143178720784700    0.9407371051270278 Al
   0.3687838944841416    0.8123205373437330    0.9313459831136344 Al
   0.8747620814798803    0.4362129725105691    0.0602723024178334 Al
   0.6241167661286744    0.3132656088814151    0.0645443844983580 Al
   0.1258816235815291    0.3147149321471531    0.3105740159941665 Al
   0.1266589732837460    0.3164327062688532    0.8159981791169211 Al
   0.1225941633465423    0.8122976103499774    0.8090181776410041 Al
   0.3803195656401903    0.4303860381101870    0.3152859626566300 Al
   0.3665527447844331    0.9410028412565211    0.3154405265335083 Al
   0.3714064658501176    0.9306703202219597    0.8069136110399137 Al
   0.8833975794872952    0.3128040488096042    0.6862656991120279 Al
   0.8766585586290021    0.3138917588459350    0.1896840664666089 Al
   0.8748956583944681    0.5588055382364294    0.9398621123378621 Al
   0.1223612935588639    0.4323366652770182    0.4331292364352931 Al
   0.1229275622057515    0.4336614934792311    0.9428463421069146 Al
   0.3726250333528331    0.6851280404385682    0.5657168629176722 Al
   0.6258130807715815    0.0642442735025334    0.8106890274531182 Al
   0.1243790945608010    0.6877007554422739    0.6847008001861914 Al
   0.3748994544338666    0.1955051773963247    0.0681910324403105 Al
   0.6418704598941889    0.5525251783150160    0.8122867271766219 Al
   0.1270454897157073    0.6850115639330082    0.4444522631577013 Ca
   0.6239689743830373    0.0687691393069196    0.0616481324329329 Ca
   0.1281337777643095    0.0624292574441633    0.3081730574991807 Ca
   0.6303066958015082    0.3170510196359108    0.8137769379862849 Ca
   0.1312449166498668    0.1918068220888104    0.9424810091515914 Ca
   0.3736229641465794    0.5556483905960902    0.4409828160790309 Ca
   0.3538793511695618    0.0680953721107338    0.4394250814122190 Ca
   0.8736618980549202    0.6824749191045040    0.0602301027614143 Ca
   0.8829410686331066    0.0644004555313649    0.1866624809846934 Ca
   0.3709362484280669    0.1843022654920593    0.3136443316697149 Ca
   0.8750331369416918    0.8077181368313134    0.4419527328922869 Ca
   0.1334606464810656    0.4392526115777895    0.6862305972337202 Ca
   0.3633407287397304    0.8068936843313631    0.6826319252846407 Ca
   0.1246638726385675    0.8127283369208168    0.0612565009159525 Ce
   0.1262011054630179    0.6869534201347938    0.9269736804113569 Ce
   0.3693113038367571    0.3131747510149783    0.1894184059472560 Ce
   0.3703138291868224    0.9356516238003207    0.5652832466420130 Ce
   0.8977485339539246    0.5518037928799177    0.1773927068945035 Ce
   0.3788814664752045    0.1914186705980509    0.8231972574467168 Ce
   0.3700934610188265    0.6806365133203983    0.3171525715194414 Ce
   0.8975603733239453    0.4293201264266141    0.3133565093627164 Ce
   0.5996153988585788    0.9451878414689924    0.9265613394355617 Ce
   0.8899726081411330    0.1885231538969448    0.5560600792050325 Ce
   0.6253803736769954    0.3114193551208700    0.3153585737431557 Ce
   0.6234013615209998    0.4360772333487708    0.4463692526923841 Ce
   0.8898662290789812    0.3158261031139120    0.9375798649616539 Ce
   0.6186444214053179    0.9337170424188251    0.4319126129829295 La
   0.6286672085934264    0.4358416494390912    0.9395702035071181 La
   0.8685702314560414    0.8133922793090925    0.9325616973173956 La
   0.1346300307977985    0.3195561026367346    0.5498645145835812 La
   0.3678781456625839    0.5612794901462761    0.9276717672321940 La
   0.1377279939628007    0.0599585446621284    0.8167189546167538 La
   0.8783627905550244    0.5560551345500025    0.6842496955011923 La
   0.3783845491424951    0.8198569320895259    0.1960307251127397 La
   0.3749026213179710    0.3207950178031388    0.6873640994760255 La
   0.6142770241432411    0.6810618340279881    0.6829498971572844 La
   0.8705391313590536    0.9379796110419826    0.3082801349834530 La
   0.6335251463661428    0.1886178748390243    0.6896664988456968 La
   0.3621283065014116    0.9484772927920329    0.0622896592566447 La
   0.1540441218743937    0.4303036086383585    0.2147726012520441 Mg
   0.1069419854702282    0.8239176573888644    0.5586597252328307 Mg
   0.8858523740975969    0.6782123198136982    0.5617471983800195 Mg
   0.3964099873559826    0.4463202602372549    0.5729679937996992 Mg
   0.3582525529309734    0.0813512409885437    0.9632807214137327 Mg
   0.8655399657318504    0.3077371522494436    0.4357391404074794 Mg
   0.0857529107480864    0.9286820891455529    0.1820684477680236 Mg
   0.3227579501796689    0.7039495742288707    0.7994497308044684 Mg
   0.1035404706325807    0.2046138916798494    0.4119657427973531 Mg
   0.1197687437800724    0.5550430012552885    0.3236484747780068 Mg
   0.6458064270067347    0.5678859058035353    0.5497475493000530 Mg
   0.1522056299382186    0.5749935392175191    0.7853481390534046 Mg
   0.6468061226988128    0.7885253344709753    0.3246998695505849 Mg
   0.7503346855199451    0.2819349945562803    0.1267534328385371 O
   0.1979873732597165    0.0017593261795821    0.5064076065571568 O
   0.0150618996039624    0.6474639866497690    0.7483544403853354 O
   0.7644828102957637    0.2732199812836406    0.6238368708008210 O
  -0.0065915380185719   -0.0024461460084473    0.8916746442063979 O
   0.7346036754735196    0.7665587217811974    0.1271565895337232 O
   0.7498394008502290    0.3746648783047018    0.0274886764958414 O
   0.7267376656994244    0.7749132653300580    0.6226667624070414 O
   0.2010919617250617    0.0102010399875310   -0.0025641711197053 O
   0.7973913835700409    0.4979585090136337    0.5100687489077735 O
   0.1964133326088099    0.4932310936391691    0.0020551175763359 O
  -0.0007371218858088    0.1436293902806618    0.7482287303579201 O
   0.7432024412036199    0.8770377053010108    0.0180577883232837 O
   0.2110477579038130    0.4897050130686991    0.4919141113856714 O
   0.7621351461007113    0.3788695773925220    0.5182621695029688 O
   0.5132024510908563    0.4985719677541626    0.8532971882214674 O
   0.0014773750918819    0.1030747980426805    0.0064086287012730 O
  -0.0008000117293261    0.0992518726953260    0.5076420625594272 O
   0.4981923131013798    0.4902912368740996    0.3553052999290811 O
   0.5115133465539657   -0.0084429198802969    0.8333692256617644 O
   0.0043988874708594    0.5940949231336721   -0.0033642835488844 O
   0.4954132824416150    0.0054157226034030    0.3393759788445409 O
   0.0079233262109318    0.6039435220584075    0.5071274560517252 O
  -0.0053960032319941    0.4944283874849986    0.9139183042147826 O
  -0.0023837006784753    0.0037242260386092    0.3923246085615492 O
   0.0120081522450307    0.4932481355375118    0.3948970872675936 O
  -0.0112885625180690    0.6396460501383484    0.2433098992497809 O
  -0.0097327723614275    0.1517560682161104    0.2547799975445596 O
   0.5477387309921600    0.1247141560744362    0.3680356131017521 O
   0.7813366820842084    0.0017221775353102    0.5007410133455713 O
   0.7521893642812670    0.1207631276178415    0.7723259310159822 O
   0.7433284677876665    0.1341439980940244    0.2814979490952466 O
  -0.0069596900960906    0.8956706401980279    0.5000606544143342 O
   0.0028878326442946    0.8931231989214858   -0.0011320224883521 O
   0.0050288517599850    0.4030157166701312    0.4971102123699056 O
  -0.0018993715696354    0.3963842875621069    0.0020669751412313 O
   0.7423649114889892    0.6233866175844772    0.2738626759751859 O
   0.7655853661570873    0.5235612187027342    0.8750717478045182 O
   0.7385549929868097    0.0251697175236328    0.8704006162060521 O
   0.7368323435402233    0.0276414976134673    0.3716224238308677 O
   0.0059664172968311    0.7490915477295151    0.8514518817762121 O
   0.0027847688001637    0.7469143996387808    0.3567532725112301 O
   0.0075287268515723    0.2575523583600962    0.8547946126583170 O
   0.0020532600232005    0.2538151340037406    0.3382232477465024 O
   0.7521866749928467    0.5125565449400777    0.3807561195968811 O
   0.7483177764577600    0.6155989276106375    0.7704453315192814 O
   0.7344277466839336    0.8732588480005872    0.5288334894143524 O
   0.5549929230525537    0.1270024566994040    0.8699341108747178 O
   0.7805087536646533   -0.0016028975719587   -0.0066686463010087 O
   0.7435578484665016    0.7311492729136494    0.8698653286822650 O
   0.7516650948833822    0.7224622405001302    0.3815168262441978 O
   0.7551010729590114    0.2352714216633054    0.8794107963593584 O
   0.7564324507500800    0.2350046728664126    0.3709507826506022 O
   0.7533673642649694    0.6172036332061960    0.9789967307860067 O
   0.7577141193946613    0.6232286119470131    0.4814116873772415 O
   0.7523354360438578    0.1302785069489555    0.9835132553512815 O
   0.7530213797874207    0.1290023522404045    0.4820546655068574 O
   0.9488351927961919    0.6251306749536739    0.8845499098287799 O
   0.9702226699640937    0.6157620307546195    0.3732345106389482 O
   0.9684053776819093    0.1290947981329964    0.8776924019718652 O
   0.9481476790678364    0.1390278965196988    0.3744375479614842 O
   0.5598694030820432    0.6145640775167636    0.8683998924813489 O
   0.5337455179482734    0.6212774669714328    0.3809331605099227 O
   0.8001266813443515    0.4992474772234827    0.0018604314796561 O
   0.5370027459249851    0.3703488167625877    0.1227896354983065 O
   0.0062953454592691    0.4920532989127078    0.6004217044055538 O
   0.5305334576242217    0.8809375950597770    0.1228778694364587 O
   0.2382602720700306    0.3815378805010543    0.1383031652198211 O
   0.2655713323384236    0.3836355366065144    0.6124564205909684 O
   0.2236632209529624    0.8791770048888687    0.1281942904425190 O
   0.2388149272944074    0.8728908148714906    0.6186233709655764 O
   0.0131681807872328   -0.0058913615534089    0.2420125932192691 O
  -0.0040227861677997   -0.0032724474153910    0.7475337313346374 O
   0.0228590152464650    0.4968858910083181    0.2527688474560103 O
   0.0261616215961444    0.5063971606616000    0.7574422126519307 O
   0.2242686002568637    0.1361070317526610    0.3803420417049775 O
   0.2735138167757039    0.1252131041678815    0.8870931882623178 O
   0.2479010725759140    0.6176198070696188    0.3696457143309146 O
   0.2383684594446661    0.6319692592549497    0.8565696205505906 O
   0.0015285278022713    0.2555689652653664    0.0038518233481847 O
  -0.0062051037884477    0.2471269385134084    0.4837883340051568 O
   0.4891409808490849    0.7507768071104488    0.5957054541110538 O
   0.0109142833699079    0.7473393792286116   -0.0018885428339009 O
   0.7588924792086076    0.3711582700683594    0.3795869699846666 O
   0.7736079221381716    0.3758521741406884    0.8742115844422617 O
   0.7356062004820660    0.8629704354524667    0.3702706208494683 O
   0.7281306878735598    0.8794923058953903    0.8696741811642069 O
   0.4863519241774577    0.0103620345002877   -0.0147696497892859 O
   0.4853082431858614   -0.0006403867309939    0.5034264123076202 O
   0.4923675307048440    0.4995030198122051    0.0040851879444204 O
   0.5165492266160043    0.4978387446106476    0.5108996637316526 O
   0.7510021017752240    0.1314688806001540    0.1272768350424504 O
   0.7640523737488265    0.1247266764094684    0.6181302264142450 O
   0.7559100107916261    0.6181329726835896    0.1307187368990511 O
   0.7555226087877662    0.6215989622687964    0.6130771937977857 O
   0.4999190946195585    0.2534912932508964    0.2512024177308961 O
   0.4964420728897934    0.2489770777821886    0.7578542242296323 O
   0.0002643258997823    0.7487539031468013    0.5168607275291448 O
   0.5468702319274907    0.3894735476530966    0.6240484664496726 O
   0.4918526720048184    0.7496691104227226    0.1047520097092680 O
   0.4907183584615210    0.7522277292222600    0.8985768122453689 O
   0.5431392637345170    0.8760933258538817    0.6264281538273047 O
   0.9269304580202126    0.3723370961977601    0.1222256580344131 O
   0.9470465135456888    0.3733518232783992    0.6236290429104673 O
   0.9528648776295692    0.8730427793048745    0.1216402551475923 O
   0.9672346758978719    0.8710709149869071    0.6246672010772814 O
   0.7583386299481867    0.3710332504303638    0.2336346705990611 O
   0.7524951359377884    0.3718535486773641    0.7108491178534686 O
   0.7384722292470189    0.8786027094358779    0.2250511716740029 O
   0.7413980513958397    0.8775519082456844    0.7259682271338420 O
   0.7578238857478617    0.4767798375161024    0.1215985491453488 O
   0.7681235652226713    0.4574017188466636    0.6311705389575225 O
   0.7512053874310149    0.9862066370027227    0.1235446286858591 O
   0.7458124035382838    0.9798706382600760    0.6332827763339848 O
   0.7961218908890708    0.2522471462039589    0.2480240361395353 O
   0.5059667171003492    0.2534773919717650    0.6059583992955104 O
   0.8025978497639960    0.2553172411408181    0.7468371098008431 O
   0.7800639031833551    0.7465046569361593    0.7478988267926054 O
   0.2100463589719655    0.2555972932166649    0.2521116393386146 O
   0.2029106688344790    0.2532038468135642    0.7582046634282833 O
   0.2122271606956208    0.7467235831199091    0.2511985526019571 O
   0.1774555286958891    0.7505915807218272    0.7455694435460403 O
   0.0074378185151202    0.3557540920351505    0.2472036082144013 O
  -0.0039332007235289    0.3485667924896903    0.7513990995708238 O
  -0.0000126139852077    0.8518055680875217    0.2461071339106870 O
  -0.0036453371834906    0.8514114176387471    0.7523570908430796 O
  -0.0062520737177999    0.2560235231613833    0.1486140606134509 O
  -0.0032283970577635    0.2531923777097668    0.6442320981937031 O
  -0.0034805088482777    0.7483400895526600    0.1419103232120873 O
  -0.0140701083353367    0.7341391203013845    0.6426897489878430 O
   0.5039083198148011    0.2520786372078698    0.1053077857939612 O
   0.7839890127567700    0.7482236128416969    0.2543516410793668 O
   0.5038661481515594    0.7497729261944935    0.3971861518173314 O
   0.4754413216974192    0.7426644596476673    0.7545732657681133 O
   0.4970688148041422    0.2544384817064783    0.3936695706506563 O
   0.2642951195432217    0.6313035960946567    0.7186409094583721 O
   0.2533692278950909    0.2388141864874818    0.1242462099255422 O
   0.2527715974032561    0.2338952029329820    0.6248034903977051 O
   0.2420146097864159    0.7309203668676842    0.1205299157741936 O
   0.2406037953594132    0.7219480502313528    0.6221492040597784 O
   0.3339406350423941    0.0062961220528401    0.2490722986321378 O
   0.2930494308284507   -0.0084443291244229    0.7486741708821364 O
   0.3037295871123342    0.4892764640860341    0.2536432394754828 O
   0.3042971758012826    0.5111507886085569    0.7531263381550619 O
   0.7040359703914210    0.0113119999548796    0.2506646443520175 O
   0.6907155673955137   -0.0015777117988435    0.7496202278354525 O
   0.7238024291693114    0.4970317781505415    0.2499109374501197 O
   0.7217763654213144    0.4886957873570913    0.7562569921977360 O
   0.5100634854126095    0.1039982743403435    0.2451094733331883 O
   0.5050093281002531    0.1015982943327373    0.7543778062184572 O
   0.4971752948840099    0.6018233384298460    0.2523498833055641 O
   0.5171901710626348    0.5783686175457029    0.7455330384474619 O
   0.4908069847612627    0.0125552158462285    0.1416012862004812 O
   0.5029163238979971   -0.0054942602477752    0.6450186156109241 O
   0.4875788238917594    0.2522458861462557    0.9004133237406569 O
   0.5028780518104333    0.4971803931364912    0.1430310039268769 O
   0.2589471963281685    0.1276171065214202    0.7338666682800880 O
   0.4191534480826327    0.6318818470122348    0.6348878389634076 O
   0.2569088510229435    0.0435593495852338    0.1216010560164651 O
   0.2429259921825441    0.0204295017062294    0.6249066000035562 O
   0.2466275097178068    0.5232540724378305    0.1172109097183815 O
   0.2856110392304189    0.5165524587289966    0.6238945350780057 O
   0.4994357464979054    0.3932153513207220    0.2524807192225084 O
   0.5092355912471450    0.4002311413159857    0.7485557677887080 O
   0.4792979975701076    0.9129050141180125    0.2494074750639765 O
   0.4998474160469705    0.8981523451235436    0.7492921168687604 O
   0.2524591935343506    0.1296001948622050    0.0389836718506163 O
   0.2418196410819936    0.1200093586280272    0.5316793502744747 O
   0.2353460766007586    0.6216941677031553    0.0160687008288781 O
   0.2667533657764232    0.6230327480564568    0.5219436805562689 O
   0.0418914916227867    0.1281078215583552    0.1223276883484301 O
   0.0483139312903200    0.1240239237049799    0.6231830905135909 O
   0.0478526221183156    0.6150234768277045    0.1201934901974671 O
   0.0707921115623765    0.6170176607872646    0.6337811222080207 O
   0.4470803516163525    0.1377978794196126    0.1301696003034436 O
   0.4675857519356078    0.1234101520107406    0.6241916967026591 O
   0.4625261924310647    0.6240612704055053    0.1256484018401681 O
   0.2563525559160365    0.1242268290700642    0.2269132219719580 O
   0.5339043344981587    0.5131305738190788    0.6632660168842525 O
   0.2516040904689563    0.6235272466506128    0.2312749057994625 O
   0.0015105274924336    0.0026184668475398    0.6053405254047900 O
   0.2484275727755036    0.3716341987047093    0.9839283395553168 O
   0.2416443019727458    0.8725315532421276    0.4846243832911316 O
   0.2495110202433459    0.8703156129215768    0.9780188470207742 O
   0.2482021343752169    0.4657920150773103    0.3698546240089288 O
   0.2431860043812010    0.4713688943378941    0.8826940458440403 O
   0.2589768642981453    0.9700056203610412    0.8669981052890190 O
   0.3067885150146044    0.2538953247757904    0.0034276172469024 O
   0.3115639937713110    0.2559865132267495    0.4945754096793803 O
   0.2913609032604270    0.7505487113215599   -0.0077292596486040 O
   0.3045436201996594    0.7422915752259474    0.5046940551882815 O
   0.7080063158871964    0.2558078443595936    0.0069113616026470 O
   0.7161510320696043    0.2532026005474935    0.4981870173350453 O
   0.7078365746161672    0.7472533786116666   -0.0013586923123236 O
   0.7005004783112114    0.7550219985836225    0.5106437259743484 O
   0.4978267044266381    0.3457009647817331    0.0027176603180535 O
   0.5002300549455296    0.3553100991496508    0.4949471320263818 O
   0.4907220265462367    0.8543999513119381   -0.0087589424429490 O
   0.4966454684498850    0.8547435298004767    0.5058301060709658 O
   0.0216102440386539   -0.0004824860117899    0.0988475918072565 O
   0.2449412401689521    0.3694073472167056    0.4532911938711868 O
   0.4416558844932594    0.8738898262476453    0.8709671265951581 O
   0.2547036038623640    0.9808725734492877    0.3725379731446530 O
   0.4496189489449168    0.3734742102873863    0.8817527693614368 O
  -0.0079481710566603    0.4992416175653445    0.0943197136651317 O
   0.5079492070631364    0.7460279918275516    0.2606833741527105 O
   0.2396620053460214    0.2823609655453101    0.3785651511357632 O
   0.4350387472042398    0.8826355127744043    0.3758982926788522 O
   0.2528013619116709    0.7650410195839573    0.3760108924455537 O
   0.2458198605054713    0.7752925599569319    0.8696830884132142 O
   0.4823087410651307    0.1537247552710873    0.0046148302193750 O
   0.5022152887122062    0.1434354474818728    0.4983503551461611 O
   0.5001284660299520    0.6395476098380173   -0.0016608423021599 O
   0.5068271047022926    0.6428558458207437    0.5170016303759601 O
   0.2539201568031734    0.2791322277595535    0.8768871319372538 O
   0.2397169889033336    0.3759837393556341    0.7723481999318261 O
   0.2512942866997261    0.8808374389391862    0.2768622376267326 O
   0.2451004331330749    0.8716450381523805    0.7725263925175611 O
   0.0403147563183650    0.3726381950238667    0.3709126172555298 O
   0.0563172987758221    0.3758825453911263    0.8784469635541315 O
   0.0369886338976810    0.8749732077469380    0.3760926160315767 O
   0.0419406507770714    0.8726656304981711    0.8683876414547569 O
   0.4652769104742801    0.3726672194782330    0.3742660680477137 O
   0.2571536072124348    0.3708941626256363    0.2796557312094095 O
   0.6203994160196458    0.1909228425464869    0.9417649480892173 Sn
   0.6246939490344170    0.1895192505584518    0.4338728560579753 Sn
   0.3728473618171863    0.8120257304613417    0.4400211692467376 Sn
   0.8747099181305142    0.6825249609758448    0.8101720867234136 Sn
   0.8785917142379640    0.6825416280097003    0.3158445457511546 Sn
   0.8786194823646675    0.1908197655814841    0.8132134113747757 Sn
   0.3790269347475658    0.0595240786109908    0.6889016681382290 Sn
   0.6179130650036615    0.9484172184715032    0.1865937472090350 Sn
   0.6302498360559600    0.4329109651436464    0.1859675550442236 Sn
   0.3691949538351121    0.5568761025414070    0.1870259578503629 Sn
   0.8702302457396104    0.9374623944524957    0.5654879636211817 Sn
   0.8746176680913892    0.9421009285098836    0.0608206196923135 Sn
   0.6220255866461301    0.6856295897250065    0.4471096158442284 Sn
   0.1441317939932601    0.5544311588097423    0.5630550047860958 Sn
   0.6230502260810030    0.6833832938636287    0.9329082133450171 Sn
   0.6149226446744869    0.8129704015551024    0.0594993021364647 Sn
   0.3735590326870527    0.4378374854196687    0.8134521215335354 Sn
   0.6312133520779656    0.3188415946324342    0.5635317789393809 Sn
   0.1245100254309580    0.8126933898728538    0.3139309386032865 Sn
   0.1273432801863897    0.1906298246343662    0.6886727929875985 Sn
   0.1250765158794844    0.1900391918036443    0.1883385176600625 Sn
   0.8705312970563803    0.8090331654490334    0.6851831770262500 Sn
   0.8633354925151719    0.8105687390250111    0.1871316579517173 Sn
   0.3704239620160913    0.6846964650694055    0.0587299463761801 Sn
   0.1217932409840562    0.6830998771372512    0.1847924763915119 Sn
   0.6236343184642977    0.5566658598129780    0.3162939019476737 Sn
   0.1301306630657283    0.9373607578040505    0.9336276543469868 Sn
   0.1235031613397812    0.9400902074178962    0.4374767643765258 Sn
   0.8874154519657393    0.5577274414183035    0.4426144961111196 Sn
   0.8738156353928668    0.0652662293488472    0.9371468995460189 Sn
   0.8747559608926764    0.0660438758329916    0.4352896996899187 Sn
   0.3758690984309547    0.1888256195480880    0.5600739980388560 Sn
   0.1252732414264215    0.9300776568473039    0.6907513819430057 Y
   0.1068345270911235    0.3216454412120675    0.0721053832292568 Y
   0.9080135350937190    0.4461161676933099    0.8211876886918554 Y
   0.8607072730853337    0.9376255056385776    0.8053770977078565 Y
   0.5968846258610360    0.8083082029880362    0.8109052522713475 Y
   0.6292743140393059    0.1873838995271394    0.1890030088591818 Y
   0.8843913008714814    0.0624492327805248    0.6843872374200619 Y
   0.6265196219576143    0.6838586146059124    0.1908571592513445 Y
   0.6212297728185753    0.0611108563023043    0.5615307493013187 Y
   0.6282374564474340    0.5604722968995106    0.0620615861958895 Y
   0.8761152538325617    0.1884554593007380    0.0659061839909681 Y
   0.3586486853365387    0.4391332386192318    0.0633861776879534 Y
