La13 Ce64 Pr13 Sm13 Gd13 Y12 O224
1.0
  11.0287829230828951    0.0024167323095930   -0.0004129999176141
   0.0048333958683511   22.0579543339886186    0.0040700006246680
  -0.0008259682226259    0.0040700347074269   22.0579396940646184
Ce Gd La O Pr Sm Y
64 13 13 224 13 13 12
direct
   0.6234681941914546    0.0635264710322782    0.8130656690590932 Ce
   0.1269575896315607    0.8107961896220348    0.3127816406056076 Ce
   0.1269549121691767    0.3116356298268227    0.8143604054524504 Ce
   0.1252468899842020    0.3129009131731914    0.3115546694490631 Ce
   0.6253782106716452    0.6858050808311473    0.9392441170761280 Ce
   0.6225578351434425    0.6860185908144387    0.4370433489835144 Ce
   0.6262909869674703    0.1887667990749678    0.9380453388331090 Ce
   0.6236258085785445    0.1875121511010542    0.4370461484864452 Ce
   0.3743493214228725    0.8125940011635496    0.9382983570346866 Ce
   0.3738053240379792    0.8122998828472123    0.4376808985925725 Ce
   0.3761628852974039    0.3132436415781498    0.9386896752413145 Ce
   0.3749654857789312    0.3127484812239930    0.4367310177037442 Ce
   0.8763810575369517    0.6867163486243625    0.8136156275438906 Ce
   0.8764229757578298    0.6852252573210115    0.3113163024662415 Ce
   0.1243741331504665    0.8126826959193890    0.8129729808068102 Ce
   0.8758638071549554    0.1887850625879852    0.8139589100868811 Ce
   0.1252313536811330    0.5619427986071955    0.5612431354156451 Ce
   0.1268082464347763    0.5612710144178193    0.0627043008751701 Ce
   0.1279808880730335    0.0624757985933545    0.5616601355836186 Ce
   0.6229794311991124    0.9378582077904137    0.6870895643474685 Ce
   0.6232500314912780    0.9385798263869317    0.1859491131539895 Ce
   0.6232877845445144    0.4365508300220113    0.6877037483709549 Ce
   0.6251742297542550    0.4376994715092634    0.1860835519891370 Ce
   0.3744526959419365    0.5613265349894963    0.6874236701508734 Ce
   0.3756793268448489    0.5613546484842170    0.1864926549345805 Ce
   0.3740600334451130    0.0627056611991260    0.6876896599300660 Ce
   0.3752253885755845    0.0636598585970342    0.1870415305244701 Ce
   0.8742526998678746    0.9383469611373956    0.5623496175497920 Ce
   0.8725333570070731    0.9383068980978247    0.0621298157910587 Ce
   0.8765440079510024    0.1883265517964731    0.3133629378509674 Ce
   0.8721660635876748    0.4369329777466511    0.5612375995417149 Ce
   0.3745485052409214    0.4371683862300613    0.3110778695136837 Ce
   0.3749870996017746    0.9387818427066105    0.3135207628006765 Ce
   0.6218812750873839    0.8138869346329644    0.5619229647459003 Ce
   0.6251804275115126    0.8115042635388062    0.0627305466946052 Ce
   0.6231965020129276    0.3130261588773692    0.5616461228895453 Ce
   0.6255657296323870    0.3139303125218648    0.0616767783907110 Ce
   0.1247230238384607    0.6867262812871232    0.6881533624759991 Ce
   0.1240326160910915    0.6857919461149043    0.1870552230011406 Ce
   0.1269928871492802    0.1880754510416464    0.6887515562223451 Ce
   0.1255967887756973    0.1892390540976795    0.1863384031786589 Ce
   0.8752754861767719    0.8135441899612258    0.6878722729585051 Ce
   0.8741454833973034    0.8108152082256633    0.1861028673768527 Ce
   0.8728344097401657    0.3121679846566678    0.6883124585077646 Ce
   0.8784746854170944    0.3134186921702682    0.1863381150845602 Ce
   0.3730464372685339    0.6867584990636049    0.5616489187853037 Ce
   0.3781496606081630    0.4370826684063148    0.8144724789697373 Ce
   0.3764227351710507    0.6855694270840704    0.0619699047485023 Ce
   0.3734332852334092    0.1892661264014799    0.0620663211492816 Ce
   0.6237470511648880    0.5608421248501766    0.8149026336532006 Ce
   0.6261477304577148    0.5613405238773272    0.3112496703158329 Ce
   0.6220553893421273    0.0632329528073330    0.3135309267580948 Ce
   0.1249861792479055    0.9387195571648795    0.9374929760151898 Ce
   0.1286285839035599    0.9386636617461499    0.4378012189095847 Ce
   0.1288141124378540    0.4368361602839254    0.9394669433019288 Ce
   0.1235471247428589    0.4371374670368344    0.4364033203362612 Ce
   0.8745879220261928    0.5620746891402228    0.9391078641403491 Ce
   0.8744427691331599    0.5611811611935827    0.4360312958732918 Ce
   0.8753760573546554    0.0642575399962421    0.9379162492092586 Ce
   0.8753324617700222    0.0630119173139760    0.4376891138922528 Ce
   0.3731817022887448    0.9381690552866175    0.8126510212247604 Ce
   0.3749782609016365    0.1871054506673802    0.5621885557117708 Ce
   0.8766494408127973    0.4373047689229382    0.0623045446133168 Ce
   0.1239099672033288    0.0643942723324561    0.0613226989616289 Ce
   0.6250930081548575    0.5608068899568546    0.0615160302965451 Gd
   0.8739971625195816    0.3121781649456598    0.9399443332744633 Gd
   0.1231651228341106    0.5612080149905483    0.3106157072738628 Gd
   0.1295443166164162    0.0652412886676515    0.3134185482555946 Gd
   0.3752700162791746    0.0629355587812954    0.4373343232203372 Gd
   0.3721248143327398    0.1880959654468587    0.3117952330555420 Gd
   0.1291298694286372    0.9398909616269127    0.6875351231839995 Gd
   0.6233521221023863    0.5590951033037661    0.5613888425961155 Gd
   0.1276017586146160    0.4368767079485831    0.1864101307736126 Gd
   0.3713161219613923    0.3141078965257420    0.1860495830829815 Gd
   0.3779735838442301    0.9393745512851059    0.0625831304912796 Gd
   0.3802190082291532    0.4364087770569799    0.5620015094321459 Gd
   0.6201255763913105    0.9387809030343242    0.4396824376511444 Gd
   0.1271409996384442    0.4366965577369120    0.6878315016197043 La
   0.8755755540344951    0.8120168437700235    0.4371668719054779 La
   0.3742148301279091    0.5612290493607348    0.4364789355620859 La
   0.8727741330176735    0.4355866293804803    0.8154405786602208 La
   0.8748760532756539    0.9386048000151199    0.3128338386603546 La
   0.1264717187465035    0.9381135390806842    0.1871453647837400 La
   0.3740988661535107    0.6859670949989130    0.8148193448559848 La
   0.6237784808568425    0.1891949730714376    0.1863803293596678 La
   0.6242260061918163    0.6871302864957063    0.6874944334044949 La
   0.8751211351373360    0.6863328178363801    0.5613239142007818 La
   0.6233612446680082    0.8116021025523206    0.3119070554823040 La
   0.8742874163837804    0.0650101802564242    0.1862131994883091 La
   0.8772718268409188    0.0630044777384780    0.6878589972613359 La
  -0.0008809501235172    0.4992763476899813    0.3848993528593172 O
   0.0006434225906739    0.0019971404242532    0.8878434357600812 O
   0.0014957064993292    0.0005405629688603    0.3893922514250341 O
   0.0006695229370373    0.6114957900186707    0.0010314306898161 O
   0.0033869101636145    0.5003225508714101    0.8913184926505827 O
   0.0013842430293415    0.1121235122727068    0.4997484059611293 O
   0.2255945263689859    0.4987158070810523    0.4999048478612539 O
   0.2327645741104840    0.4992421874973293    0.0007780546123801 O
   0.0011828052575328    0.7495516558596782    0.8636140595989278 O
   0.7489796544336715    0.0147376328656042    0.3755327537404720 O
   0.0005057079910255    0.6106672462350399    0.4978809340822293 O
   0.4999748698331370    0.0001150267291572    0.3661431980066610 O
   0.4986025955015762    0.0005199138887278    0.8633613173422999 O
   0.5022217545669069    0.4981810833040990    0.3615786160019480 O
   0.5213912218217606    0.3758507860008229    0.1235731748189379 O
   0.7481126228205712    0.8762659790073568    0.5132117200745235 O
   0.7485648885101818    0.8749193231376375    0.0131785576406869 O
   0.7473855411622443    0.3750214754650477    0.5101863678482900 O
   0.7515733550904533    0.3754124315816984    0.0115980582989421 O
   0.0009856316372819    0.6368051062767397    0.7508704389455968 O
   0.7497218143380370    0.0147936987653303    0.8755925166919393 O
   0.0008695410124545    0.6338929844663799    0.2492808537439431 O
   0.0013918964317958    0.1409688829870444    0.2494752618225737 O
   0.7485293903335737    0.7650807137791302    0.6249580720806098 O
   0.7503693841185076    0.7589040345610084    0.1239084092767946 O
   0.7483913315250401    0.2638422836164177    0.6248404130157432 O
   0.7525187336567510    0.2647015701355820    0.1233492509041686 O
   0.5008378476339608    0.4987292777889474    0.8679225024835114 O
   0.0025244615600311    0.1388272615634334    0.7520602375823860 O
   0.7494176356738179    0.5110546011611699    0.3741471670003744 O
   0.7522286541258281    0.6246981516350245    0.9905306925480273 O
   0.2260003117055591    0.0007364032598986    0.0002997303184193 O
   0.7494775784942503    0.2398397889363200    0.8754849585368694 O
   0.7488330692166930    0.6231471915815558    0.4853153709941026 O
   0.7499170033823802    0.1261570571963244    0.9880789544994856 O
   0.7495732476529293    0.1255042033411622    0.4864418073343484 O
   0.7501304793002831    0.7340330817571081    0.3741191626816795 O
   0.9776515935033890    0.6241735421947598    0.8764470349416176 O
   0.9770821832434818    0.6237455648573708    0.3742377705327671 O
   0.7488499193405639    0.7354718748145362    0.8757160197316034 O
   0.7731038327579128    0.0019430607088934    0.0007105280211253 O
   0.9764569365741071    0.1258071114943871    0.8753539191479153 O
   0.9808666126501956    0.1253920111703446    0.3746480806441865 O
   0.7704198299389697    0.0007728166547167    0.5000214072149456 O
   0.5248721294322273    0.6229650718112703    0.8772715721858436 O
   0.5231567968982398    0.3747596421125011    0.6250604540564487 O
   0.2321786595627969   -0.0002769680030864    0.5006453072468433 O
   0.5230531551416376    0.6250408601674550    0.3729098028353475 O
   0.5201729447241936    0.1254635656990428    0.3750433561611416 O
   0.7504831825151337    0.6236219093873018    0.7650856105951784 O
   0.7507589783066472    0.6235197033220814    0.2601132279156558 O
   0.7494498788607223    0.1260672267906262    0.7650856121268346 O
  -0.0015457005788294    0.1169515149345628    0.0001500076098283 O
   0.7493862389963749    0.1257112979927306    0.2643332340201749 O
   0.0012501260912205    0.8894791511367484    0.4999305786943159 O
   0.7707831448372733    0.4993581939731754    0.0005380826671347 O
  -0.0015378850997819    0.8886413526073681   -0.0001159378128516 O
  -0.0026513579896698    0.3875392971296362    0.4982472346347071 O
   0.0027616407143567    0.3861285331279945    0.0013565275028018 O
   0.7490400206001619    0.5110262711646489    0.8772409651218326 O
   0.7701707216395587    0.4988981809296771    0.4987737597808020 O
   0.7507298482424610    0.2384601993663142    0.3755073140165471 O
   0.5237008184633466    0.1268203599705089    0.8751293274283442 O
   0.5254591710058170    0.8747418757464041    0.1244753137480185 O
  -0.0023121601910573    0.4997991434540435    0.6102265559715329 O
   0.9816343507762456    0.3753459215512319    0.1244779165819401 O
   0.2568568937319649    0.3753759028034546    0.6245626940894893 O
   0.2542399967709812    0.8772957028036185    0.1228456758499156 O
   0.2505993843230865    0.8799477963544228    0.6243461538997659 O
   0.0038748067438201    0.0034101484742235    0.2517805666879493 O
   0.0096331682319406    0.0016939667467073    0.7508632273205929 O
   0.0033423835019680    0.4992155126114902    0.2489154634468596 O
   0.0020803088393777    0.5000465530860736    0.7527195512854616 O
   0.2522329603563596    0.1254800789012173    0.3738116662907299 O
   0.2447577922542112    0.1261398436831924    0.8732365258981886 O
   0.2436436929670726    0.6251087621900039    0.3730887064546956 O
   0.2512682497666940    0.6209949165583374    0.8791307252651209 O
  -0.0010784374722617    0.2517941906378057    0.0021501660230094 O
   0.0003183904677395    0.2503595196708168    0.4972940057686341 O
  -0.0023963899100429    0.7452631361119504    0.0018512770839662 O
   0.0053927053973800    0.7471446009057326    0.4968179158854821 O
   0.7492579117744370    0.3774039366870402    0.3762599486574638 O
   0.7440232909331267    0.3729676644855922    0.8786407853781654 O
   0.7452984175137378    0.8770926036908610    0.3767192406624785 O
   0.7481802738721519    0.8742386132159056    0.8743796607688570 O
   0.5009688832747016    0.0021192513870383    0.0039365477675099 O
   0.4969940009052537   -0.0005373111332106    0.5005275887496202 O
   0.5002142677127688    0.4984159817608763    0.0004892176590683 O
   0.5046989088959515    0.4967036423257528    0.5002139492064133 O
   0.7496910848206619    0.1269809722021398    0.1196856507524447 O
   0.7479788327063570    0.1242760589338874    0.6241092669933775 O
   0.7516188997638554    0.6237867034137569    0.1228987082669255 O
   0.7450771955359198    0.6219269121224624    0.6228007626326925 O
   0.4918796800239315    0.2509928092451414    0.2489469880244579 O
   0.5009817739061881    0.2529624812520857    0.7537529859348212 O
   0.2501846860171492    0.3756453886539966    0.1231782009679659 O
   0.5212287384311546    0.8764395565671854    0.6241853775930009 O
   0.4975695470398042    0.7505033714273677    0.6105403265516844 O
   0.4982775310478730    0.2505605081074835    0.6130127823614143 O
   0.9715486510482688    0.3745435303275206    0.6243683706702294 O
   0.9720588076754925    0.8743276774451666    0.1240117442465191 O
   0.9746156561259637    0.8759715271278514    0.6252534916240470 O
   0.7516162776769540    0.3759177134006312    0.2359331417883671 O
   0.7467373268604722    0.3737786233007087    0.7394481001488281 O
   0.7492000289362472    0.8746311197354890    0.2341063187617118 O
   0.7470986792838707    0.8748076829957337    0.7372594664214017 O
   0.7512334629946372    0.4876351803165050    0.1244588841298955 O
   0.7472162558926493    0.4861511631934181    0.6242935658114711 O
   0.7463437942322854    0.9896344650871991    0.1233678931135339 O
   0.7480220254370222    0.9870686799671705    0.6244785517120700 O
   0.7794689938928442    0.2511576431593743    0.2497001437745479 O
   0.7736781568714944    0.2506472823748807    0.7515383208309535 O
   0.7767938627879669    0.7477816643034966    0.2484610279397030 O
   0.7782322305180570    0.7505701243610159    0.7516331433912021 O
   0.2245042710684811    0.2508251995495608    0.2492824489873191 O
   0.2294798134375024    0.2499156975806858    0.7512042051792788 O
   0.2254452895260225    0.7479910633110785    0.2500674951909008 O
   0.2220730545105359    0.7501840513172318    0.7502344377700750 O
   0.0010150406633297    0.3639006812282229    0.2494904478087296 O
   0.0009499870259051    0.3591768219316113    0.7509755513667065 O
  -0.0002072961243764    0.8593707217363731    0.2498418839553990 O
   0.0003257132785918    0.8635070582581861    0.7503496228800253 O
   0.0011984261756970    0.2510112750762779    0.1347609154713511 O
   0.0025417531579092    0.7471845975368053    0.3614348063690423 O
  -0.0008855924559820    0.2497631431353637    0.6389701172826141 O
  -0.0016361773632334    0.7476271366884734    0.1370160871342957 O
   0.0000028876271589    0.7500871836788028    0.6386245789220408 O
   0.4989472900520883    0.2520291322450053    0.1106911009428477 O
   0.5013086414089364    0.7484081796526035    0.1119034730065507 O
   0.0005600564449688    0.2502839983671211    0.8658708490665358 O
   0.5014676194445612    0.7507005124293715    0.7516972373622406 O
   0.5026117955194364    0.7499982925564915    0.8905906427864737 O
   0.2502622264213337    0.2412426855087590    0.1245875852070046 O
   0.2508727523638923    0.2373497069160465    0.6253192636053897 O
   0.0009075936246556    0.2508665218612428    0.3625574950701363 O
   0.2492659892858271    0.7372070091459103    0.6249346963148966 O
   0.2778598765182429    0.0014466676659339    0.2504560830749174 O
   0.2737086707102054    0.0005922198789975    0.7498747511215262 O
   0.2735355582717582    0.4995141942861078    0.2489779518966500 O
   0.2780594102701858    0.4995735120543673    0.7519725887959035 O
   0.7193030123655920    0.0006176011492784    0.2500516349901123 O
   0.7226079325257238    0.0002450705380691    0.7504448690182919 O
   0.7280555808897335    0.4994573671495207    0.2489979721931478 O
   0.7207929965493293    0.4993333277196736    0.7503595348613393 O
   0.4975768994609224    0.1131775472910376    0.2507668617399469 O
   0.4978527779035962    0.1136337136427010    0.7505750244918032 O
   0.5007591401315192    0.6105928658687236    0.2487643675825296 O
   0.5000146209182881    0.6090566189201385    0.7509671424121661 O
   0.4984379780271364    0.0006806220940182    0.1356319829710198 O
   0.4986931221715514    0.0004336609339266    0.6358487014441170 O
   0.5004176608947380    0.4995315533093615    0.1347956965888534 O
   0.2486174757622631    0.6234107689987701    0.7387758620409490 O
   0.2505756089306053    0.6238161611182202    0.2371904133507246 O
   0.2492533903335318    0.1244154579729645    0.7393834560302309 O
   0.2497082353657531    0.1262645516743709    0.2385187134287108 O
   0.2496856291296670    0.0155078040517328    0.1240344674032198 O
   0.2509687347902768    0.0120015329332866    0.6248854617696397 O
   0.2515945682854013    0.5098021224947566    0.1244730650148251 O
   0.2501813054217852    0.5128635968220039    0.6245266794984125 O
   0.4993721280581176    0.3879425586356449    0.2484899554531649 O
   0.5003208858003356    0.3868533552914822    0.7509093613507637 O
   0.4986864293976370    0.8898368928291197    0.2497187551132373 O
   0.4994820035386811    0.8883342323925832    0.7505711596106849 O
   0.2485446747106985    0.1271178817786754    0.0116516361121838 O
   0.4993680135412765    0.4990383710716950    0.6349480808289999 O
   0.2508904480257155    0.1251770566399744    0.5100883425966557 O
   0.2460508566800962    0.6261209132965870    0.5102804268242259 O
   0.0251142017670007    0.1274853628570868    0.1233375433206950 O
   0.0320014972392758    0.1253859830071575    0.6248104484138672 O
   0.0227548283971474    0.6239000007349033    0.1243804450414248 O
   0.0262431996418422    0.6240053139519647    0.6250379470897565 O
   0.4743804473889581    0.1254744350665994    0.1236443738757394 O
   0.4730590304950042    0.1247073931852961    0.6247940496907283 O
   0.4778624412220443    0.6240517449371510    0.1246069105810132 O
   0.4705744937873361    0.6241438305266294    0.6246466598052470 O
   0.2512995626749813    0.6233073608875360    0.0123930503114586 O
  -0.0011851246019285    0.0011109412194422    0.1106213447069598 O
   0.2505381163310541    0.7357117373035733    0.1247254114263481 O
   0.0015141098391511    0.4994040317483300    0.1129096762796005 O
   0.2490242918352278    0.8753967389649483    0.9867521355881281 O
   0.2472668951023353    0.4866011023589475    0.3728212986304669 O
   0.2523655881120113    0.4867193624861154    0.8766227600545373 O
   0.2497179774659255    0.9916698777620881    0.3748359235007986 O
   0.2471616630845977    0.9896982194915934    0.8738800288161818 O
   0.2714459976449434    0.2517342826618559    0.0006051274296136 O
   0.2762967972887186    0.2496797312656180    0.4992431953363340 O
   0.2748266603202495    0.7482374015921991   -0.0001929864104064 O
   0.2754635824044629    0.7494394710775828    0.4991938822928146 O
   0.2516849389823336    0.8758656936622107    0.4883664871080501 O
   0.7309655018847542    0.2506943127999996    0.0001744053163957 O
   0.7254871091767747    0.7484225548523445    0.0009651190110023 O
   0.7197482078227958    0.7500357105547099    0.4993357342733627 O
   0.5023223306592677    0.3656659897189800   -0.0004443279073318 O
   0.4993092452339434    0.3642101862844474    0.4994754681264034 O
   0.4981308703960571    0.8636361056007752    0.0010327414436497 O
   0.0024050781282781    0.0000580082569268    0.6118509720664885 O
   0.4990930515738701    0.2499542188880634    0.3868130947936984 O
   0.5013774270299125    0.2515208682169454    0.8881494526253310 O
   0.4976260902533042    0.7494322773231386    0.3882142687372159 O
   0.7227492960569344    0.2505978009607165    0.4994031302477769 O
   0.2527764264656305    0.3750610482191469    0.9906173884601489 O
   0.4986585466674471    0.8656639883693528    0.4999008646472967 O
   0.4724438887388607    0.8744350292890282    0.8745063053202201 O
   0.5002423149436849    0.7467022957382656    0.2492775405154558 O
   0.2502634086931865    0.2614723373645145    0.3740354198805042 O
   0.2516964184468227    0.2619034835478125    0.8763266635959491 O
   0.2494295908848032    0.7594635253438634    0.3755993275985526 O
   0.2489343054022625    0.7621514371524528    0.8759901341381701 O
   0.2490814572009453    0.3747770477668905    0.4862314955647824 O
   0.5004296907810679    0.1360653811038877    0.5001695566949356 O
   0.5000765264120850    0.6323699379976189    0.0004948094210331 O
   0.5007157865571668    0.6349898957820520    0.5007519645819114 O
   0.2504574314246913    0.3748048812823398    0.2590487389003606 O
   0.5017211252392757    0.1388990981021172    0.0008852968116677 O
   0.2513898289604670    0.8746644944717795    0.2641509258528684 O
   0.2483270987431869    0.8761918231523362    0.7619544876524613 O
   0.0231458188795717    0.3749460995772533    0.3739351307964474 O
   0.0269519810122285    0.3741497397349870    0.8772944448694833 O
   0.0311700853166123    0.8746043161419654    0.3753416118037590 O
   0.0266165568277918    0.8756589921722248    0.8753509231129674 O
   0.4748716499186373    0.3753900925844417    0.3747055859142469 O
   0.4794333869805417    0.3742677878103388    0.8758712102211470 O
   0.4715053560030536    0.8755186867445690    0.3755701340016677 O
   0.2531263702585189    0.3738762472641449    0.7647938921548465 O
   0.6235692790198095    0.9382946583735644    0.9383978562052340 Pr
   0.3735098815168472    0.8142511324563094    0.6872840086103276 Pr
   0.8743571555110248    0.8106238619677402    0.9382072203016705 Pr
   0.3735537474342375    0.0641846762040754    0.9375878605165390 Pr
   0.1262103492539841    0.3122144009353605    0.5616380878107703 Pr
   0.1243199731813727    0.8113975158770188    0.0617611013524510 Pr
   0.1268019884623846    0.8135266727485840    0.5625014426267301 Pr
   0.8770105130170071    0.9381473181263070    0.8128063942254100 Pr
   0.6241380636469499    0.3137428806665218    0.3122046164464891 Pr
   0.6234821553120087    0.1886895509224463    0.6887277230432877 Pr
   0.8745948540084276    0.1879856991903799    0.5611787549852940 Pr
   0.8744199146721656    0.5613350805218071    0.6880525233761392 Pr
   0.3758513110149019    0.8115600560387630    0.1865977328058457 Pr
   0.6251709968498029    0.8128838202411541    0.8130338766457766 Sm
   0.6222986428614112    0.0617941242269106    0.5622798886851339 Sm
   0.1268010171340329    0.1876100204024920    0.4359269892037649 Sm
   0.1225594720091504    0.1891537198674893    0.9381990744340566 Sm
   0.6271626089322215    0.6848171026971631    0.1857900179746046 Sm
   0.1247352447423806    0.6847973819533261    0.9396297882475562 Sm
   0.1271614294510142    0.5612910370670503    0.8154708600774041 Sm
   0.8762597784558461    0.4379160672632558    0.3113473455671751 Sm
   0.8743355177911403    0.3135091534069471    0.4363976006032780 Sm
   0.8762476714334709    0.5612217472827727    0.1863385198000547 Sm
   0.3774854211749374    0.3128671510591748    0.6891301761894478 Sm
   0.3721564730180805    0.6856901971174832    0.3115732612956596 Sm
   0.3740787630810720    0.1883691149265528    0.8135277297183084 Sm
   0.1257153863122546    0.3136595529392971    0.0627748142429170 Y
   0.3747793436649433    0.9393590980416597    0.5622108732791209 Y
   0.8763367951270563    0.1899797506466305    0.0607467327374941 Y
   0.1250904847619407    0.6857928474725858    0.4348003450111511 Y
   0.1269351966868060    0.0641364672614890    0.8127183232821568 Y
   0.6265997018823637    0.4371808684907044    0.4373746860127993 Y
   0.6227571848857595    0.4370037220584332    0.9396762347271199 Y
   0.6237719165721173    0.3125512838966584    0.8157143842191024 Y
   0.8737988645651337    0.6848660793666893    0.0633214946852473 Y
   0.6252063825629892    0.0643538709391474    0.0612856425672796 Y
   0.3776865339574178    0.5594689696758328    0.9403932484195816 Y
   0.3761086408082295    0.4372424077689656    0.0627200752619445 Y
