Ta30 Ti60 Nb30 V30 Mo60 W30 C180 N9
1.0
  12.9947049919541868    0.0000637211974923    0.0006085481740018
   0.0000849621836477   17.3268044573262117   -0.0000201485283672
   0.0010142358527740   -0.0000251833688213   21.6570580335347529
C Mo N Nb Ta Ti V W
180 60 9 30 30 60 30 30
direct
   0.8350190177709341    0.8745376603892627    0.9037184245796008 C
   0.8297083608404436    0.5052901880395874    0.2046655217562517 C
   0.8349026379738698    0.2537086873615383    0.7973023228173113 C
   0.8334543961280235    0.2453723748578088    0.5959540641738008 C
   0.8338518667051401    0.2498725798754537    0.2046156638369436 C
   0.8353600169043858    0.2481687094483354    0.0029661633036048 C
   0.8354466500550048   -0.0004484043393466    0.7961657537367117 C
   0.8276717805787822    0.0075419902467673    0.3999506989491807 C
   0.8373059036447749    0.0040007540940288    0.0054847370378216 C
   0.4980794530068043    0.7556588986986036    0.5975659123514855 C
   0.5014076462789968    0.7494401256059912    0.3948934550762664 C
   0.5063487437454712    0.7492368754927959    0.2016671957022966 C
   0.4953349425561175    0.7504320238382586    0.0019711599714050 C
   0.8411668096979100    0.5026033556188434    0.3991465828830141 C
   0.5032301738835758    0.5022297091384489    0.5974636624421440 C
   0.8345779138687400    0.8766594036777690    0.6961025065110091 C
   0.5059616038897951    0.5004614862362001    0.2059652164597519 C
   0.5051884224699309    0.4993861008761071    0.0002821912452587 C
   0.4996063382327535    0.2514917730969859    0.7998710760477499 C
   0.5036973110353671    0.2421411360660863    0.5972081448189459 C
   0.5029028392600140    0.2457031414659465    0.3970917425916933 C
   0.5018722497979602    0.2478583593844655    0.1999125129163063 C
   0.4973173205496266   -0.0039590474454438    0.8027312130648180 C
   0.5029969869160413    0.0031278980711923    0.5958760709347922 C
   0.5053004397871191   -0.0025179710369866    0.2000174531252052 C
  -0.0010890476810083    0.1252009767370715    0.2013824820947553 C
  -0.0086110227194887    0.1276327435246519    0.3993674479804088 C
   0.5008123568878330    0.4962712321936925    0.3968438123768004 C
   0.8337371218387485    0.4981671294762497    0.6012192874149267 C
   0.8285874052969283    0.4995848471799080    0.7963903152567715 C
   0.8376540382838370    0.7496518535281951    0.0030247721549172 C
   0.3384533838993254    0.7474079348513374    0.2985961744357729 C
   0.3349609792275919    0.5010827242291633    0.9003187377068915 C
   0.3334438169198432    0.5036287221657970    0.6981035765602628 C
   0.3352431628981586    0.5001893803745391    0.3029653330988191 C
   0.3340306614816310    0.5030429338285567    0.1017607593900289 C
   0.3341324702878125    0.2487511315000836    0.9028152400203061 C
   0.3303642196153040    0.2526794863575210    0.6981992911201448 C
   0.3308346881272187    0.2438567439841527    0.4970068774991934 C
   0.3327013332151615    0.2501330928248273    0.2992272526714924 C
   0.3371487799458436    0.2473871483840284    0.1008144135822760 C
   0.3346993387573221   -0.0044022078410717    0.6992677596256482 C
   0.3353489289015234    0.0003134015809350    0.4999818162767520 C
   0.3327153610587032    0.0014894949053765    0.3002005358202913 C
   0.3342309328544464   -0.0030183841657807    0.0977828590545650 C
   0.1661265765624924    0.7520726155386834    0.8020071812112965 C
  -0.0044511943934096    0.7430541669714597    0.6967652795284970 C
  -0.0010455400649483    0.7513946845387269    0.1029521597376538 C
  -0.0105528359840163    0.5020832609882808    0.9027536973783840 C
  -0.0051190432009625    0.5025469888543354    0.6962501465610261 C
   0.0002549400481125    0.5050074859214591    0.3030916424276935 C
  -0.0068859860033218    0.5002034936393502    0.1059209863656921 C
  -0.0013319583817260    0.2471915883513527    0.1036209371044839 C
   0.0013740425668753    0.0039122867736325    0.9041803041459330 C
  -0.0036904308490848    0.0028363253074341    0.5000619663947624 C
  -0.0036365128560667   -0.0009053396983363    0.2981392634528361 C
   0.0020391879918143    0.0020800869178011    0.1021577453377222 C
   0.8319085778540557    0.7445552126205096    0.8015870493707465 C
  -0.0065279659230540    0.1224064177964129    0.5984178045469047 C
   0.3339030074531228    0.7478161931598840    0.4982928124596878 C
   0.0009071145756464    0.3700128612127482    0.0016331731383898 C
  -0.0042219662668664    0.3759419441405618    0.5994023156140311 C
   0.6682716602210944    0.6225098743529452    0.0036020518725819 C
   0.6794015861323170    0.6244262952967701    0.3971006197213224 C
   0.6725300818047448    0.6241988041639367    0.5989383405122888 C
   0.6668062964072051    0.6230398186850833    0.7967057982873970 C
   0.6606513303600229    0.8768545681427323    0.0027851275780095 C
   0.6674361817156674    0.8812547004960045    0.3979172911222513 C
   0.6723336474185657    0.8837389916272232    0.5986157337120922 C
   0.6636674601495230    0.8733929188485751    0.8034782015138358 C
   0.1635078139890038    0.0007163819365436    0.0010203887562906 C
   0.1642590341112674    0.0031473821965468    0.1983799355301182 C
   0.1629286774460055    0.0032154250862082    0.4002843262464262 C
   0.1663285692001571   -0.0005767082437674    0.5993257721037623 C
   0.6710703727576186    0.3791096383795581    0.7956578458107975 C
   0.1659714548215823   -0.0016715571790718    0.7999179652725471 C
   0.1648914063783061    0.2501512378692168    0.3984804105372248 C
   0.1636254166301406    0.2505371442353817    0.5946450555064764 C
   0.1606288665689905    0.2497614070834756    0.8014554738646567 C
   0.1660029025615132    0.4994921093003427    0.0041249050451422 C
   0.1604420223388875    0.5005227260694370    0.2038072424972080 C
   0.1635993458284754    0.5001041585850591    0.4040204929140229 C
   0.1606849612133331    0.5026582336802478    0.5915236881692444 C
   0.1666149632660839    0.4991601576135043    0.7985225718820055 C
   0.1617666177219897    0.7536009547886884    0.0031454270010749 C
   0.1593034668775968    0.7486102666493177    0.2008101557177153 C
   0.1550675672705570    0.7466467208327751    0.3978681333926448 C
   0.1635929205279754    0.7450976754793917    0.5980829752490011 C
   0.1609806225736272    0.2438832449774180    0.0008040485792720 C
   0.6717372590476343    0.3756612686382880    0.6024743457651616 C
   0.6675248884351574    0.3800033889183532    0.2030081739557433 C
   0.6653804309389196    0.3758737211605920    0.0012092672365541 C
  -0.0082184185786044    0.3743577714278642    0.7930517551650031 C
  -0.0038060048382853    0.6235127655152344    0.0034479249361690 C
  -0.0091212267558711    0.6288015427203545    0.2069816069682696 C
   0.0029134925489515    0.6235334994937247    0.5938989256704219 C
  -0.0045867114314000    0.6267243896740138    0.7955290645641971 C
  -0.0079484732186088    0.8708497564218305    0.3992977308927688 C
  -0.0038198707555956    0.8747227765287939    0.5989486251833700 C
   0.0035478857825567    0.8764334473241606    0.8017947357111541 C
   0.3302874320335996    0.1237165091724184   -0.0019987092161735 C
   0.3314563485413224    0.1258176852965200    0.2001108684102418 C
   0.3361934325565976    0.1235113351214110    0.5957012417915457 C
   0.3315158204556196    0.1212620314259363    0.8055428967620002 C
   0.3353329900815153    0.3718758102835232    0.0015030056244069 C
   0.3318599636342749    0.3720766872863311    0.2025397325523823 C
   0.3329330343897006    0.3750830812353456    0.3988112839297731 C
   0.3298441405352117    0.3736941351320929    0.5984697280975818 C
   0.3368411759542390    0.3785419089434072    0.7996754774901922 C
   0.3290852148110388    0.6252386218620714    0.2011466044504064 C
   0.3273793203551993    0.6238205291445018    0.4017152290832555 C
   0.3278173069054613    0.6247518328339042    0.5974147519112599 C
   0.3425824863992447    0.6273465213300037    0.7968092715750512 C
   0.3386594635465739    0.8720738378923684    0.1961677448729140 C
   0.3335360316514282    0.8755887708480421    0.3987611227775698 C
   0.3354459994805292    0.8741933813054986    0.8039784057287009 C
   0.6670278404150102    0.1286901719547474    0.0016853334759919 C
   0.6656072891967527    0.1266172608745411    0.2011742644596245 C
   0.6694543273703718    0.1239201899297461    0.8003532194026864 C
   0.0000199396166505    0.3757373431893579    0.2036124773877625 C
   0.3368496150259203    0.7490637333030657    0.7002115821422512 C
   0.4986147963935773   -0.0010378409625669   -0.0020889964194229 C
   0.6638555024527342    0.0023315758590384    0.1029499902248565 C
   0.5074675513686892    0.6228021550428943    0.2989070987469511 C
   0.6683878434403934    0.7532256345596898    0.9010002440257698 C
   0.1646684089376380    0.3714347171534575    0.3011777541330348 C
   0.6727532858666052    0.4983170428223085    0.8992566287609558 C
   0.1686983813891446    0.6263629087054402    0.9011923783183474 C
   0.4995989981341459    0.6259150126959508    0.1022697627143471 C
   0.1694165656061885    0.8754306264709460    0.0984023825919507 C
   0.1663515415566094    0.3697371546351949    0.1034109451888798 C
   0.6631282879354051    0.7494944799138844    0.1043633481453645 C
   0.1675975588643819    0.6232626016504456    0.6956086400631102 C
   0.5036803345782148    0.3733971658296673    0.8996403427579746 C
   0.6754885961520994    0.7469104330432809    0.2958776215499835 C
   0.5030307632012372    0.6235330502299489    0.4971456550968481 C
   0.5047617994104555    0.3794575614511921    0.7001081110597833 C
   0.5013245863421373    0.3709249950774576    0.0993003325172439 C
   0.5011867246481190    0.1256412307593734    0.9023903242263862 C
   0.5039274007406394    0.1237111214751335    0.6941122457901553 C
   0.6738276161420237    0.7515153924067753    0.4970222902323732 C
   0.5061350185539143    0.1181364692844278    0.4951669934027286 C
   0.4953807741779191    0.1215902509698177    0.3039113666676641 C
   0.1613807109954045    0.1224311072790186    0.6995692639960841 C
   0.6643618503778249    0.7487955381258194    0.7003629962676464 C
   0.1727226128179808    0.8769163816619778    0.9031310630701450 C
   0.1676878407744832    0.8752673856737839    0.7012504770184322 C
   0.1630449436380266    0.8748930536897254    0.2976545812729056 C
   0.1640181781638021    0.8727127359381662    0.4991271151058206 C
   0.5005258559114637    0.3740956516427312    0.4970167143569456 C
   0.6716206297377981    0.4975031159825153    0.4989423063078132 C
   0.1597780997176043    0.3761214624200060    0.6972431611548170 C
   0.6645407249059306    0.2503246447189424    0.9037067039424229 C
   0.8326280658530614    0.8822824896761174    0.4975475736594414 C
   0.8335262224173229    0.8695543766367266    0.3003651162848364 C
   0.8319214131068787    0.8778040240884698    0.1050275137001544 C
   0.8398395695063930    0.6268932347694262    0.4959965608915327 C
   0.8244540903969456    0.6271135670865930    0.1104309476878723 C
   0.8281648536150804    0.3767889748843774    0.8961981248971373 C
   0.6675919528969066   -0.0016094755015299    0.3040361476320738 C
   0.1684831953770772    0.6232079512619393    0.0996251982982475 C
   0.3377177141925182    0.7503583731066542    0.9039443120492410 C
   0.6716153443168423    0.0010377173658427    0.6952551149536542 C
   0.8356515508854625    0.3704699487314715    0.4994243717780351 C
   0.8354251132862124    0.3717600736637731    0.3036308610655256 C
   0.8302158176756244    0.3760073361205725    0.1038023524971314 C
   0.8358150730170009    0.1219260826190590    0.6957660848517266 C
   0.8357312425961548    0.1257894407764318    0.9016246006801960 C
   0.6631880999628348    0.0023565726289474    0.9002286992461767 C
   0.5006973228673802    0.6260061271155660    0.6995689644704925 C
   0.5006371324391558    0.6266958826097055    0.8968035909062473 C
   0.6732528576133102    0.2532982061910460    0.6963009867410722 C
   0.6747798704637785    0.2413824696498320    0.4944170353688523 C
   0.5037266647242387    0.8698536140594160    0.2966181213356043 C
   0.6662666756633111    0.2513233930003522    0.3016786002503926 C
   0.8346655428186044    0.1281258315377506    0.3046640212417775 C
   0.1621286832975458    0.1302103840782840    0.2998937378297377 C
   0.5025207333958166    0.8819457232424356    0.4987149633165730 C
   0.1667805353166770    0.3693263113739864    0.9003137312990508 C
   0.4977100196825744    0.8730372942216972    0.6994632838609268 C
   0.1593070335230502    0.6322693921737991    0.0025312346356347 Mo
   0.6664334051712170    0.3703595865486912    0.1015686706827169 Mo
   0.1645906572258878    0.3749887362096881    0.3968546330642286 Mo
   0.6735307120713846    0.6265551303157759    0.3016795489416388 Mo
   0.3415046752008267    0.8779140623618354    0.3017741260430785 Mo
   0.6661487860256069    0.1212022211009429    0.4933239371524606 Mo
   0.1600099480427797    0.3779096496012189    0.7959654659916755 Mo
   0.6667831402906771    0.0055198136291422    0.5947679873252245 Mo
   0.6706447470352644    0.8758259127919233    0.2981568039877310 Mo
  -0.0022258222439951    0.2475819137875917    0.6038468346166805 Mo
   0.0047988468003893    0.5002150422368894    0.0022276399662637 Mo
  -0.0048275576186203    0.7467766554288602    0.7933805849605396 Mo
   0.3313465577196875    0.2497192122204947    0.3976342286541051 Mo
   0.3268857292643583    0.4980384375323103    0.7963874107653338 Mo
   0.3317126935802125    0.7543450665380531    0.0016272037959516 Mo
   0.3340812625361172    0.7491933941482326    0.2006689449630168 Mo
   0.3293282465969838    0.7400832074996969    0.5994023974864766 Mo
   0.6616261203154697    0.6293139512131622    0.6969359362842764 Mo
   0.3278780043436792    0.7486970366148281    0.8023802092446284 Mo
   0.6657669805822245    0.0033243653481853    0.2027941969369364 Mo
   0.6657069811832438    0.0033016314454316    0.4012740601361589 Mo
   0.6731545358074016    0.2519015626165630    0.0000035465884794 Mo
   0.6685885081349514    0.2514672891031401    0.5974841306316480 Mo
   0.6722285793418420    0.7452346792932493    0.7989413307410945 Mo
   0.1570765183731063    0.1256932443019299    0.3973787120696684 Mo
   0.6669238775954274    0.8752862879379809    0.7034802212190269 Mo
   0.6663706073915071    0.8802107949328425    0.4961547523773953 Mo
   0.6675245730631387   -0.0000935962281352   -0.0016294260931089 Mo
   0.1760169127259036    0.8718107068265195    0.1997627054793038 Mo
   0.3332214691773793    0.8729421571378697    0.0993336982079185 Mo
   0.8260445940234902    0.8810746031452882    0.0031787018761362 Mo
   0.5075159431088057    0.7534248232661058    0.5000386670005119 Mo
   0.8315921839559511    0.1283251522746301    0.2060010938837303 Mo
   0.5014973849473567    0.7466585276670277    0.9028594787803766 Mo
  -0.0001392183079241    0.3820369722758146    0.2996658951866397 Mo
   0.5065387647089792    0.6250652585407492    0.3981717278067099 Mo
   0.8292639697153300   -0.0007326206547061    0.2969269262511146 Mo
  -0.0049849231935694    0.1250224675106022    0.4985303924280327 Mo
  -0.0099248608393572    0.6277465842106933    0.1046663314113052 Mo
   0.4990273513204345    0.6235317431423169    0.5993415768204302 Mo
   0.8293026396589382    0.7552581169021794    0.7005351592487284 Mo
   0.8291275713762711    0.0057703945032268    0.4975743772877845 Mo
   0.8327465357501546    0.0021207411072950    0.9031502340766036 Mo
   0.1616816040265106    0.5021072089579675    0.6915078250713012 Mo
   0.8347417977393446    0.2451121176282587    0.6957909492962635 Mo
   0.5057827930555485    0.8701596999481732    0.3964114491128428 Mo
   0.1761094008747872    0.7494139003347824    0.1016704776385691 Mo
   0.0022574393783896    0.1237151376732829    0.1075961806456157 Mo
   0.8332937272308010    0.1250311771242760    0.5978339692783785 Mo
   0.8393214757209335    0.5016760112128167    0.3016686650148542 Mo
   0.8380745390914947    0.6192830253716365    0.6000026815015597 Mo
   0.8321070221679782    0.8711580134677097    0.2032179185592610 Mo
   0.8330038047157260    0.6255925230645819    0.0107103237592854 Mo
   0.5055435197861478   -0.0037557100968047    0.3037750254740743 Mo
   0.1755035172248440    0.7489994026359467    0.9028435962791952 Mo
   0.5028370617135307    0.3747164787165235    0.1973776079905289 Mo
   0.8331723383574413    0.8850221648805758    0.5957979473057763 Mo
  -0.0034469460372002    0.8672228953174428    0.6992306670981759 Mo
   0.5060993869290316    0.2540848312361381    0.6955695833032896 Mo
   0.1674786686672865    0.2393284235948019    0.4967649634310364 Mo
  -0.0025516114969409    0.3782435347296408    0.4041726933932280 N
  -0.0022106276870058    0.1283905781086256    0.8053626462316203 N
   0.8395835790876781    0.7529455312932233    0.5951109530490181 N
  -0.0052125137696372    0.8782306107471721    0.2025619941440022 N
  -0.0040638905061661    0.7533416164484504    0.9100524921208677 N
   0.5064627514379684    0.5057724949831818    0.7963047505352698 N
  -0.0025208391631045    0.2511515278378356    0.4969047053631818 N
   0.6712486350921190    0.3678374304583992    0.4005259800449996 N
   0.1613528861200011    0.6245397405268340    0.3040756923494811 N
   0.1655719285705783    0.7450631098179086    0.4984958687917278 Nb
   0.5051702290846467    0.4976007107711385    0.1039739438674778 Nb
   0.8310386325241655    0.3761409482833528    0.0009591609873955 Nb
   0.8348141114958123    0.0033623983200477    0.1061149104905719 Nb
   0.3302380789200721    0.2512031736681630    0.8013224641014868 Nb
   0.1663295444914026    0.4984633210404274    0.9023261130930269 Nb
   0.3316054452252046    0.5021320330944737    0.6000282002692816 Nb
  -0.0052172538648927    0.5008654870555631    0.7974932277666221 Nb
   0.1578743950540858    0.8727431125615722    0.6002694766590333 Nb
   0.6678913947255720    0.7506708542189158    0.3955050045162095 Nb
   0.8424967896561528    0.5012980846429220    0.5001409839542098 Nb
   0.3366049659665598    0.1236977591865659    0.6994790834239806 Nb
   0.5005939862746616    0.1231228627849392    0.8004869428429782 Nb
   0.8334714014255132    0.8721177398904768    0.7986234104623996 Nb
   0.3300430764415463    0.3656766859448685    0.4975585674149139 Nb
   0.0041850150537258    0.6280397894210368    0.9012106207014853 Nb
   0.6691727784405148    0.2545943411809202    0.7994887232203695 Nb
   0.5023073477524674    0.3756387689894563    0.5991823972721722 Nb
  -0.0032759854662088    0.3780572120826191    0.8982907617888064 Nb
   0.6679501628570482    0.1238038239229873    0.3025943521440199 Nb
   0.6657678868422781    0.6271215997296976    0.8980828897743697 Nb
   0.1661980683526641    0.1229310651516467    0.8000070320424786 Nb
   0.1626793754645283    0.1255107598201224    0.5987924234032959 Nb
   0.6729159711896957    0.7511473706088623    0.5992479172068590 Nb
   0.3275367762967030    0.0034404233037397    0.3987788898742533 Nb
   0.1675127985567226    0.6251507276630102    0.7972985859319213 Nb
   0.8373872328179128    0.7526809581890297    0.4970663108248641 Nb
   0.4930397369366986    0.8740575763278238   -0.0000857944993548 Nb
   0.6703505543871362    0.5007334026249384    0.3978335162789620 Nb
   0.6682241302795879    0.8772435782352966    0.1040276293847068 Nb
   0.1652797245968049   -0.0016114377393992    0.9017041054186972 Ta
  -0.0037606209043155    0.2545708034953612    0.7909195806814550 Ta
   0.1665309312636266    0.2498812729526213    0.6977803032175353 Ta
   0.1699929676139674    0.7494008102560791    0.6991228012398503 Ta
   0.0054186423066893    0.2501799417809586    0.4009569148994951 Ta
   0.1737093682184943    0.7500959219920217    0.2988127591620289 Ta
   0.1669119674753262    0.2466493066933532    0.0995746095347399 Ta
   0.3313602785006494    0.0000306533019962   -0.0000662349915544 Ta
   0.8322097286143093    0.5019627297078202    0.1073474169148117 Ta
   0.5078478047102001    0.2432696130808984    0.4960457210405205 Ta
   0.5005820559704569    0.1206752765240378   -0.0009540768897079 Ta
   0.3365650947154514    0.8738307502503330    0.4954459866916827 Ta
   0.3359525099443213    0.1234403627678595    0.0997290152211410 Ta
   0.0023130820515174    0.8750534181545849    0.8999857640630843 Ta
   0.6626431316134530    0.1210779540721013    0.1020245159360834 Ta
   0.6680683733379021    0.1272770124444667    0.6962465971546679 Ta
  -0.0007586822955009    0.8771337959251994    0.1081320169398175 Ta
   0.6727755486766404    0.3714229030234822    0.3022728718191156 Ta
   0.3354376126419207   -0.0015622341574998    0.1995401914639315 Ta
   0.1595199128379664    0.3760259245278362    0.5988501644668134 Ta
   0.6679769980969663    0.7513672332454223    0.0023569873339956 Ta
   0.1567313281113475    0.8723001031800208    0.3983924333782920 Ta
   0.8262974952020171    0.2516332399823391    0.9012871442448087 Ta
   0.5004403954677511    0.8763313695989550    0.7988845802421916 Ta
   0.8332748560592258    0.2532760916853816    0.1036851674235129 Ta
   0.8337483818240070    0.1243555746495322    0.7996995180090224 Ta
   0.3366517257925008    0.4976577692817136    0.2031645976517584 Ta
   0.3334457858001570    0.4930670217872974    0.0028042003198418 Ta
   0.5021096449950879    0.6260538635772361    0.0009020702665180 Ta
   0.5015205328184242    0.4981152509717240    0.8970844152779176 Ta
  -0.0008479913201493    0.0094594334210246    0.0045457845148437 Ti
   0.6718301608229283    0.6259474755226107    0.4992221822178649 Ti
   0.5053659059950932    0.3791935661736670    0.0002029885961526 Ti
   0.4942620260602912    0.6256691401072136    0.2014320866974015 Ti
   0.4962937476544214    0.8720708535354018    0.2032989409538957 Ti
   0.8254585936327414    0.1255619653954153   -0.0028317397461306 Ti
   0.8364125908823338    0.3778419032555380    0.2045839263903118 Ti
   0.8369385341501017    0.3812618271743551    0.3997733291923574 Ti
   0.8350371500375428    0.3738129710879370    0.5986245235467000 Ti
   0.5003894766203402    0.1209173665329918    0.2068624960651670 Ti
   0.8311622954728439    0.6236356434817276    0.7909066195859306 Ti
   0.6739630783677343    0.8758566664865268    0.9016856268316543 Ti
   0.1741871917834613   -0.0034090165542036    0.6995184967779962 Ti
   0.1668028624564248    0.4995466550565064    0.3047552173418080 Ti
   0.1379256760251336    0.5138241194486224    0.4982441185354912 Ti
   0.4962879672056477    0.2544208815151002    0.1048774747196426 Ti
   0.4974455629957233    0.2420660994829676    0.3009119183224576 Ti
   0.5025853910811839    0.2521646971404966    0.8965973134073808 Ti
   0.8305659644491411    0.8851479285547532    0.3993547772361581 Ti
   0.1675282237653213    0.8745332406449242    0.8003304097612564 Ti
   0.1726671253315700    0.8732049725487030    0.0018530974655069 Ti
   0.1617240024205191    0.3810445809337718    0.2039154557537086 Ti
  -0.0042946743759826    0.0024548355644145    0.4008306991335141 Ti
   0.0057466351586100    0.0015310462501910    0.5947078269198504 Ti
  -0.0019403294987737    0.2506609866655660    0.0073473973868296 Ti
  -0.0069021890781102    0.2487257918072523    0.1993630921312668 Ti
  -0.0002203107897766    0.7510560354501681    0.1983722770882490 Ti
  -0.0020275786025283    0.7465709370609219    0.6018744709571255 Ti
   0.3331107480424705    0.0045763859709612    0.5992896997711248 Ti
   0.3336000797178786   -0.0007835261665349    0.7970805241989394 Ti
   0.3420848101152566    0.2499716649624868    0.2016831661432052 Ti
   0.3324253099523385    0.4999824805633593    0.3975534078432960 Ti
   0.3341225194934163    0.7478072797980081    0.3979522621905247 Ti
   0.6662908183948331    0.4968575235692311    0.2093818640124359 Ti
   0.6701901476741877    0.5015370897639799    0.5960823996414353 Ti
   0.6705260772359758    0.4995501925374286    0.8008517254453810 Ti
   0.6641672890590400    0.7492946088650954    0.2006969295661501 Ti
   0.1714344700350369    0.1232021808189023   -0.0049216679111286 Ti
   0.1636211236087337    0.3707326686427590   -0.0001496813619772 Ti
   0.5122774002657488    0.5005641877330256    0.4968553012794336 Ti
   0.4931204677430379    0.5035903428143278    0.6975282925629912 Ti
   0.1664143660865612   -0.0048721521211257    0.0980738827414501 Ti
   0.3370082510030109    0.6260300620463713    0.8921488494969656 Ti
  -0.0074798261354034    0.8800669825572511    0.2994744934150118 Ti
  -0.0069282543065180    0.3682162793877513    0.5017469699525758 Ti
  -0.0060655118807002    0.8819193843390996    0.4989449252418346 Ti
   0.3447310636984068    0.1225447618557536    0.4997531300194875 Ti
   0.3252252008000844    0.3737114650175570    0.3008109249200392 Ti
   0.3339564270048838    0.3784131355178528    0.7001794774301742 Ti
   0.3357050527978361    0.3745208573120206    0.8992055029171721 Ti
  -0.0035362422768564    0.1189106667377489    0.2989848507243847 Ti
   0.8337666897403196    0.7553859910424944    0.9030612475121534 Ti
   0.3333778463729435    0.6247948109608480    0.3025191360591610 Ti
   0.3348474020791748    0.8716773918261121    0.7063468431290691 Ti
   0.3446565423119876    0.6302090317963450    0.4979229200791108 Ti
   0.0014572798312590    0.6249093600356284    0.3015090568809521 Ti
   0.4981414062610442    0.7493663760028941    0.6922471598161796 Ti
   0.8277246197211673   -0.0011427665419248    0.7005167908481078 Ti
   0.6643645411233438    0.6297362640807377    0.0998558423750069 Ti
   0.8323689796779147    0.2467346898873715    0.5019733046146772 Ti
   0.5119540927030732    0.1267110992068419    0.3988833283292962 V
   0.0095190116133524    0.0034723240721848    0.1996447322292349 V
   0.1641628361166313    0.6239916446640290    0.6033334987026858 V
   0.3440375466891990    0.1331287093880459    0.9011597729214657 V
  -0.0043504080236767    0.7506421981621556    0.3990661293446141 V
   0.6614382475405247    0.3691403784069671    0.6981750635080241 V
  -0.0066256777518829    0.5056085555902260    0.2070906492215406 V
   0.0012858202981636    0.4956022459203437    0.3958760144559715 V
   0.6603392535488779    0.2515162349774798    0.3987355048853994 V
  -0.0047333780059559    0.5022419501012308    0.6039707970679854 V
   0.4934013035514472    0.1218661417300117    0.5962686324893599 V
   0.3404378898664628    0.6292844860442892    0.7012016265306720 V
  -0.0018431814117205    0.7388276267955221    0.0072435582458279 V
   0.6624643951467925    0.1230249212414365    0.9020275107227519 V
   0.6653010326719498    0.3743408347350710    0.9022977936578769 V
   0.5090428966023985    0.7420138922980264    0.2984756138151203 V
   0.0094156120737360    0.6215555524155014    0.6933847143818070 V
   0.8302423800709484    0.4915331323136448    0.8920050113476743 V
   0.8292411743601700    0.7510873645865224    0.2994477586344985 V
  -0.0062218365762676    0.1224716934494506    0.8961619674878560 V
   0.4959301352787749    0.0007905144558607    0.5030784067461141 V
   0.8294888446304656    0.3775566844588238    0.8018378479059174 V
   0.1778008030503493    0.2494555720918125    0.3056675142368553 V
   0.5097860275497302    0.0073360977974408    0.9007547223566764 V
   0.8224171890510897    0.2484393528432964    0.2979205606508212 V
   0.0030751089228992    0.3851233861953132    0.6961285583391835 V
   0.5053750647743427    0.6172752226873381    0.7962126700215759 V
   0.4926326694596364    0.5100024701421275    0.3018469283558928 V
   0.8351533970068917    0.1227247690140599    0.3967622897234112 V
   0.8356503799833948    0.6216919716661142    0.2039701457804767 V
   0.8327104543629142    0.7518641027736493    0.0993551130880656 W
   0.3349150300378477    0.8694365836102893    0.8993798048328530 W
   0.1704127341921912    0.2517466255657574    0.8998012351554101 W
   0.4994032032072674   -0.0079145414467633    0.0995558909254324 W
   0.8367481806178672    0.5042331453949710    0.6977947317463878 W
   0.3238909374829058    0.2493731733223024    0.0005349992978171 W
   0.6717407964218339    0.3692342737720577    0.5039039465663723 W
   0.5063318250468619   -0.0004315075611184    0.6948999236035485 W
   0.0008668418735748   -0.0015745581293039    0.8071034020201215 W
   0.1565400756320332    0.4984298187331279    0.1020716216106138 W
   0.1692208644117748   -0.0053275905541998    0.4990325037852585 W
   0.4950665107527945    0.3718845273707688    0.4026552325895555 W
   0.1619330956231925    0.0005740969504925    0.2975056564706630 W
  -0.0009430091569848    0.6288562145551743    0.4964189013741351 W
   0.4957043899061457    0.7457890619541661    0.1021666704817692 W
   0.5164822320533040    0.8794866581094580    0.5979200090011104 W
   0.0022009772414916    0.3785186310729960    0.1031562355862845 W
   0.1656914816944704    0.6252405975060925    0.4004087655428374 W
   0.1580884992868699    0.6222454798429070    0.1949437869595299 W
   0.3280541157709213    0.1254064817363037    0.2991842056742039 W
   0.1653457643465321    0.1234727989069843    0.2036604438504989 W
  -0.0025434451713227    0.1300081744006072    0.6958473954540442 W
   0.3303451253040920    0.3740349288468360    0.1045412065545460 W
   0.8420779411447349    0.6247194694281132    0.3982753693254028 W
   0.6693740230710465    0.4991807317567397   -0.0061158191571936 W
   0.6663807671173997    0.2529314802548586    0.2030663736877266 W
   0.5076635806198460    0.3715859516369209    0.7975321482553174 W
   0.3327628044971720    0.6265594124948091    0.1056267780286610 W
   0.3394040114686285    0.2499745499966085    0.6005667649299286 W
   0.6612991915903375   -0.0003041739772488    0.8027464868481080 W
