Yb21 Y21 Er22 Ta32 Nb32 O224
1.0
  10.3645224244490048   -0.0000651669737234    0.0110671407157584
  -0.0001314451528801   20.7338691768291277    0.0025875477681040
   0.0221382320738415    0.0025862606875997   20.7387893599786004
Er Nb O Ta Y Yb
22 32 224 32 21 21
direct
   0.3659246997188313    0.4391271450264278    0.0636000689720716 Er
   0.6256450882308550    0.1972005004621373    0.6790528341411960 Er
   0.6303980912802061    0.8112412580901947    0.3112631358598015 Er
   0.6182775008047385    0.9384408957079162    0.9365520098796861 Er
   0.8790918954133341    0.3157518196461938    0.9424093080583490 Er
   0.8726816119675052    0.9399751350650543    0.8116762863589863 Er
   0.8653780898396831    0.4314590136841287    0.3136604002508721 Er
   0.1240004233151397    0.5648122909754890    0.3102559340215816 Er
   0.1284244668059721    0.0621688585331339    0.8138039320101276 Er
   0.1167612726437658    0.6836453883410352    0.9389283307598484 Er
   0.6483864849399970    0.1896241738747505    0.1913931431107127 Er
   0.1146228863792201    0.1878683809182337    0.4335795052420940 Er
   0.3884264327663784    0.0710111862896484    0.9413229933518810 Er
   0.3847494683815064    0.6840141091590066    0.8083168110866342 Er
   0.3644765231238608    0.1897653811303790    0.3130921444667913 Er
   0.8759553084233063    0.0661892748445499    0.6871784044159071 Er
   0.3654731439896916    0.4416690516544016    0.5588491468298359 Er
   0.3893107307427761    0.3118205545522783    0.1872399308675814 Er
   0.1227233700287585    0.3186943449982925    0.5532805382682060 Er
   0.1100314073822813    0.3125391932208587    0.0691338023287903 Er
   0.1409148978160673    0.8045610638357511    0.5656155211553402 Er
   0.1279560273911897    0.4416408469068776    0.6821175163112542 Er
   0.8999024508825260    0.5491219383356511    0.9506112843045166 Nb
   0.0958269283458490    0.5474821177585784    0.0488791057450199 Nb
   0.1160606420774429    0.0627846470956971    0.5635183496895751 Nb
   0.6321815158019842    0.9347496025497249    0.6838965872510977 Nb
   0.6172972709999208    0.9390219009122717    0.1861927679946454 Nb
   0.6549707696169516    0.4240350684204501    0.1696477045708517 Nb
   0.3747384772789533    0.5597126928113585    0.6938994544163499 Nb
   0.3799085494204897    0.5544396981780574    0.1804502019233928 Nb
   0.6144658502092175    0.3143067346489075    0.5575508804607845 Nb
   0.3598947677490947    0.0706795433924121    0.1909542343575832 Nb
   0.8765729231727388    0.9401413639752112    0.5649365647794115 Nb
   0.8993656466489677    0.4508896564229692    0.0491489045670785 Nb
   0.6583955952277749    0.3301915705932717    0.0765526226055691 Nb
   0.9044766851488878    0.2002018476600421    0.3008735761757177 Nb
   0.8872964354295331    0.1957457235745289    0.8120815049875396 Nb
   0.8552326939530164    0.6758518921187527    0.3303408645275877 Nb
   0.0970750481891501    0.2050035225227107    0.2042087761545121 Nb
   0.8524995724625788    0.6780811431193089    0.8306814709682501 Nb
   0.3889772602685018    0.6827946163977706    0.5619206171742750 Nb
   0.3720798740079685    0.6770883185525698    0.0578720783845248 Nb
   0.3574693951674867    0.3138673916477129    0.4277751661397843 Nb
   0.3740525362488580    0.1872685048028209    0.5570326524332095 Nb
   0.6624411234680410    0.6781580124714508    0.9254692528418733 Nb
   0.0939861032037839    0.4516271104503313    0.9503276301240873 Nb
   0.0957190205179541    0.2981463554134147    0.2971980475044934 Nb
   0.1434214845003459    0.3294972531825696    0.8218976240819581 Nb
   0.3348272290258636    0.4299575809280627    0.8187895956258271 Nb
   0.3789760178486087    0.9369112667766608    0.8112861830760930 Nb
   0.8521928288675547    0.5812205180274076    0.4249825719489491 Nb
   0.1181174218630639    0.6858574933164164    0.6925220993932919 Nb
   0.6639507963775654    0.6760488280647688    0.4256694333198890 Nb
   0.8792389273452140    0.0674361764714663    0.4354710951211715 Nb
   0.0035606258767957    0.7532693637588378    0.6438949101462798 O
   0.7593085607499257    0.4995650288652373   -0.0034845123827536 O
   0.8070491116438628    0.0016981844676200    0.5009131762562723 O
   0.8062586020206877   -0.0013696204114600   -0.0009013935442400 O
   0.7561370265340768    0.7518982286844910    0.8768680801094003 O
   0.7500705922290833    0.7483372528355093    0.3744511534193336 O
   0.7469755003322355    0.2219520060275033    0.8724706375300705 O
   0.7898822334027569    0.4999848107737556    0.4973551345118185 O
   0.7489685834882233    0.2270320967985466    0.3723263289733191 O
   0.7472272496970263    0.6236368995706464    0.4963481461420371 O
   0.7504118069841786    0.1239282842726286    0.9726224206359972 O
   0.7478707993256246    0.1263432296265225    0.4767153451508045 O
   0.9765718478287595    0.6240128331992064    0.8787538882910778 O
   0.9996861146609155    0.6248956651754763    0.3745091654387862 O
   0.9654141631103430    0.1240611414752990    0.8761991607714055 O
   0.7579354832699187    0.6240152911356757    0.9860449931236533 O
   0.2023913122279789    0.0000846816687802    0.0023869008784726 O
   0.1969504938780477   -0.0029371161419237    0.5023452318549047 O
   0.2350436450112139    0.5002698668451987   -0.0008199090558243 O
   0.7464393988693417    0.2754656164582432    0.6248727491747252 O
   0.7484933346184141    0.2593166920330247    0.1244080032404045 O
   0.4877520850839257    0.4992234803848832    0.8519990773468481 O
   0.4935276589422781    0.4991458312679268    0.3475381844528415 O
   0.5063658305652158    0.0001709769270864    0.8577599991443626 O
   0.5028262407562066   -0.0007644113891703    0.3460331714111409 O
  -0.0062956263532206    0.4994295817946007    0.8784880738473940 O
  -0.0030950587689441    0.5032099366056557    0.3971583990733318 O
   0.0014680170761594   -0.0002263842364296    0.8947129358045289 O
   0.0006785556016578   -0.0028319340850733    0.4010740209109636 O
  -0.0009176992188810    0.6083379495371664    0.4998022539523097 O
   0.0005772545198276    0.6195455968091900    0.0006132059031475 O
  -0.0001815590987887    0.1080638020245395    0.5013104949766685 O
   0.0055654385707464    0.0971390824296308   -0.0010099345139205 O
   0.1917564887156024    0.4973155173942791    0.5007541957070658 O
   0.9642306226818779    0.1263484572911433    0.3759482899433456 O
   0.7496782333165692    0.7761307973373994    0.1249826659366068 O
   0.5284649141241454    0.6260372181670470    0.8723170045901705 O
   0.5495270782046281    0.1234774089787426    0.8776771358352430 O
   0.4992378663334854    0.2482222222981043    0.8980289609151890 O
   0.4935033957674118    0.2475837414911892    0.4003088055862918 O
   0.5048495258955750    0.8453062149871842    0.4981012503133372 O
   0.5087494160603623    0.8543686079914660   -0.0023146705059166 O
   0.4890933030837054    0.3526688062597359    0.5003844697383140 O
   0.5097417878211682    0.3509526031401309   -0.0017434351732678 O
   0.5016949312282921    0.7470737030001026    0.3920219702530683 O
   0.7202522422319572    0.7497456120975267    0.5006992515484437 O
   0.6999497448889305    0.2501665446465083    0.4995844044383616 O
   0.7146517352137556    0.2517473013562029   -0.0009285249520433 O
   0.2962149094269731    0.7501231446445432    0.4990775093749777 O
   0.2992608337624682    0.7540951471460413    0.0007794662537747 O
   0.2878324940402779    0.2531065861713821    0.5024298494493336 O
   0.3016084362781514    0.2464249817169386   -0.0018992669550469 O
   0.7149631774871217    0.7508369299003993   -0.0003205788548857 O
   0.5062464510195739    0.7486170918639317    0.8953534093595349 O
  -0.0025114042836882    0.2516504109343759    0.3693243974824759 O
   0.0058877747510176    0.2508893184505293    0.8590834678542999 O
   0.5507420110631521    0.1229918976546838    0.3758911316650670 O
   0.7429567539557296    0.6208801071960517    0.7723380893617080 O
   0.7439111539422678    0.6244591251602863    0.2666304387257032 O
   0.7594369738671438    0.1213659938393194    0.7779156597151220 O
   0.7484072560034419    0.1272552954624375    0.2727531655198137 O
   0.0078107716141158    0.8937087059856527    0.5030707393294566 O
   0.0064720960243097    0.9017315523978437    0.0000307681607946 O
  -0.0025000882540696    0.3986534308269952    0.5012517463105229 O
   0.0052918802417347    0.3797099870254471    0.0011284705905451 O
   0.7465523095229449    0.5116712757072074    0.8726572397418233 O
   0.7447944880573236    0.5170456985744510    0.3709874276259774 O
   0.7525546761830831    0.0218624721440319    0.8768765130544403 O
   0.7522005534139186    0.0235633897216983    0.3737120142082273 O
   0.0061225661759729    0.7501368365917946    0.8565862087499648 O
   0.0013049752465177    0.7501951033611846    0.3586832398304284 O
   0.5378202192975868    0.6217852933477227    0.3700380467561534 O
   0.7521079787784545    0.7749246629728966    0.6270423322975132 O
  -0.0022908127805843    0.1342825657035333    0.2489192913850327 O
   0.0063150225804697    0.1433519226990012    0.7526400806219075 O
   0.0011183823501312    0.0020648458087830    0.7526890591269925 O
  -0.0012657691246805    0.5006530189439850    0.2561008023722418 O
   0.7960676507699377    0.7479828569964574    0.7519964512687091 O
  -0.0077319029319531    0.4962412107080119    0.7436588813233433 O
   0.2532434905317818    0.1275333403200347    0.3789866430902760 O
   0.7885226079405945    0.7497552564370100    0.2515420090662114 O
   0.2435995778239071    0.2543623922648357    0.2481659535834496 O
   0.2562199254483872    0.1239354507553322    0.8753918772729576 O
   0.2497633208084581    0.6309104932135330    0.8715654608687354 O
   0.0050401506392777    0.2462925326832692   -0.0000582775485436 O
   0.0075225320138087    0.2497200691722216    0.5052671310544972 O
   0.7882844506213583    0.2476358287719166    0.7460412637961704 O
   0.7869965000575806    0.2529789732046037    0.2458930683309798 O
   0.7551044011509697    0.9868712714045517    0.6294992075682520 O
   0.2585321737995420    0.6255441634522345    0.3737908876466696 O
   0.0000588533264310   -0.0059236653916840    0.2520136629792386 O
   0.2419128693561957    0.8742807560219452    0.6238824324977014 O
   0.2564928602991798    0.8766105842990184    0.1227210089538774 O
  -0.0012235815286989    0.7489743106067961    0.1525667888816813 O
   0.5010055435775688    0.2488877970295415    0.6034070850872649 O
   0.4978129694989888    0.7507447140159753    0.0972246789649183 O
  -0.0034097857069288    0.2497961424706499    0.6552915622123252 O
  -0.0063248247225425    0.2556855064669920    0.1414711276715432 O
  -0.0001588551964824    0.8551383331462280    0.7534841857910849 O
  -0.0021121865536166    0.8482469902085320    0.2518402453066590 O
  -0.0116502710215533    0.3518408988800575    0.7523747597956054 O
  -0.0112358403526573    0.3621042576626735    0.2467959908586985 O
   0.5057103563330687    0.7489578685583742    0.6005914606597362 O
   0.2095357649795005    0.7535208108120822    0.7499782829807362 O
   0.1936668550730057    0.7475445979173257    0.2496466674756857 O
   0.2487844047058325    0.3713443850827851    0.1282188062372463 O
   0.2438031408868645    0.3779501291337916    0.6177985691998725 O
   0.2035266528475012    0.2494961087096861    0.7548042651585006 O
   0.7498652947892132    0.9735692347791611    0.1236617776154238 O
   0.7455172106247172    0.4715893109259595    0.6259067062119409 O
   0.0030169013426068    0.7538639807205345   -0.0002890642757855 O
   0.0060485658271240    0.7513697735112659    0.5012563251764957 O
   0.5413832485425387    0.3738432775591913    0.6244753940995513 O
   0.5114068856846752    0.3764909752518492    0.1198305802814023 O
   0.4886523516282127    0.4990499208290094    0.4995922965404417 O
   0.7439469708760008    0.1223076443121822    0.1288512545976695 O
   0.7495306030607609    0.1276605764994743    0.6326418455641960 O
   0.7525570343837180    0.8751133881182599    0.5228302550373726 O
   0.7539785989607409    0.8753851908836909    0.0223795988774564 O
   0.7460657993869119    0.3746509092447341    0.5262668446395362 O
   0.7598729375251455    0.3779123884361245    0.0103010134170859 O
   0.7521518912704085    0.6273979632342110    0.1245382419155029 O
  -0.0079302931974007    0.6405108436072470    0.7498147651796153 O
   0.0002753202828183    0.6429175134917482    0.2503833462260640 O
   0.7558777030229817    0.6253262208900152    0.6279277064081151 O
   0.5024228955177547    0.2442310039287696    0.2501780477908930 O
   0.4970954529369828    0.2441450335717263    0.7468371366901400 O
   0.5539484303032588    0.8750712286048891    0.1220178767943937 O
   0.5010852548011691    0.2508393633135167    0.1057552241675389 O
   0.5516060771724329    0.8739746476075784    0.6221301538500895 O
   0.9520955890831222    0.3749829981817321    0.6241523236280395 O
   0.7516678681354306    0.3752078120365573    0.3779032572717662 O
   0.7490951508896458    0.3691118074411641    0.8735463130446686 O
   0.7565320274398796    0.4886509976540969    0.1194646184650778 O
   0.7565779720167051    0.8746184675142782    0.7339038070580431 O
   0.7483675433964458    0.8742407228947416    0.2264827864020209 O
   0.7510046333337578    0.8768695334829459    0.3729460504180029 O
   0.7404447338330927    0.3740952716459731    0.7238214660597189 O
   0.7540635702974537    0.8833046314190740    0.8769162803330356 O
   0.2506755193195671    0.9845813216969854    0.8758793735319773 O
   0.7440318787559548    0.3756131030392501    0.2414758204524538 O
   0.4962780967698091    0.0002039215754680   -0.0021309466384322 O
   0.5021117792689272    0.0006388654651207    0.5016131473181661 O
   0.9509337209262664    0.8762638224985703    0.6311973974765910 O
   0.4955195216225400    0.4976966710742758   -0.0011157519211211 O
   0.9486986606088028    0.8729433549179283    0.1264399099278864 O
   0.9704187985484242    0.3787633916148087    0.1224050669987296 O
   0.2532956204832735    0.9729262684232025    0.3769612482219462 O
  -0.0053930922628008    0.5004188170284648    0.5986272776203477 O
   0.2493098282450357    0.4752994375936170    0.3754944377287910 O
   0.4618786021307876    0.6258562666131136    0.1246440436827539 O
   0.4550686587252921    0.6219173640433875    0.6246715568971666 O
   0.2502226559624106    0.1293568218463808    0.2353700996978225 O
   0.2531636875013897    0.1258587031995785    0.7295962197456969 O
   0.2493674592985634    0.6232192716952331    0.2290405439414049 O
   0.2526169277180773    0.6280576980368852    0.7312726561879069 O
   0.2453641094276903    0.2278079361315576    0.1240281791517697 O
   0.2476315163192768    0.2268016681633616    0.6267061872260653 O
   0.2481220540856765    0.7205889498907287    0.1254064926437318 O
   0.2492900739123462    0.7256820937065090    0.6221555809989406 O
   0.2972178973640935   -0.0021939068498560    0.2495821220401063 O
   0.2879008100471557    0.0032231174850582    0.7518130314772999 O
   0.2896206382270055    0.5005310711437112    0.2517825146052425 O
   0.2692277591847074    0.4991947626604576    0.7473568788850777 O
   0.7044159790392581   -0.0010985621685985    0.2501543220843929 O
   0.4507273338647150    0.1277247117072528    0.6283485044695363 O
   0.7108474143097493   -0.0022157218684799    0.7554984881963276 O
   0.4462344646709267    0.1221690788187037    0.1216295158207046 O
   0.0392758495397244    0.6243533413758857    0.1225058757507527 O
   0.2394521767313823    0.4879978446466164    0.8761260793691737 O
   0.2490549253810586    0.0218011441538688    0.1251047156602828 O
   0.2509017619960943    0.0219385805299567    0.6267858094606935 O
   0.2499455368517341    0.5152312807678641    0.1239548825881598 O
   0.2434751548316591    0.5222482403504117    0.6222891181535493 O
   0.4933505599820845    0.3940332578605443    0.2441519382310317 O
   0.4889407138869871    0.3976040242265239    0.7505689551366913 O
   0.4982737248241880    0.8968484400587028    0.2491409560534532 O
   0.5022281032820131    0.8973155011636539    0.7500195641085027 O
   0.2548101522611234    0.1234521509839749    0.0216817904794525 O
   0.2524224436290432    0.1232292813120549    0.5254746178298366 O
   0.2458570070042929    0.6262305620577344    0.0115270988962074 O
   0.2489191433093086    0.6233548448715036    0.5205152261501769 O
   0.0472614551507875    0.1283729904683432    0.1248275865918467 O
   0.0448219641107589    0.1254820246943898    0.6304703486730278 O
   0.0465414898510613    0.6238292484084339    0.6244572397893571 O
   0.7124805955457461    0.4982413126379295    0.2452693891989124 O
   0.5003573306516632    0.7520930586985890    0.7533091391781551 O
   0.5019061032937063    0.0998104905841877    0.2493333068126900 O
   0.2360665557064374    0.3765730052387954    0.7511079065292757 O
   0.2484543925773481    0.8723823716925007    0.2792018447389875 O
   0.2456808578827217    0.8781401756884505    0.7750836296065767 O
   0.0369410268386674    0.3765145204912252    0.3723931854217097 O
   0.0478897259136762    0.8743232303391666    0.3754104812721932 O
   0.0500193760854058    0.8767393146489036    0.8758790602061137 O
   0.4532864495991724    0.3756547232016387    0.3739102807392422 O
   0.4541040670810299    0.3724946091884813    0.8742656220505145 O
   0.4536220066135605    0.8733131786618117    0.3736923433355955 O
   0.4696058670888447    0.8756211214021671    0.8765913099940101 O
   0.2412600102961113    0.3760893939711071    0.4774843385900132 O
   0.2536406027663970    0.3754561386662478    0.9854557357839634 O
   0.2557466744706883    0.8718804412445258    0.4715746581414662 O
   0.2627788485021136    0.8785591150645466    0.9683063592175368 O
   0.6913053713883216    0.5005154479821585    0.7466400820933963 O
   0.2407656426098758    0.3763458011418567    0.2741376754130975 O
   0.4962356434050700    0.6451519639831103    0.4950475251309617 O
   0.0258048091785836    0.3767896287863173    0.8782400400269763 O
   0.5021140325229232    0.1524748053750157    0.4997775594270419 O
   0.5006516322896428    0.0958955093868846    0.7523171744371453 O
   0.4958603416496725    0.6011803659101651    0.2481019005036140 O
   0.5038054958083584    0.6446760552944498   -0.0027642964878652 O
   0.4958310130394116   -0.0006104841374363    0.1479844054612519 O
   0.4994719001187568   -0.0002273216862162    0.6526034566968522 O
   0.5058575260386532    0.4984864956408944    0.1403286953470768 O
   0.4892047877468914    0.4945468630968687    0.6431309281211985 O
   0.0021016026231365    0.0002667959919836    0.0988211668184337 O
   0.4972835988981807    0.6047126677958248    0.7513524496826375 O
   0.0014383561565343    0.5006807131796520    0.1204570284585351 O
   0.4992567005163857    0.7530629416169965    0.2519387759088380 O
   0.2428037792184366    0.2645031760115715    0.3731506639445388 O
   0.2539875180548188    0.2690931086126283    0.8785066873999847 O
   0.2509362800166635    0.7719124278805953    0.3748148993125818 O
   0.5006125573988237    0.1494067407632826   -0.0006472208458882 O
   0.2581588735261588    0.7789232818483757    0.8733674210382679 O
   0.0017613380833705    0.0011564440404913    0.6148325908311573 O
   0.1229032875109213    0.8090171700622881    0.8129406790091727 Ta
   0.6278182800491563    0.1957590188340750    0.9428274645468301 Ta
   0.6335543530173068    0.1902177117993574    0.4316883177640763 Ta
   0.3873651017386576    0.8059434958086314    0.9371007515762950 Ta
   0.3886232371939553    0.8064788782997454    0.4345381002540898 Ta
   0.6057236460006894    0.4364011900126545    0.6915430862497577 Ta
   0.1192038017450604    0.5648137257158526    0.5575841046100051 Ta
   0.1255744386323748    0.0694483200007490    0.0694189202772017 Ta
   0.3747633957510201    0.0614995680691167    0.6847918090730070 Ta
   0.8798976654876980    0.9356105687504378    0.0659715846510730 Ta
   0.8635357956272929    0.4440140901688475    0.5570746327443145 Ta
   0.3763806856332544    0.4324330294747646    0.3036615983517091 Ta
   0.3741086485351897    0.3206785831980830    0.9430494128420566 Ta
   0.3742630654330512    0.9384884219257339    0.3123341397599779 Ta
   0.1221164004139058    0.8066795234723448    0.3124491055448386 Ta
   0.1106845038679985    0.4388146259342566    0.4280500856045949 Ta
   0.8761901674184934    0.0638011495313346    0.9383658927586377 Ta
   0.6324935413444617    0.8094218149936989    0.5592222215171161 Ta
   0.1204795520534133    0.6777153306914117    0.1851500424588946 Ta
   0.1295648620179142    0.1919213465965187    0.6907981340874493 Ta
   0.8743218928134059    0.8071387454506250    0.6919253443803687 Ta
   0.8710521110622071    0.8070685135834345    0.1930725992861035 Ta
   0.8743389339608416    0.3164117448747969    0.6877363685144382 Ta
   0.6248568635976081    0.8062764931309890    0.0602677929196702 Ta
   0.3768427253443539    0.1947105764982683    0.0690244192141535 Ta
   0.6236077518740344    0.5594232095716606    0.8224883390271442 Ta
   0.6317648526267370    0.5575511860789891    0.3055544271189592 Ta
   0.6278499898870858    0.0648880927015553    0.8128513348206768 Ta
   0.6330240181192064    0.0660636956310691    0.3107765099718222 Ta
   0.1355638951500683    0.9393961659201808    0.9384264751873500 Ta
   0.8489008602233474    0.3257732964267316    0.1762509214253475 Ta
   0.1287665199840448    0.9353244565252762    0.4406006088582260 Ta
   0.3705599946848706    0.1960970930516314    0.8137871923284071 Y
   0.6257447442105639    0.4332445478359342    0.9383984009422743 Y
   0.8808985750004134    0.8162941176527293    0.9392353800764851 Y
   0.8746449736177647    0.8146203175565891    0.4373049823920048 Y
   0.8759572172412274    0.4341043505029387    0.8156958151502085 Y
   0.8786095603228610    0.9423185965369798    0.3141446025403827 Y
   0.1170181379205726    0.5629717522779686    0.8131877661115285 Y
   0.1277861233722897    0.6872349571887481    0.4364055427393088 Y
   0.1275031481916280    0.1913227066618451    0.9371730491739509 Y
   0.3906509287098313    0.6812665517742789    0.3073244444587451 Y
   0.6265604145866550    0.8119730256062084    0.8116293133423731 Y
   0.3943131476792084    0.5637133774794776    0.4314969126202089 Y
   0.3710892518444465    0.5605555064939125    0.9353665677060212 Y
   0.8766802275237757    0.6852198278509278    0.0602019954011664 Y
   0.8714842640531667    0.6843859110848284    0.5617803315077925 Y
   0.1170623335774676    0.4344849934007043    0.1896523743337725 Y
   0.8703498799896703    0.5608523849848009    0.1872572866889755 Y
   0.8601792280678950    0.5652494279286042    0.6938806456114822 Y
   0.6282481992641360    0.5622072782270063    0.0609078629300299 Y
   0.3714474992882040    0.9395645603106845    0.0671699661546615 Y
   0.1257659726021625    0.9354875457097250    0.6865078517511074 Y
   0.1298001576529833    0.8077949114812303    0.0692087421780070 Yb
   0.3787923602119033    0.8104730487902161    0.6850642184203062 Yb
   0.3701691703598677    0.8076893085757791    0.1842993419879733 Yb
   0.3685821914344143    0.3133732593196015    0.6854767201213833 Yb
   0.3813548781467648    0.9376433273199269    0.5606179620827881 Yb
   0.3804735625200427    0.0607239936435360    0.4383979552202297 Yb
   0.1274027253006115    0.9347516461302892    0.1900086488112867 Yb
   0.6236941716741252    0.4382942728922319    0.4340085375761182 Yb
   0.8732143580502375    0.3120789944201850    0.4377315471727851 Yb
   0.6265869918826131    0.9420594741287674    0.4392326312713992 Yb
   0.6306753944905439    0.3117856307860617    0.3137860099354346 Yb
   0.8737231449549876    0.1866033103051025    0.0678579768461922 Yb
   0.8734968658685994    0.1885723621539898    0.5631658210869435 Yb
   0.8801433648388697    0.0617394204095514    0.1884671988373896 Yb
   0.6223970344501820    0.6867594757835859    0.1877038204068797 Yb
   0.6243432692852854    0.6858487751137246    0.6900749491485079 Yb
   0.6247283476538168    0.0637083024952035    0.0661218556947442 Yb
   0.6285214925567898    0.0616638702054556    0.5604612256969114 Yb
   0.6237281670895511    0.5616154615965666    0.5634341585186738 Yb
   0.1224554479499362    0.0624401525626361    0.3128579741152172 Yb
   0.6151379500703344    0.3121532730648771    0.8114763785281917 Yb
