Hf39 Ta38 Ti38 Nb39 W38 C192
1.0
  13.4003809864888730    0.0004574404912060   -0.0007193727518152
   0.0006099416440644   17.8681291947361096    0.0000415534771698
  -0.0009591769272871    0.0000415377932185   17.8674981277819143
C Hf Nb Ta Ti W
192 39 39 38 38 38
direct
   0.8309595227488203    0.8752913147377308    0.8766673943852288 C
   0.3331411994137065    0.1269348729987232    0.4981110620435696 C
   0.3344190712216676    0.1237638256122682    0.7485537575666972 C
   0.3306867492905692    0.3790293859828916    0.0032504923461126 C
   0.3363090922619921    0.3766074918526108    0.2500163855674233 C
   0.3316190650344611    0.3757743804910245    0.4990238769327277 C
   0.3349212526275307    0.3767117275727855    0.7481119057513106 C
   0.3325226101311422    0.6260415569256687   -0.0001391783566409 C
   0.3361515726307060    0.6219104529136688    0.2530782983233364 C
   0.3371319347970221    0.6237459227178062    0.5010023963143030 C
   0.3320605544383601    0.6256219886381708    0.7460887705111420 C
   0.3343465719814319    0.8717090953498415    0.0018722249312097 C
   0.3351627530969445    0.8764092053515783    0.2477485448746101 C
   0.3302098999162347    0.8720055123507383    0.5040351895472239 C
   0.3340999470769286    0.8740306628667687    0.7465218260808104 C
   0.6672345442803599    0.1249910309066874    0.0001452354239406 C
   0.6677419891970496    0.1256240333736547    0.2543575550254998 C
   0.6622115178157488    0.1238597190674654    0.5003234881309739 C
   0.6656777230326473    0.1200040476676793    0.7463660290699040 C
   0.6694518755682393    0.3752608713492089    0.0032296396832738 C
   0.6663824891840132    0.3756756183201181    0.2487357465836351 C
   0.6607829749383288    0.3774802247370889    0.4997089626236559 C
   0.6647980804468113    0.3757181868708817    0.7488155720385486 C
   0.6693286844979488    0.6274667796725706    0.0002412713563939 C
   0.6653187587081866    0.6237120138542970    0.2500358244867293 C
   0.6624979719679507    0.6243268781363813    0.4980969653789540 C
   0.6675220190502018    0.6253537269154927    0.7509121967511807 C
   0.6670246438990123    0.8722586930429286   -0.0041942783025636 C
   0.6643133603833371    0.8744307087014429    0.2501461898790435 C
   0.6650879882461982    0.8733345093133259    0.5009144554865301 C
   0.3299249204817633    0.1253837362232498    0.2539187738263997 C
   0.3310790584979220    0.1244949915505257    0.0009009487789881 C
   0.0040672723716905    0.8722595462155821    0.7508020352452685 C
   0.0048429478264804    0.8757536703285365    0.5006113552412271 C
   0.6659509954974093    0.0007211296904609    0.6266495108282146 C
   0.6635278824032161    0.0004583748987275    0.3733924632784141 C
   0.6705309468864311   -0.0010613982523332    0.1284638179581773 C
   0.3312286126012387    0.7505356601322667    0.8735719648618028 C
   0.3354091702280915   -0.0038231939935623    0.6266913668920429 C
   0.3320334693482389    0.7450265311369243    0.3780091042338817 C
   0.3292981444674590    0.7515116341309854    0.1224601907508426 C
   0.3317893978694598    0.5012567322975578    0.8752037549428777 C
   0.3357484737913685    0.5045839580481959    0.6238092912854415 C
   0.3371282470790388    0.5027075779916592    0.3766199265082064 C
   0.3332812574331563    0.4992364409151402    0.1275175261283488 C
   0.3325697942758520    0.2500689407039803    0.8733606733815675 C
   0.3343549072531226    0.2511130590930309    0.6239984005436715 C
   0.3340283532058776    0.2492558879003427    0.3746931104772416 C
   0.6639147653950895    0.8776879745822050    0.7518709899917501 C
   0.3279777211711680    0.2532042962658032    0.1295639300777766 C
  -0.0017309788321028    0.1242273989532871    0.0000302291066284 C
   0.0032358702200621    0.1238229673100843    0.2521474389233191 C
   0.0055283326728686    0.1247033541129511    0.4989168818199159 C
   0.0012113123724128    0.1227360039375794    0.7501530839534449 C
  -0.0016335248131663    0.3757863693239128    0.0018020430938101 C
  -0.0017336727959484    0.3770896233003393    0.2472378242799619 C
   0.0033388186361643    0.3757943256876858    0.4979755560968325 C
   0.0010624129280050    0.3760059647893914    0.7517974101922672 C
  -0.0036554754248478    0.6258376088547157   -0.0006398303172190 C
  -0.0026964521122992    0.6244874457686040    0.2486824067386605 C
  -0.0002781760966924    0.6244367351595922    0.4988702262775724 C
  -0.0003337745426790    0.6290163073846826    0.7510137430018774 C
   0.0004334915423149    0.8743156558239292    0.0002026986305008 C
   0.0004462652410848    0.8732925476728525    0.2482991751456630 C
   0.8337084046321412    0.8755348343015474    0.6281609758051140 C
   0.6665142162311768   -0.0039954065641692    0.8717094451203169 C
   0.1625216978689971    0.0008984150663736   -0.0034945103238514 C
   0.1686573588983959   -0.0000563439862084    0.5042201366250908 C
   0.8296287082416562    0.2527048307354275    0.2472119407991631 C
   0.8337939685580090    0.2518991550459682    0.5016445820653592 C
   0.8337450410503741    0.2491263550302361    0.7510173788771235 C
   0.8356454734625938    0.5002656917531264   -0.0022223367130034 C
   0.8315315299460426    0.4990314279344569    0.2531061340142123 C
   0.8308849450431423    0.4999637732875214    0.4988017360128517 C
   0.8328355833535599    0.5007478110202733    0.7501727552653801 C
   0.8343109731191687    0.7498467372785457    0.0006767994033175 C
   0.8340876584628260    0.7468894830325005    0.2511191794627366 C
   0.8315102955215772    0.7476886814447298    0.4981339379368784 C
   0.8367116446875339    0.7475891908272423    0.7501070609426906 C
  -0.0038065467287508   -0.0012923971975770    0.1243503071520045 C
  -0.0010913412511883    0.0009976941982746    0.3739088322449672 C
   0.0023290370272586   -0.0002320788181348    0.6260140319833924 C
   0.0018080680942855   -0.0003055979492409    0.8769620560994846 C
   0.0002785796003774    0.2527515352445381    0.1239566838837673 C
   0.0028678433274454    0.2482738708781722    0.3749250391683684 C
   0.0001046944732795    0.2482931054823819    0.6239838503604948 C
   0.0001862389248073    0.2499354397130166    0.8773885543409761 C
   0.0015760260481265    0.5010498832640699    0.1257261330938735 C
  -0.0010663575132329    0.5026460080861778    0.3733669955374979 C
   0.0016086993013912    0.5035235891289782    0.6238221515550675 C
  -0.0018945076066212    0.5021361491758523    0.8773720056286646 C
   0.0006831977047216    0.7484396049227627    0.1259047783779296 C
  -0.0008964480129541    0.7477121761559697    0.3727114323100450 C
   0.0045488260490757    0.7494927983028845    0.6279021994298161 C
   0.0009791254438373    0.7486643450098112    0.8741167579522685 C
   0.3343177980756624   -0.0030945574650753    0.1283885559734772 C
   0.3384103441695457    0.0008384653195588    0.3745706610801852 C
   0.8348948209350162    0.2495075903165976    0.0010580529432796 C
   0.8332209686846244    0.0003762262235499    0.7516547074972070 C
   0.8334596579374420   -0.0002665709334008    0.5024799700720612 C
   0.8321177390805372    0.0006099925220678    0.2476894625291732 C
   0.1711008690841307   -0.0010646154850285    0.7500622081820545 C
   0.1633090772594015    0.2496346097858538    0.0000876630690876 C
   0.1716848302288697    0.2480718885115345    0.2482507865552374 C
   0.1718124326242709    0.2499686739939299    0.4993065697563031 C
   0.1705946737452706    0.2480840135439595    0.7506541593226099 C
   0.1666271497097955    0.5001681109279690    0.0001760249237868 C
   0.1693723893508347    0.4992887421230400    0.2510028280138769 C
   0.1730085701069804    0.4970910119572523    0.5004803684747947 C
   0.1721907637022077    0.5014229978622451    0.7484382593126661 C
   0.1666687755553604    0.7506013718330664   -0.0020224282224798 C
   0.1627721913347746    0.7481559032437973    0.2492938662467041 C
   0.1712762216356583    0.7527783704671984    0.5006206293159393 C
   0.1669181386311281    0.7504158020024440    0.7497151822188360 C
   0.5005552735011289   -0.0004445028485075   -0.0035129032180732 C
   0.1682062821064133    0.0036942683159948    0.2503991156679455 C
   0.5012229925745457   -0.0011760941622014    0.2525929551030729 C
   0.4985865092435154   -0.0028754095352671    0.7496014734235453 C
   0.5008198617782843    0.2472234474664844   -0.0013216816676467 C
   0.4985921672369028    0.2539601528970921    0.2539454403991356 C
   0.4945354603888519    0.2501730829238824    0.4986548815456889 C
   0.4968436243606072    0.2485064546234174    0.7505140794556538 C
   0.4959359326601499    0.5005691041751474    0.0022694114154404 C
   0.5003088646526029    0.5001030823905762    0.2525813625893185 C
   0.4995389360855783    0.4999777446127421    0.4994884679172387 C
   0.4963156973285498    0.4998485079237708    0.7452862608047452 C
   0.4986424469515610    0.7520524308205738   -0.0001536017122660 C
   0.5013858777996014    0.7474558657366759    0.2522687746478441 C
   0.4972828678307173    0.7464882721464932    0.4992427603021812 C
   0.4947523720354540    0.7508381056103871    0.7479942503146897 C
   0.8382198240655800   -0.0002918069258270    0.0005023841597911 C
   0.4985836306357724    0.0023067358334257    0.5012891857232219 C
   0.6697474548332756    0.2521535668421431    0.1286197706409047 C
   0.3329569324609714    0.7512488607919567    0.6234333678332876 C
   0.3336936583232261   -0.0008543672943459    0.8704695328138049 C
   0.8331093835188299    0.1249326287468363    0.6286065422404650 C
   0.5046508635719149    0.6268861291688319    0.8725224767294724 C
   0.1634410680296823    0.3739672798326121    0.8750833217292471 C
   0.8341626164580960    0.1241240713604580    0.3745502528043522 C
   0.6648078211636496    0.5020130872462887    0.1292248053634202 C
   0.1699228003751407    0.3765960675763076    0.6242146849136193 C
   0.6651364157452914    0.5043290590402087    0.3735515856363477 C
   0.1680502851579720    0.3745486578411137    0.3764084564059165 C
   0.1642219675729245    0.3739128876803940    0.1249072320718769 C
   0.8360521500348806    0.1263018922722881    0.1229219732515065 C
   0.5030429330022114    0.6246687380499072    0.1277604772035010 C
   0.5024888986907272    0.8773312097437920    0.8746338554600234 C
   0.1626361485196523    0.1238457439019335    0.8745994135753654 C
   0.6644381546554976    0.5014412522962516    0.6226467267699050 C
   0.4969675547760991    0.8756918082403816    0.6285693196342836 C
   0.5003656124038044    0.1230673621060137    0.8723329496778045 C
   0.1659097320869555    0.1227132609763771    0.6252712920023840 C
   0.1666317004880506    0.1266694368933328    0.3771332904837638 C
   0.5002611931379942    0.6249825519763678    0.3753025589200398 C
   0.6707875138289477    0.5041482755687925    0.8741176747000490 C
   0.6682510561026400    0.7465611533146028    0.1254840916969045 C
   0.6656144203490614    0.7464276350645714    0.3748679052311671 C
   0.4965119412302156    0.6247339076193654    0.6228588075688719 C
   0.5004122224755565    0.8733366549016707    0.3741734384600883 C
   0.6642752758704146    0.7498501794575583    0.6230177280249881 C
   0.6673523950015260    0.7498798390685473    0.8761036006629190 C
   0.1637249248582813    0.1281283460900454    0.1248032686654174 C
   0.1665017663738481    0.6261391790818243    0.3747337797176898 C
   0.8369428664428703    0.1243937749301032    0.8752769635291394 C
   0.1611732997744823    0.6271088349076247    0.1247755371024587 C
   0.5008912653319550    0.3725647824929367    0.8723892961243297 C
   0.5040011412479526    0.1226210735408613    0.6248275072920134 C
   0.4998310773065210    0.3776272270989783    0.1278965050763820 C
   0.6602517637755387    0.2471022129868174    0.3714505209758787 C
   0.5013428263665102    0.1259622740588920    0.3797383946468082 C
   0.4995392418352005    0.1241970180823738    0.1224975890535511 C
   0.1650032113690834    0.8761218323462958    0.8728526206246485 C
   0.4980806868768230    0.3766480993825669    0.3753089164029603 C
   0.1695392528133317    0.8752223174574073    0.6264902157691290 C
   0.1650363085856580    0.8703521396457633    0.3789536199639735 C
   0.8334491975165979    0.8713604335874745    0.3753349119929760 C
   0.5001583443695407    0.3769991904954047    0.6232388724286673 C
   0.8361409211653270    0.8742337110390948    0.1209679066471718 C
   0.1667298513611496    0.8718328321164129    0.1218367527234134 C
   0.6672271014869148    0.2474615929157638    0.6237309640972379 C
   0.8326848539499557    0.6237977366145557    0.8759421120974327 C
   0.4974383516342610    0.8739149150421788    0.1231468579362224 C
   0.8341414475729712    0.6268191094339282    0.1239047795962550 C
   0.8362802351827350    0.3731808723753489    0.1240894436262433 C
   0.1675166716833822    0.6278384316756397    0.6273810628811335 C
   0.8343908706178949    0.3788859735427638    0.3720659597809129 C
   0.8346316728388518    0.6246314122666549    0.6274398758082920 C
   0.8323732145755671    0.3759244435414023    0.6264521046073293 C
   0.1610047663126458    0.6268559390992826    0.8720181754489883 C
   0.8329485332585841    0.6250217736458564    0.3734579164582447 C
   0.6678648529112453    0.2494278017750258    0.8759217888022413 C
   0.8362202027597353    0.3755720642106969    0.8761973180231064 C
   0.8331135892928934    0.2507789200204611    0.3737395614610853 Hf
   0.8333588336908072    0.1242111108544555    0.5002993445523988 Hf
   0.1649098486936835    0.0013171385367781    0.1249477965516661 Hf
   0.8341291758449643    0.8730162232934630    0.2509513140373040 Hf
   0.8322456565842511    0.8745088116841417    0.5005654199831269 Hf
   0.4984012298792206    0.8745588383690592    0.5014353107894968 Hf
   0.1691128888610112   -0.0000427430766333    0.3771079422278338 Hf
   0.1683602262081461    0.6237804645758743    0.4991664668279218 Hf
   0.1663709162883062    0.8734995371058684    0.2474473083822468 Hf
   0.5002645438673384    0.2519791491417173    0.1274155391813376 Hf
   0.3314392203188059    0.6249942533099049    0.1247875398655396 Hf
   0.6658695539527840    0.7510193930679604    0.7505660051558967 Hf
   0.3336448098126507    0.3762510067012601    0.8747946922350371 Hf
   0.3338226815455637    0.7472684674905291    0.2495562505790085 Hf
   0.3307573182784078    0.1235550576350766    0.8747971909163264 Hf
   0.3349455843200216    0.1230753057706768    0.6221037743557527 Hf
   0.3308394148732733    0.1257633100406727    0.1274272705361811 Hf
   0.5010181358816851    0.5006263306195503    0.8725759759602387 Hf
   0.3317660877763007    0.2485422375283795    0.0010690351309091 Hf
   0.3347005389938109   -0.0005718702146965   -0.0001516619437235 Hf
   0.0022835992623513    0.7502961365903581    0.5007585570982799 Hf
   0.0022882433257644    0.5030827806061001    0.7521328742065677 Hf
   0.0018931818805887    0.2488910443897561    0.7494986751597211 Hf
   0.0022960925027445    0.2501827248700428    0.2490787348664162 Hf
   0.8341548426407424    0.5022180421470469    0.1252597614061920 Hf
   0.0023837631706592    0.3765267677942538    0.6235366705799544 Hf
   0.3336655322551638    0.6269482604153855    0.8739941995781465 Hf
   0.4999163594942769    0.1257033156360361    0.2548086291792566 Hf
   0.3347527578041385    0.8749179912188417    0.8736343748774646 Hf
   0.6694782888175579    0.1241934899710926    0.1268002556197571 Hf
   0.6674804045460222   -0.0021353357921868   -0.0001290395316203 Hf
   0.6690664670991189    0.1224737998158665    0.8740146145102576 Hf
   0.6676544737966860    0.5026343082908160    0.0010931747085659 Hf
   0.6651871523350442    0.3783098512305275    0.3729652117176599 Hf
   0.6682985056181111    0.3763807724471407    0.8755947141799807 Hf
   0.3325689797186075    0.8723422853025876    0.3770862959975557 Hf
   0.6681210824829076    0.8735877214775500    0.1233857571039138 Hf
   0.6615672052025313    0.2493523250885018    0.4976512937034246 Hf
   0.6652441725027773    0.2470043208661936    0.7482213427217975 Hf
   0.1625082994095699    0.6238738827252108    0.2527257758696422 Nb
   0.0040535112108477   -0.0020091956409606    0.5011494806564598 Nb
   0.0059340614181941   -0.0036296924422992    0.7502552206873108 Nb
   0.0034530417251171    0.2504102891132690    0.4989899836653092 Nb
   0.6704588317865020    0.2502323616964686    0.0014917228194528 Nb
  -0.0018941160551626    0.5014367795200891    0.4964095285331224 Nb
   0.3343581694974001   -0.0008420754659866    0.5037820771485448 Nb
   0.6622169810588923    0.0019060787332238    0.4985545916664962 Nb
   0.1626728666606912    0.6247907289914464   -0.0015559316476912 Nb
   0.1695290320494197    0.3764287587689965    0.2505346300693033 Nb
   0.6672998973294914    0.5018057970444026    0.7479668383116349 Nb
   0.8351506792129986    0.3772063000567374    0.5005974709273040 Nb
   0.5019536836025078    0.6288975314447633    0.0004489715067765 Nb
   0.6643784210240871    0.8778647119075006    0.6271742678506723 Nb
   0.6633593089535826    0.8746198679442007    0.3743983894749500 Nb
   0.6683153492800337    0.6241380226651533    0.6232698401348015 Nb
   0.4996523744369687    0.2513981580981090    0.6262203772711163 Nb
   0.6629961343088754    0.3764125746552217    0.6230110082952812 Nb
   0.5004726485729862    0.3760061020260106    0.0031175284856375 Nb
   0.3380804968790636    0.3773530748882149    0.6231780420555185 Nb
   0.3361176023138012    0.3771212042530924    0.3741189298938052 Nb
   0.0018602252791657    0.8749445455773647    0.8731374549082301 Nb
   0.0027559063669307    0.8738684256599184    0.6293188544210634 Nb
   0.0031765476045017    0.8743909396102670    0.3749524211844863 Nb
   0.5007294098075437    0.7501055924135757    0.8753643050294297 Nb
  -0.0012353203221161    0.3773038158899076    0.3750454466612641 Nb
   0.8322999350726181   -0.0000038875403229    0.3741763960994596 Nb
  -0.0024376736947747    0.1251802430955672    0.1255136351986095 Nb
   0.8339188943400792    0.7503704157734346    0.8748832989739063 Nb
   0.8320574888929997    0.7469881283156200    0.6270379092192171 Nb
   0.4997019404076790   -0.0019224370537788    0.1268847696177487 Nb
   0.1663876381771948    0.5030851323556697    0.8760830439504834 Nb
   0.5009708360606721    0.7482444683700645    0.1245973114976408 Nb
   0.1704523473250492    0.2510795341245309    0.6214653593523876 Nb
   0.8323610989194538    0.1237653772637154    0.2501078966508977 Nb
   0.8339235086090916    0.6238500856187381    0.4961703921778188 Nb
   0.1713989191962608    0.4991200028052338    0.3750522194253076 Nb
   0.1655408391420988    0.5015090685399323    0.1261238740073783 Nb
   0.8315186647346954    0.8760641220311387    0.7519116695113645 Nb
   0.0007215005384569    0.1221075390086389    0.8759166771320390 Ta
   0.0038688746271395    0.1236562991125420    0.6241258720472356 Ta
   0.1656791407063992    0.8735576398699278    0.0001244674899178 Ta
  -0.0017349055449091    0.7477532709494296   -0.0016812925727610 Ta
   0.5001994442910784    0.8753440358186828    0.2497949251390351 Ta
   0.4978210407988826    0.6252371513657229    0.7465640969635106 Ta
   0.6607882137461142    0.5015627282863639    0.4985902463516345 Ta
   0.8316694519551060    0.3767993220434367    0.7501207468018944 Ta
  -0.0012678926859092    0.5025882317058695   -0.0008062451196147 Ta
   0.8327621781640345    0.0002476186707100    0.6282241275870036 Ta
   0.8361299784799698    0.7470497628395867    0.1250078414411527 Ta
   0.8371527737166941   -0.0021936040620451    0.8756807939353848 Ta
  -0.0031726973725491    0.2502234305725131    0.0032473758439083 Ta
   0.8320229396369283    0.5027729525095169    0.6238728601688577 Ta
   0.8352688559621371    0.2488577358593558    0.8760331423362552 Ta
  -0.0023179343537396    0.0029868743411032    0.2503333949060239 Ta
  -0.0010272067962606    0.4986008991635239    0.2510282184035141 Ta
  -0.0015625126073363    0.3766953364966477    0.8769481334098230 Ta
   0.0003578620230677    0.6270956168483799    0.6283228991565356 Ta
   0.4954845760704992    0.7467191086552692    0.6229261999229774 Ta
   0.1652510287736308    0.7504415343818854    0.8708702679365635 Ta
   0.6632655248986531    0.7466500107039656    0.2522700867683624 Ta
   0.6662682751417264    0.7463512923019373    0.4983933923645121 Ta
   0.1730585549210316    0.5012160669886907    0.6236097713199851 Ta
   0.1640685599253438    0.2483743003903081    0.8753305950957244 Ta
   0.6692222759660365    0.3757005858077415    0.1279760816141209 Ta
   0.5010519260530668    0.2484099456291537    0.8748492035582719 Ta
   0.8316020650400474    0.6253327781775949    0.2511025215250959 Ta
   0.4997075168217450    0.5016983239500491    0.1286994990631233 Ta
   0.1694022761469066    0.2505027301886585    0.3779892980067052 Ta
   0.3302119625143545    0.3778773131534017    0.1274378602503756 Ta
   0.3357911966320954    0.1246964459242733    0.3774749898807887 Ta
   0.1707355926602965    0.3759980141175630    0.7492135156777785 Ta
   0.3349089815306781    0.2488628060956214    0.7481327442015552 Ta
  -0.0023295036209290    0.8731206435267483    0.1237358473774595 Ta
   0.6676796374739083    0.7499193281478809   -0.0021748805690583 Ta
   0.1642600109519045    0.3781145582928335    0.0024065657902680 Ta
   0.8322484093759298    0.2494985223881015    0.6251749938640220 Ta
  -0.0030241304505452   -0.0004292660235686    0.0014139227807744 Ti
   0.6650366938609857    0.6232557821227597    0.3753913416522847 Ti
   0.1675193158423472   -0.0012072078085794    0.6234302089151113 Ti
   0.8334570725453713    0.6245812368100752   -0.0002546232659219 Ti
   0.8341634777408932    0.3756415518772698    0.0011361468303179 Ti
   0.6684131168717775    0.6246605770903114    0.8756080325789186 Ti
   0.4983026252871879    0.8771936282433316    0.7480665689742702 Ti
   0.4975428122912047    0.8740138227026359    0.0003020948703334 Ti
   0.5014241108511758    0.3765555679975674    0.2521709038318190 Ti
   0.5010804247442225    0.1233629400213340    0.4979061760076005 Ti
   0.1645786561277102   -0.0015589829420567    0.8760119680160964 Ti
   0.1687988603953960    0.6262340176934491    0.7497419285225332 Ti
   0.1668880029617051    0.1247811901779235    0.5009935875522289 Ti
   0.6657522729608549    0.5020656173191176    0.2507195793778839 Ti
   0.6653559303231521    0.2506488805216203    0.2532650473603930 Ti
   0.6649523652269562   -0.0012906310334520    0.7507049098547216 Ti
   0.6675794419805214   -0.0008263188301338    0.2501048854628097 Ti
   0.3340697549696571    0.7508702257529298    0.0015770518989082 Ti
   0.3315383129253374    0.5013300734987939    0.7471765206610430 Ti
  -0.0015357819521890    0.7494921565548121    0.7487746828357603 Ti
   0.1690926242902245    0.3778911469542822    0.4986533627695333 Ti
   0.4993145086012840   -0.0013975029281549    0.3758112078374788 Ti
   0.8351747743897604    0.1248942233844403    0.0029561853646578 Ti
   0.8290879853672557    0.5005547972721485    0.3738098040424454 Ti
   0.8325336076459146    0.5021322750303915    0.8771956855119135 Ti
   0.6624359586954852    0.1227235153846536    0.6249986499844530 Ti
   0.3351053493055878    0.8769446061743184    0.6265543353789068 Ti
   0.0010325453923463    0.1246275128287669    0.3760008953192455 Ti
   0.8344701918749736   -0.0009240744607203    0.1241929746849051 Ti
   0.3351980945165135    0.8719323657056199    0.1224569055425857 Ti
   0.8312337101311459    0.7491206848158725    0.3752190421062834 Ti
   0.0003228688171210    0.3767787632000426    0.1257325413049853 Ti
   0.4966593430925162    0.5038863473185122    0.6247248567758061 Ti
   0.3367636112105357    0.6248648371097553    0.3744856414171994 Ti
   0.6669676525532094    0.6261058952954687    0.1248530267759188 Ti
   0.5009853921297951    0.5042111273318030    0.3731912277020777 Ti
   0.0008346114323670    0.6257216020824093    0.1249396706783095 Ti
   0.5009010981872019    0.7471879473201368    0.3760910849319938 Ti
   0.3275774101688114    0.6329177102323215    0.6290577717748020 W
   0.1569013063483693    0.1218603872300531   -0.0017548915179613 W
   0.3358389683125219    0.7529923101401321    0.7465453364081897 W
   0.3266554811924605    0.7451186862977632    0.4965042103342504 W
   0.4966045815075356    0.0034890853697616    0.8707621656382865 W
   0.1725179190733115    0.1247309720590631    0.2574672936378853 W
   0.3453920082424988    0.5036810649993139    0.5037853015197448 W
   0.3399124369588163    0.5047673199969703    0.2574071833019443 W
   0.3372317181635430    0.5025150630666438   -0.0026156682837311 W
   0.3373273946732909    0.2527106650043620    0.5031855220202033 W
   0.3284126177753787    0.2574314205400085    0.2527797361235016 W
   0.3312957756880442    0.0041321035523561    0.7463585993612589 W
   0.3401913707729278   -0.0039964521306337    0.2481539603499399 W
   0.0025970139772476    0.7441818503036178    0.2554325706416271 W
   0.6676965043661128    0.1194726477332433    0.3736568368753844 W
  -0.0079022823905814    0.6289302479702070    0.8716483130669695 W
   0.1747219678419922    0.8776578373934050    0.7445511484502109 W
  -0.0063703650983643    0.6216646835622865    0.3714793814041122 W
   0.5058879576021988   -0.0000627635628554    0.6269954364028785 W
   0.1742183180628723    0.7529304070616892    0.6335304936575703 W
   0.1613032108623827    0.7448803632859836    0.3696584814044723 W
   0.1605018094565977    0.7485827912213578    0.1172327139177232 W
   0.1590956887145408    0.2460727339892378    0.1193982234984516 W
   0.8411529148214104    0.8750539899409328   -0.0049405178525034 W
   0.8285363447814379    0.6227242962720957    0.7557214232774280 W
   0.8298234944354680    0.3776691280644226    0.2468702070617015 W
   0.1621780513334797    0.1185126241664119    0.7457691087251039 W
   0.8287816636569085    0.2534331276207792    0.1282571987869670 W
   0.4937634264961597    0.6278558649720379    0.4950000786068524 W
   0.5070898923746414    0.6236615865101477    0.2524749919971004 W
   0.5000377586163871    0.3783270106588678    0.7430386902883830 W
   0.4886281812607521    0.3711569349309254    0.4954902196256315 W
   0.5043052721793208    0.1147229765345277    0.7457021931047797 W
   0.5044267931031543    0.1233203066192428    0.0025818835879545 W
   0.4924217264492268    0.2545305864364216    0.3720922941776870 W
   0.1714816097707834    0.8728125255239236    0.5072587209088730 W
   0.8369501544820563    0.1192580184670604    0.7478598243384643 W
   0.6553921237601806    0.8771486633047022    0.8737638660333372 W
