La13 Yb12 Sm13 Gd13 Er13 Zr64 O224
1.0
  10.7007552590656285   -0.0022682443527937   -0.0042565539027465
  -0.0045352006063912   21.4019185975658992   -0.0007388699530843
  -0.0085127877315377   -0.0007386565045200   21.4047325380284796
Er Gd La O Sm Yb Zr
13 13 13 224 13 12 64
direct
   0.8753667717898851    0.0535085515699755    0.6861183850911191 Er
   0.3788372701455018    0.5637267076456551    0.9370692135968985 Er
   0.3850114541399655    0.5720124269362177    0.4389070769532655 Er
   0.6151465380346008    0.9397649173301839    0.4325705118853878 Er
   0.6266782033059518    0.3082605735984087    0.8153366423198021 Er
   0.6297782612678366    0.8119050118031180    0.3174696125310213 Er
   0.3687520810722220    0.1926124005160878    0.3149390835230756 Er
   0.8809168012530156    0.9364830242264884    0.3129822102513752 Er
   0.8644883224784398    0.6928909606424154    0.0627410396215307 Er
   0.1215904206759059    0.9379995509172022    0.6899551354382475 Er
   0.1287794775379995    0.6891022744894452    0.4444616628025416 Er
   0.1068339635035652    0.4284058951897734    0.6900440687213839 Er
   0.6425358507691549    0.1869634431309210    0.1995833676740004 Er
   0.1214229278891673    0.3057810529752239    0.0688590813881401 Gd
   0.8828142441969140    0.8165370591228124    0.4415173701121575 Gd
   0.8748447360084098    0.3112439764711272    0.9367123712258349 Gd
   0.8838715522985160    0.5634637718717821    0.6853486355301918 Gd
   0.6279121826011402    0.6896089687502555    0.1889038712276444 Gd
   0.6248639991332344    0.5638797086659865    0.0605407806995132 Gd
   0.3783327937454711    0.9389142406379678    0.5594883569469606 Gd
   0.3717181851364166    0.0622887355164468    0.4360936823551098 Gd
   0.6239325913250315    0.4374384892743595    0.9343932511465521 Gd
   0.3604872280125453    0.9458152986575344    0.0574544687235158 Gd
   0.1243993369660822    0.6845031018617301    0.9419312478411251 Gd
   0.1287464316573551    0.9412578937958807    0.1900922042439919 Gd
   0.8706206334802403    0.4362405073001777    0.8119975266854196 Gd
   0.8723454010496643    0.3124733097612578    0.4380598213926410 La
   0.3755443741177536    0.4369443478515554    0.0607560910215333 La
   0.8759444387026957    0.5635021079216025    0.1862581215794112 La
   0.6352310180554015    0.5638575680716104    0.5602902332811285 La
   0.8731756696083683    0.8143652983118395    0.9335757484159193 La
   0.8668169375987637    0.1921860017499045    0.5671499451556101 La
   0.6138887293292512    0.1815959753273614    0.6903806516419571 La
   0.3740719213033362    0.8140849128503520    0.6844816514721295 La
   0.1294026263060083    0.5626771446496025    0.3144822669853647 La
   0.3677181392855145    0.3113983382059210    0.6881476035637989 La
   0.3682864412229194    0.4410528848442777    0.5604231052223461 La
   0.3767424308589408    0.6892461746591138    0.8132892206365785 La
   0.3787334572973572    0.8161637698999132    0.1884021842955051 La
   0.7427872405381268    0.7244894406411947    0.8737367858854969 O
   0.7427607197748527    0.7339607344808096    0.3705651366767656 O
   0.7512763654117133    0.2353193194558225    0.8758181002110794 O
   0.7495200391888179    0.2284206432117661    0.3772147602330584 O
   0.7529687518156082    0.6240181652889624    0.9881355254748426 O
   0.7460968616419796    0.6248255698528369    0.4713456959820841 O
   0.7017495239337737    0.2498694963406635    0.5013131975429663 O
   0.9589527859718544    0.6253953990346568    0.8752076206767886 O
   0.9694350613654374    0.6275988062335692    0.3740708352400991 O
   0.9610827690045133    0.1261422677142790    0.8750958415159319 O
   0.9558286867222170    0.1254779012849864    0.3886432992914338 O
   0.5391227557103662    0.6229429042001924    0.8776686386671028 O
   0.5269059795171701    0.6249320903481123    0.3755817461322548 O
   0.5391593605794560    0.1239586244053233    0.8750819014485901 O
   0.7471127981028367    0.1245999713610871    0.9830780602373469 O
   0.7602707552398039    0.1223318824866567    0.4828465048691200 O
   0.7866189734326475    0.0001556452054662   -0.0004999422336151 O
   0.7556473892705809   -0.0076310322818846    0.4944502032992025 O
   0.4990241603577775    0.4993128460897986    0.3528080991012486 O
   0.5026959179808216   -0.0029014698895783    0.8593292959626802 O
   0.4996805116639736   -0.0007897861560133    0.3574324461350910 O
  -0.0023100775532077    0.5006316485703269    0.8934603569652309 O
  -0.0021170972961821    0.4992643617344575    0.3908129446646069 O
   0.0048888770225851    0.0035332546596200    0.8992176078750030 O
  -0.0077270966421214   -0.0014963874989900    0.3800465110697817 O
   0.0058136730833265    0.6154354719482402    0.4972404637888711 O
   0.0030665000719535    0.6052191662004832   -0.0017103803883968 O
  -0.0049989281581535    0.0184512455822872    0.5017829718861351 O
  -0.0036323173546013    0.1084345863922440    0.0013142474276805 O
   0.1960097274691879    0.4998502899091256    0.5000008416401890 O
   0.2158519400448097    0.5024615994758750   -0.0031328283072407 O
   0.2370122364432543   -0.0001736121275486    0.5006818961746530 O
   0.2093234219840801    0.0012733197679966    0.0016284761077696 O
   0.8278666828553241    0.5093294949599549    0.5092523439022933 O
   0.7874660453962381    0.4985746075252697   -0.0002651334944052 O
   0.5520350983137371    0.1216702890138225    0.3750637837579894 O
   0.7463776632166296    0.6268136325264542    0.7673795849437602 O
   0.0029892124454249    0.8906045807321096    0.4980622217773834 O
   0.7377465737392724    0.1299857194250033    0.7807041961578042 O
   0.2515218561039225    0.4808917426431031    0.3750372474987147 O
   0.2470502999257804    0.4828349669811300    0.8718376767224599 O
   0.4968921441267132    0.2448437691888647    0.3936414758505543 O
   0.5067536323394646    0.8590299164061757    0.4969089951220606 O
   0.2461619101413098    0.9845054621609064    0.3756518649026235 O
   0.2516010359915081    0.9810508603827565    0.8747857992141661 O
   0.5003740671487418    0.8589702026926135    0.0010647316313531 O
   0.5006075975693864    0.3577121662953672    0.4976102016751009 O
   0.2868444874082255    0.2522025168485201    0.0008400255277141 O
   0.5039874957168082    0.3543941494529718   -0.0011066027751781 O
   0.2875600530943584    0.2503011320881471    0.4975934946919987 O
   0.2730099624762881    0.7518057959565116    0.0021146050238231 O
   0.2939739725323317    0.7514172649651062    0.5007936981552868 O
   0.7149142356394457    0.2483925708621316    0.0009955793301716 O
   0.7083850080740069    0.7523270014678455    0.4966797846930688 O
   0.5047685087830852    0.2515254301784229    0.8925438190199367 O
   0.4990006717743287    0.7516344173998704    0.3893136868934101 O
   0.2502941206656465    0.8776709032324916    0.9854585861501182 O
   0.2508653538740382    0.8802409734393263    0.4691340443191532 O
   0.7524763394913759    0.1239152923102941    0.2696255421092491 O
   0.7216208472349120    0.7475853378326265    0.0016697224225846 O
   0.0023384223878332    0.8943388010455737    0.0010999608338567 O
   0.0033892480704126    0.3931511212866514    0.5006152620222443 O
   0.0036696337944755    0.3963551045195727    0.0003677635317517 O
   0.7464617492617657    0.5186918833950168    0.8762276049847578 O
   0.7493860082960425    0.5209451469375483    0.3773516221621763 O
   0.7496370312800749    0.6256210907773228    0.2714817193558195 O
   0.7519640721641914    0.0179734880986313    0.8749267156223197 O
  -0.0024393050428812    0.7508578492324373    0.8540547912520916 O
  -0.0037892654484394    0.7529405248885448    0.3568287219329017 O
   0.2556967444548157    0.3778134511406224    0.9741321030682454 O
  -0.0007081545515786    0.2500711943528917    0.8599455166694404 O
   0.0036485245654730    0.2490631551870168    0.3514180378643337 O
   0.4854349572731985    0.7421376865830768    0.9196684874629735 O
   0.4958924595161103    0.5016259989445027    0.8561460255267412 O
   0.7468837203773441    0.0115596969802616    0.3725410383901647 O
   0.7483900764458563    0.2664010091573800    0.1266733656835024 O
   0.7525028663971132    0.3758412482172691    0.2278090544065272 O
   0.7530776944098413    0.7659217895317850    0.1236620143510993 O
   0.2471704065407879    0.1253417402881468    0.8762098364199373 O
   0.2619969627506915    0.1280788354324576    0.3719971790929315 O
  -0.0004026226631571    0.4964387149038435    0.7505265326573176 O
  -0.0006094619723263    0.4977154602216317    0.2489934793125196 O
   0.0017518713015244   -0.0003836760177522    0.7506385090428037 O
  -0.0009573652905580   -0.0039994710408711    0.2492837659984954 O
   0.2451695112126963    0.8777598341557115    0.6239639877343163 O
   0.2489825720228941    0.8787338149632787    0.1245116907818051 O
   0.2405870540242029    0.3802352161844460    0.6273155304290022 O
   0.2485765747287970    0.3717507583036526    0.1246190085470558 O
   0.5015194019153233    0.7523422441464940    0.6006126442410499 O
   0.5025270902012604    0.7494587673829403    0.1004208021029223 O
   0.4923489012738853    0.2493054304050616    0.6006893842472502 O
   0.4960078939864034    0.2523219894040099    0.1067940124778945 O
   0.0069530300895530    0.7525909615099452    0.6428499256088065 O
   0.2541467039400254    0.6282376205277143    0.3792564146325777 O
   0.2500963330178687    0.6228690633940651    0.8791077524882219 O
  -0.0019247302646924    0.2513167924068320    0.0016211359779037 O
  -0.0007971338620686    0.2470539367905403    0.5006420641719428 O
   0.5000032112796967    0.2517141834442311    0.7547559612881990 O
   0.5026777759419170    0.2446644937695392    0.2501699564212974 O
   0.7594607218821925    0.6255213377146731    0.6255279685684563 O
   0.7466122771910108    0.6289282631601885    0.1232297274402793 O
   0.7495516917357282    0.1210345081610099    0.6315813941316044 O
   0.7457347092595763    0.1270583764411243    0.1294977720043237 O
   0.4958432492289755    0.5039502189247594    0.4952011873373385 O
   0.0014404471350020    0.7517238783290364    0.1430319950558139 O
   0.5024534572284497    0.5012883774149216   -0.0041923009750655 O
   0.4982809625484231    0.0014087824009791    0.0009495991985084 O
   0.7473532651937558    0.8766022600512089    0.8731789368499667 O
   0.7494373329867202    0.8757151425243689    0.3748041874534520 O
   0.7471568267669206    0.3736401160304143    0.8750714611187281 O
   0.7457277307937662    0.3754328788041827    0.3738448110249634 O
   0.0047748056797766    0.7514759190283268    0.4958625889515231 O
  -0.0024453532103010    0.7463628889263904    0.0025436036450716 O
   0.4973802261277391   -0.0024088427819367    0.4947192578074474 O
  -0.0126549250481149    0.2462316834184405    0.6521623239862102 O
   0.0004851599509315    0.2492535766812351    0.1435325209835490 O
   0.0089996454369095    0.8587258345610215    0.7447522539350508 O
   0.9563907281231910    0.8757866642831057    0.1255562360787214 O
   0.9642569858254496    0.3752427105944873    0.6300287860094747 O
   0.9617967792919484    0.3732707472706847    0.1251399814323812 O
   0.5437108979652826    0.8765842886045327    0.6235255750803218 O
   0.5598435643645593    0.8702018060921797    0.1293080665710072 O
   0.5354648098847272    0.3755365370093803    0.6260086984264127 O
   0.5430302741184777    0.3756080374029923    0.1238075924677231 O
   0.9562241380202268    0.8783537655375214    0.6200815640425877 O
   0.7645931712177275    0.8740333847161520    0.5231645615148350 O
   0.7517391486761114    0.3770425434098398    0.5245367603359838 O
   0.7528940956266265    0.3731281918310582    0.0181402358781419 O
  -0.0029693449038383    0.6390623943389970    0.7499235429714605 O
  -0.0025352463890477    0.6486286785242572    0.2479765725960157 O
  -0.0120894919420461    0.1405272069095574    0.7454355770890583 O
   0.0034935439769115    0.1417858893620127    0.2550938109481103 O
   0.7512997761258650    0.7689256223034945    0.6246932842337251 O
   0.7515274578748604    0.8756682667497099    0.0184865909184511 O
   0.7434384801781281    0.2740251874723991    0.6267555573249148 O
   0.2525054821773416    0.3755204309624682    0.4765293016746982 O
   0.7492484957528137    0.8742442801986283    0.2346524893732166 O
  -0.0015530617284396    0.8548507807553932    0.2510857513008705 O
  -0.0007718347937042    0.3583948670732353    0.7515411244209041 O
   0.0018101338645538    0.3546633203733034    0.2485510366504926 O
   0.2050994004857638    0.7491966214253508    0.7505218415892230 O
   0.2100579260032853    0.7513317083381625    0.2509736796811465 O
   0.1943435873730628    0.2479457020813196    0.7494044209669453 O
   0.2201615480335952    0.2490696187321487    0.2509374498541044 O
   0.7484654154828173    0.3753179901498958    0.7376890371466477 O
   0.7993770184566511    0.7525359403721653    0.7483785392032472 O
   0.7838733637090946    0.2525683167960466    0.7537798243612090 O
   0.7909385207017259    0.2452132902409473    0.2503917827435830 O
   0.7572862652603414    0.9851207115891314    0.6215565787955383 O
   0.7504508063697720    0.9840793177955807    0.1246677071625839 O
   0.7557355661039298    0.4782121448567036    0.6274319720473779 O
   0.7520699698502659    0.4811525628540942    0.1251897381043567 O
   0.7541970351223024    0.8782017570554910    0.7254165133698006 O
   0.7860994016250172    0.7494226061380045    0.2485489935741037 O
   0.4572496179622318    0.8706883436896603    0.8735160739349074 O
   0.0154382626569948    0.4975870879926811    0.6138104709755692 O
   0.4656983258166152    0.3760142785404353    0.8743954705483433 O
   0.2786661275276392   -0.0034963571757885    0.7496153944430098 O
   0.2903558297594395   -0.0007375840877098    0.2487711478877642 O
   0.2582032866295634    0.7189763937728617    0.6291967244884499 O
   0.2531074387886366    0.7298351809757401    0.1246759890720866 O
   0.2408190606071989    0.2310533073284755    0.6233254280353961 O
   0.2470052914559700    0.2310901420193025    0.1262066207150019 O
   0.2470268084799857    0.6238433266811497    0.7355153751645940 O
   0.2514020398883582    0.6265410654971955    0.2308451987517856 O
   0.2400210430518312    0.1195432288850982    0.7282849971112637 O
   0.2567336848725323    0.1265507990254845    0.2275720726287182 O
   0.4774104748485489    0.6277823490509236    0.6260424645799513 O
   0.4581540126963290    0.6276383652691164    0.1254203164001643 O
   0.4368837842633126    0.1264680569727341    0.6269897164926900 O
   0.4606999814944600    0.1226166860041833    0.1222289324618735 O
   0.0313506409071198    0.6248668759311964    0.6252186721510145 O
   0.0405319183239391    0.6264623959503989    0.1229940985692265 O
   0.0363768157870291    0.1243046748484854    0.6141091884185560 O
   0.4692441242838423    0.8740057909501789    0.3719390910033914 O
   0.2500512786300338    0.0207479340053601    0.1247116433926895 O
   0.2489162659414879    0.0118812064641708    0.6250351713378338 O
   0.2516473024647795    0.5207706455706723    0.1241289618494131 O
   0.2667753121807486    0.5387455659909466    0.6148549804222819 O
   0.4964144660225807    0.3939379417526919    0.2469424204539035 O
   0.2910940656236969    0.4995139822367239    0.2482780500648096 O
   0.5001203091725982    0.3947978459232766    0.7509742529893552 O
   0.5068757974855086    0.9042406412135729    0.7487228051523659 O
   0.2437047342410332    0.1288906882571268    0.0229376003907558 O
   0.2252384009846703    0.1248990795667814    0.5173116186623371 O
   0.2511402442261501    0.6256840626418411    0.0149496594757136 O
   0.2515125830007048    0.6263630477731794    0.5130572067080028 O
   0.0339629893385474    0.1245074692516762    0.1281340259389982 O
   0.4967771551721006    0.9002690099317587    0.2494939529025765 O
   0.2860410262232844    0.4976900297832166    0.7443419384370993 O
   0.5068803769613353    0.7524590618415331    0.7499806916121685 O
   0.7215406261829959    0.0050533990970974    0.7459789686062716 O
   0.7213374173066626   -0.0002732494279685    0.2498929566654431 O
   0.0429811393396210    0.8768757551628437    0.8741231807999115 O
   0.0355430673712891    0.8787580956206507    0.3750165648920993 O
   0.0324391861524959    0.3750088403128460    0.8756802786599170 O
   0.0382278172596643    0.3745032348795405    0.3734105865877342 O
   0.2559893349712503    0.8728990436390081    0.7698777202001376 O
   0.2471981346921462    0.8762566631669174    0.2707148422614882 O
   0.2470838253795594    0.3738941896607921    0.7722400161743006 O
   0.2480417375566405    0.3753935997739846    0.2660043322470091 O
   0.4989944411922253    0.6433360864285312    0.4973964394301900 O
   0.5001119074217143    0.6348359445140970    0.0015102873282274 O
   0.4587563357219623    0.3722042777274601    0.3719188307777813 O
   0.4993460972599481    0.1503942041603937   -0.0002014722970604 O
   0.2488877862769454    0.7717170644380049    0.8752482882684073 O
   0.2488447779112815    0.7681663230089677    0.3761472102261892 O
   0.4901478174475283    0.1418549833764009    0.4984738351641092 O
   0.2551332143187731    0.2696339055070491    0.3716883901207867 O
   0.7085329801280419    0.4992715029813171    0.2526313230973700 O
   0.7132559837513531    0.5000319579443506    0.7516749611482823 O
   0.5073750283209529    0.1050148346325285    0.2479981086857899 O
   0.2510042987790099    0.2684262064691562    0.8752447287475382 O
   0.5023406000672563    0.6078850630570456    0.2497192433682649 O
   0.4987434820335293    0.6078400937517484    0.7519420784221013 O
   0.5000195121610235   -0.0017679995003061    0.1431386430912500 O
   0.4983777892660171    0.0967066603483460    0.7490653492814765 O
   0.5037985707913072    0.5026149746214615    0.1429500228152287 O
   0.5024544517688009    0.5005895550851773    0.6498753454385890 O
   0.0010635602299002    0.0002912572677429    0.1072556332726943 O
   0.0033747481422977   -0.0020559322451990    0.6230652418055652 O
   0.0037045705070259    0.4990924370694106    0.1027097918464090 O
   0.5091684572892488    0.7525014091974886    0.2520474126846473 O
   0.5002275609612113    0.0007501123829202    0.6387226539311328 O
   0.6214388625824074    0.0632734315355955    0.0641309444535750 Sm
   0.6357616435239666    0.6905805662889823    0.6861521378807190 Sm
   0.8769277541121799    0.0615041584236850    0.1901072128440109 Sm
   0.8692017724132770    0.1872972658934817    0.0630337683357571 Sm
   0.6247831768112646    0.9385453199190590    0.9363119437795602 Sm
   0.8649925513043212    0.4382375875268077    0.3144508351223624 Sm
   0.1254906124396169    0.5613998604088201    0.8117561143487876 Sm
   0.1289678498395340    0.0605085458501484    0.8131039592653182 Sm
   0.3752051229261908    0.6909927024044930    0.3150474183892120 Sm
   0.1284573561206708    0.1865361504054159    0.9377866710644303 Sm
   0.3813463255519016    0.3094370933699609    0.1887752065014918 Sm
   0.1238749329739982    0.4337209773129545    0.1884599368318985 Sm
   0.1219452604910312    0.8133698652308451    0.0628811974974061 Sm
   0.8696326139900622    0.9404358814137000    0.8093113616050488 Yb
   0.1377845166216843    0.1949206165974037    0.4330731131132690 Yb
   0.1271026693444995    0.0614977029178276    0.3142570662361799 Yb
   0.6270365263942921    0.0561423471404899    0.5601103690747050 Yb
   0.1303514961845067    0.3113399038753675    0.5580516952147618 Yb
   0.8879065594320510    0.6910925187687965    0.5644363811703501 Yb
   0.3796438793473960    0.0626065752920994    0.9326419642287379 Yb
   0.6389741938975999    0.8230506759376154    0.7992665881661718 Yb
   0.6201516297717536    0.3085390273890704    0.3172248879399578 Yb
   0.3775080022599339    0.1881755769073996    0.8205915906117119 Yb
   0.6042470661559192    0.4338410788350756    0.4289789037737290 Yb
   0.1105821172709043    0.8170973088794656    0.5618925802007971 Yb
   0.6268583280196953    0.4369238103025112    0.6889886341258261 Zr
   0.1182447280182569    0.5657112306636648    0.5602815022546060 Zr
   0.1270507789871451    0.5630470824462639    0.0612559866125067 Zr
   0.1294638692016871    0.0536412356541977    0.5652703985611142 Zr
   0.1228834810665054    0.0648895054129704    0.0626710653905792 Zr
   0.6317531395174514    0.9417118778982624    0.6832809348320562 Zr
   0.6276989753319615    0.9382878321567931    0.1887218400645322 Zr
   0.6242934311049493    0.4373757626515185    0.1879291038825991 Zr
   0.8839041222347526    0.4358196254254655    0.5643547072959634 Zr
   0.3769505203889033    0.5638231629468123    0.1876088825919190 Zr
   0.3723884327089010    0.0585500563096661    0.6876500576777581 Zr
   0.3770355032072992    0.0627071017080593    0.1877383863432414 Zr
   0.8851931253858588    0.9467280190538206    0.5560877515165649 Zr
   0.8755543067990071    0.9391148101781236    0.0627264961439105 Zr
   0.8750643719172776    0.4356150832571000    0.0624273077313393 Zr
   0.8786739034747887    0.1834328840114450    0.3197491114379031 Zr
   0.3764191115156333    0.5656227559071102    0.6872948145919385 Zr
   0.8769511930237555    0.1877584379706729    0.8115523587900533 Zr
   0.3685992087433770    0.9385171911933052    0.3155734208876513 Zr
   0.8731475456455352    0.6881468552120572    0.8109684346472267 Zr
   0.6240734916195860    0.0603515929671932    0.3105628672172964 Zr
   0.6240546857074196    0.0596238070963759    0.8144566581214907 Zr
   0.6232016917102998    0.5629295120657860    0.3150857953335188 Zr
   0.6245218555259773    0.5631358800735740    0.8113768195900659 Zr
   0.3756617617521180    0.1878312466609870    0.0635942000460142 Zr
   0.3615031867675615    0.1855639483595236    0.5591379424732542 Zr
   0.3758624463569537    0.6882214224016495    0.0592229611819167 Zr
   0.8719770989882071    0.3103094924262077    0.1898824921445317 Zr
   0.8706601189576193    0.3127478014545134    0.6898220571844389 Zr
   0.8730457520651809    0.8132864284392609    0.1883299872765220 Zr
   0.8800780081022738    0.8159654226872610    0.6834598378842368 Zr
   0.1238404473033919    0.1855728686267908    0.1909464751228157 Zr
   0.1224979833858827    0.1839605331145257    0.6848909292873342 Zr
   0.1265011566308487    0.6891946240951851    0.1867658408639328 Zr
   0.1200375718869246    0.6871888042325736    0.6877088070366215 Zr
   0.6263849160309557    0.3104468680955323    0.0625048286997163 Zr
   0.6184845320148123    0.3150941738974373    0.5619221778795132 Zr
   0.6273985792931426    0.8133801506397489    0.0601248086620975 Zr
   0.6329106186378582    0.8149007780047275    0.5613395647969187 Zr
   0.1259514019614511    0.9392410061992760    0.9364320106194276 Zr
   0.8760157057362900    0.6893733022821612    0.3135341390564756 Zr
   0.1133997238224999    0.9483194873980315    0.4407462196695714 Zr
   0.1243699235507834    0.4365559200422713    0.4364878322887384 Zr
   0.3784253950508665    0.3109794234791746    0.4369935135923610 Zr
   0.3772346956714877    0.3117171329909910    0.9364176941393814 Zr
   0.3740318460145130    0.8150937321788192    0.4379116592447578 Zr
   0.3700731550274203    0.8147617180220136    0.9395509788873597 Zr
   0.6246740150260146    0.1839451713493360    0.4396138345581957 Zr
   0.6242788149109821    0.1862789083667352    0.9353120776210716 Zr
   0.6247499355085896    0.6908050650007870    0.4359964415141472 Zr
   0.6285975904656006    0.6845174634681668    0.9399364346387574 Zr
   0.1267753195028434    0.3125395128787186    0.3119075641219264 Zr
   0.1238557850323256    0.3104803825824632    0.8145574837914725 Zr
   0.1229162144647432    0.8140296093306064    0.3159043911716753 Zr
   0.1229655908255719    0.8143527589119794    0.8111530157998106 Zr
   0.3765021220928633    0.4359348526149589    0.3120456320382128 Zr
   0.3743312867390253    0.4380336601690213    0.8108699022206456 Zr
   0.3771249441037297    0.9362599211417184    0.8132663979288669 Zr
   0.8646435988745880    0.0521134506397008    0.4348621475874276 Zr
   0.8732191495731736    0.0628807455981962    0.9369918960426278 Zr
   0.8808887301516669    0.5651643563538243    0.4364871991002834 Zr
   0.8747236757406802    0.5622150679694283    0.9379206774705721 Zr
   0.1245411541219880    0.4382826819116951    0.9360113303510318 Zr
   0.3780302901203721    0.6871579465663195    0.5622944991472359 Zr
