La13 Ce13 Nd12 Gd13 Ho13 Hf64 O224
1.0
  10.6311228973340324   -0.0011611639058453   -0.0003283891103632
  -0.0023223559629798   21.2629082469492339   -0.0005262325163582
  -0.0006566754248245   -0.0005262725103715   21.2612712062337899
Ce Gd Hf Ho La Nd O
13 13 64 13 13 12 224
direct
   0.3727088528219396    0.0612570040149232    0.4380194926784453 Ce
   0.1230885998070251    0.1882781762891381    0.4383791538842305 Ce
   0.3727912878097979    0.6855743393570142    0.3123677289275114 Ce
   0.1257234305161709    0.8085728809951366    0.5642057021263296 Ce
   0.1222055253411365    0.3153774922565080    0.0625804823028663 Ce
   0.6235820253079641    0.0603508375880693    0.0613679055396708 Ce
   0.6207941172552107    0.8109462660716065    0.8136189006674975 Ce
   0.8769011785367700    0.1879321111593146    0.0604057990140772 Ce
   0.6229336014199657    0.5633766914763473    0.5618583868165209 Ce
   0.6273418737329062    0.3133735557354527    0.8128746219682184 Ce
   0.3733793514227334    0.9345175620683494    0.5647159312056472 Ce
   0.6215397741921671    0.8091926089540921    0.3094317120779685 Ce
   0.3720921044284440    0.0605401105638217    0.9395088703475167 Ce
   0.8741421211076786    0.5645058084879461    0.1901747949083586 Gd
   0.8767893105536501    0.4385475669364792    0.3098966798453978 Gd
   0.8740505964581355    0.3146286213554043    0.9383844688553044 Gd
   0.1240932528425780    0.5618537619570467    0.3132988874499155 Gd
   0.8795505400139808    0.6862017630016296    0.0647204247905592 Gd
   0.1250592688138580    0.6857698726942496    0.9376842077685988 Gd
   0.1241361894168148    0.1894796058244015    0.9366930885757724 Gd
   0.6260384563256868    0.3171414284345379    0.3122409561334649 Gd
   0.8688519360705450    0.8074602017061864    0.9395818061342494 Gd
   0.6210141642129132    0.4386408368541971    0.9369580548460164 Gd
   0.1263659940009386    0.9348918580008079    0.6886001093296202 Gd
   0.3717957193378009    0.6856277447821553    0.8124682263376574 Gd
   0.6241098765150928    0.9348654252723294    0.9390372705332442 Gd
   0.6233062972159303    0.4387517737866217    0.6873537025809755 Hf
   0.6203859506556491    0.9360876095691458    0.1867248642152357 Hf
   0.6229270793288908    0.9351885982238674    0.6874526085602883 Hf
   0.1264763484371619    0.0614284037354347    0.0618572495133753 Hf
   0.1252403135229877    0.0620709043464634    0.5635219439149078 Hf
   0.1251110820710324    0.5631972103628795    0.0621691532931824 Hf
   0.1264354435448626    0.5632747173336549    0.5616014255327906 Hf
   0.3759429869483000    0.3144395209111374    0.4379757799010442 Hf
   0.8750579621114553    0.1874515263244515    0.3122377774519378 Hf
   0.8745274714771480    0.1880822506092095    0.8132079857180043 Hf
   0.3720648329991041    0.8103081726501384    0.4369694859807980 Hf
   0.8751528309023746    0.6866262865959059    0.3112674383981496 Hf
   0.3753414046771318    0.3130137594756223    0.9381855820977157 Hf
   0.8769050068079003    0.6874341913578276    0.8133302410032859 Hf
   0.3740018845991916    0.8116814437435574    0.9371736341726117 Hf
   0.8753233003186470    0.8105416659539066    0.6869840858887309 Hf
   0.1230257356088168    0.3126837786604820    0.8137729030415111 Hf
   0.6259232737405872    0.1879802367640609    0.9376732297384293 Hf
   0.3758460801341791    0.1884277604967184    0.5633740442470684 Hf
   0.3741479929489821    0.1881501737840073    0.0617848932050242 Hf
   0.6229401102272947    0.5630994126170322    0.8136681198949799 Hf
   0.6249948422759921    0.5635538222062781    0.3122401176711731 Hf
   0.6246134051748609    0.0620405943922832    0.8130602711739265 Hf
   0.6251250892424092    0.0614054012654829    0.3117884804205039 Hf
   0.1259768721119773    0.9365941173957304    0.9386165607661783 Hf
   0.1251402093554292    0.9368432510193254    0.4382450696920448 Hf
   0.1253666418717286    0.4388962991378760    0.9368092361605953 Hf
   0.1261911789437444    0.4394469094367729    0.4374324155406265 Hf
   0.8768764714015270    0.5638133463219271    0.9368895136151340 Hf
   0.6257782581835227    0.1881993802499509    0.4367180366390926 Hf
   0.8766158484261312    0.5636215834719107    0.4371208812204223 Hf
   0.8756891253667790    0.0621719461574307    0.4376933514791044 Hf
   0.3759836609138441    0.9371253402418285    0.8125190418763927 Hf
   0.3726067111367234    0.9354664474748711    0.3111933040516018 Hf
   0.3749278734149112    0.4385961695498426    0.8141848270644598 Hf
   0.3733675671147444    0.4394659015136079    0.3126492814182746 Hf
   0.1266242934882975    0.8108967359626345    0.8128981882161599 Hf
   0.1274522372821044    0.8106997126532985    0.3115266965139659 Hf
   0.6269955409051812    0.4383836068257657    0.1881207688971447 Hf
   0.1233557626436246    0.3147918941315327    0.3122707797318774 Hf
   0.6230494609478149    0.6868760550704359    0.9369786684203643 Hf
   0.6243071312991704    0.6861575179348310    0.4377435761012577 Hf
   0.8752815988093926    0.0617235250719042    0.9374727174058596 Hf
   0.3755642485884477    0.5629956058729696    0.6884753534094260 Hf
   0.3749519036247884    0.6871269073128760    0.5621871189105176 Hf
   0.3751883345344216    0.0627564813643970    0.6879037223129156 Hf
   0.1267808022457376    0.6868275317058016    0.6878273387599946 Hf
   0.3745018579612158    0.5629156013583430    0.1886773189476637 Hf
   0.1257888424535215    0.6870287408175175    0.1881763681114589 Hf
   0.6240851622531683    0.8107275708141937    0.0630094115851862 Hf
   0.1255869915109301    0.1889829530241766    0.6874340062983589 Hf
   0.1244029398782449    0.1874893476001483    0.1873520789112710 Hf
   0.8727774383752093    0.8109298886130702    0.1865888762999675 Hf
   0.6265989656062343    0.3145626201823375    0.0613522094671710 Hf
   0.8734027741321488    0.3130869403804399    0.6876284179789188 Hf
   0.6240477419490614    0.3139863790946491    0.5620689850196771 Hf
   0.6247540135647005    0.8105488776567658    0.5631056209878450 Hf
   0.8774277808895482    0.3144157677179574    0.1879987728143204 Hf
   0.8762971842710768    0.4388574133867203    0.0628030872699179 Hf
   0.8733809533541278    0.4388213367163786    0.5625594308954717 Hf
   0.8740787292008170    0.9357827243780671    0.0620253211151837 Hf
   0.8763885488379347    0.9361683873820760    0.5632589815114479 Hf
   0.3738151812088556    0.0618632718275533    0.1861595119831639 Hf
   0.3742281348320670    0.6867895138025241    0.0629557322160527 Hf
   0.3755090023540372    0.8091886477254855    0.1842866614798333 Ho
   0.3833280672128898    0.9305009177590412    0.0625111377196864 Ho
   0.1207296749285676    0.4427206917625412    0.1857698975168168 Ho
   0.3747828400595254    0.4392950257604886    0.5602761678136842 Ho
   0.1448462786329952    0.9396733003290336    0.1877759769578573 Ho
   0.3710697823908795    0.5614077856071603    0.4367984323052097 Ho
   0.3751843600415543    0.5641697583421518    0.9359925648704776 Ho
   0.3691169565590656    0.8120514618883088    0.6922312095365512 Ho
   0.6267940399265904    0.1904903834176162    0.6873286465035506 Ho
   0.1272082527829069    0.5626004636286072    0.8163860278314485 Ho
   0.6250054330883049    0.6871185520398672    0.1862161859770657 Ho
   0.1271503776566227    0.6825610504443956    0.4400836633079863 Ho
   0.8789910169068066    0.6840136016964561    0.5615620430673752 Ho
   0.1241699986828179    0.8127938210822679    0.0631300251015612 La
   0.8774692503521115    0.8079511649095339    0.4373971341738652 La
   0.6263135493916657    0.9355792571946050    0.4372859946753785 La
   0.1279848244303078    0.4400338845035254    0.6887245315108974 La
   0.3759866343350952    0.1874677226316581    0.8123615868797858 La
   0.8752118147584865    0.0629820483976357    0.6887237998699319 La
   0.6289344277674298    0.1889648887531296    0.1875307150078731 La
   0.8763248539824574    0.9349681259470476    0.8139775248083895 La
   0.3734439022040558    0.3163909974974190    0.1878264959919780 La
   0.6238997520143734    0.0639859201456265    0.5642001619677345 La
   0.6263009444447655    0.5639499859640581    0.0621007875498926 La
   0.3761866731642194    0.1893759394109429    0.3130548665112589 La
   0.8794290183225438    0.9342210452187096    0.3090831797557572 La
   0.3718597051393742    0.4410663523922182    0.0612089812888040 Nd
   0.8763646097717017    0.5649730986373723    0.6891242695547527 Nd
   0.6235059386749942    0.6888420364821048    0.6863368599017164 Nd
   0.1271799667552442    0.3156169080109412    0.5617321457408440 Nd
   0.1230436040181493    0.0618738500973751    0.3110871417425627 Nd
   0.1256787490380556    0.0621121632385354    0.8131180241339325 Nd
   0.8755587120254404    0.4402557800309273    0.8143482890384591 Nd
   0.3788040395560047    0.3144942904491175    0.6854410767604318 Nd
   0.6230408974307802    0.4400518741977020    0.4358112612695477 Nd
   0.8728651433520372    0.1906858621767529    0.5637452014125937 Nd
   0.8802116462089418    0.0592165832383656    0.1838039194513822 Nd
   0.8743753990817389    0.3149714634238321    0.4362064854682692 Nd
   0.4993824080888982    0.5013598920779097    0.3548036426197639 O
   0.0000513088706174    0.6475950994931714    0.7494509603196763 O
   0.5000472119646037    0.5001759222826057    0.8572221403006273 O
   0.7524701615843272    0.2740421791720534    0.1242956326066595 O
   0.7479371819627757    0.2707565544882504    0.6250912809842816 O
   0.7482949597788058    0.7674162422094190    0.1241981283095079 O
   0.7524466197805124    0.7679109957736910    0.6238687326090580 O
  -0.0003858193626285    0.1440209680955297    0.2495005979742660 O
   0.0008471740620726    0.1478156931572972    0.7506647577182398 O
  -0.0004477313966423    0.6437876571857375    0.2494294299848817 O
   0.7518263921356798    0.3765405625814673    0.0185668466804959 O
   0.5346604083402700    0.8745984141792583    0.1233446275541880 O
   0.7480654193895766    0.8736519483988203    0.0200828823271612 O
   0.7494660419053377    0.8739420478190748    0.5220852501308030 O
   0.5437914589154971    0.3761022164566009    0.1249928764517971 O
   0.5410917479827658    0.3757439964016863    0.6250367124772299 O
   0.5001361494966335   -0.0008019164091882    0.8556929526903412 O
   0.5364734924335963    0.8735044165189517    0.6245661112114499 O
   0.9619234604622139    0.3763863548158696    0.1254430046081347 O
   0.9545153280434563    0.3758002171113667    0.6249522300478566 O
   0.9569130475865019    0.8747018069281990    0.1257938553378811 O
   0.9623692882531631    0.8744939984204702    0.6261402530374517 O
   0.7496100839948882    0.3746857336974672    0.2311726283440504 O
   0.7507199767243831    0.3753806290497108    0.5199835326918082 O
   0.4981176249060875   -0.0014845346602582    0.3521856056204773 O
   0.0017458475145798    0.6075805254494812    0.4995172545884421 O
   0.0014297698167439    0.5016999332682709    0.3945888632599931 O
   0.9576873344702548    0.1244808569806288    0.8747200707936736 O
   0.9627885188092083    0.6264296978794579    0.3755436470345210 O
   0.9681253094260845    0.6245400570616805    0.8737605585664391 O
   0.7511900771817689    0.1255430661854828    0.4785937029934500 O
   0.7517042182488843    0.1255776388423483    0.9785067076546674 O
   0.7531100274145448    0.6262823030982018    0.4811612753232785 O
   0.7517315156976913    0.6262371163495523    0.9774951705531805 O
   0.7488925670920018    0.2305030749298222    0.3736983206297827 O
   0.7486660808336059    0.2321290280824074    0.8744767960882447 O
   0.7484611636121933    0.7256599277527057    0.3741727813639456 O
   0.7503602054878445    0.7298142378789801    0.8753285577849895 O
   0.7868197041796130   -0.0011039750737697   -0.0006497909822166 O
   0.7946202973809923   -0.0009969021744177    0.5001581819237912 O
   0.7969412619598770    0.5011428128004888   -0.0001308524736149 O
   0.7886532582115350    0.5016386167551246    0.4999804361573366 O
   0.2132088509740445   -0.0008499185543169    0.0006483996216587 O
   0.2094315870840575   -0.0002073099230695    0.5002195888239871 O
   0.2090405852089208    0.5007790139658406   -0.0003289090230530 O
   0.2152387358416263    0.5008171972347553    0.5004465076228271 O
   0.0010003516379032    0.1049638746424138   -0.0003862127397183 O
   0.0012934796700266    0.1033461877763922    0.5001047514074679 O
   0.0004576161210453    0.6060509873552477    0.0001631246518077 O
   0.7469242971298060    0.3749586058244005    0.7301320534716180 O
   0.0003528882363935   -0.0008553165940091    0.3958240237577810 O
   0.0022580170961213   -0.0000953725247808    0.8971466221558902 O
   0.0020895614840896    0.5012996289161086    0.8939935931473537 O
   0.7451438243392255    0.8731084214733474    0.2269512388712668 O
   0.7963158871623851    0.2503476560459652    0.2492771852140621 O
   0.7529353148343927    0.4795316998341712    0.1262383414132929 O
   0.0049100944096069    0.5046905928322755    0.7536696486546163 O
   0.2471496028510238    0.1246882879411933    0.3777864960405463 O
   0.2487258430183721    0.1248984222238096    0.8789944391595249 O
   0.2499098780642764    0.6242574481712115    0.3767383582676997 O
   0.2505066802974916    0.6236811232758048    0.8753662128168667 O
  -0.0003251852594810    0.2513092458249758   -0.0012912733401404 O
   0.0028956830157521    0.2505261430745464    0.4983903108893662 O
  -0.0033890118740513    0.7470714928797256   -0.0009684103333902 O
   0.0048608240541386    0.7434626929993490    0.5014937275723548 O
   0.7507582114956741    0.3782931465229448    0.3718049346351297 O
   0.7456289932261966    0.3744617854081240    0.8762927219745391 O
   0.0017104279622903    0.5012894966069773    0.2492250014552272 O
   0.7458241420809613    0.8695198057491195    0.3716296848051718 O
   0.4975549455191954   -0.0044935356636564    0.0013042585074410 O
   0.4930013285078114   -0.0020871923168239    0.5011489717841408 O
   0.4972513035761222    0.5024489078343137   -0.0043164113112187 O
   0.4933059865344512    0.5036056981892243    0.5005626031997771 O
   0.7523035185215703    0.1239278065457974    0.1204112746368666 O
   0.7451761736494560    0.1291888540276662    0.6283923131054568 O
   0.7522647017536485    0.6277191877834272    0.1282073870407696 O
   0.7505945756714478    0.6257737610539761    0.6208842883329064 O
   0.5056330204811967    0.2535741402165971    0.2511679074882616 O
   0.5098110552095821    0.2519931048935195    0.7496235280136228 O
   0.9595993972114796    0.1249943860371214    0.3750909457038612 O
   0.7440013722740043    0.8706591731613208    0.8775388480106602 O
   0.0056470032415467   -0.0032929410982248    0.7490852707358443 O
   0.0089170694765957   -0.0045073477494939    0.2449138935526140 O
   0.2511665424392348    0.8711137518254566    0.6281066300090806 O
   0.7487044454822936    0.4812333081872580    0.6251531928385118 O
   0.7470561670412339    0.9774725279890846    0.1243571230957530 O
   0.7493921008857874    0.9762225099196111    0.6254582957140239 O
   0.7870850393847789    0.2488081505744500    0.7487561847580843 O
   0.7834542273744174    0.7482011416081215    0.2488024674142732 O
   0.7900857744949529    0.7492088320515045    0.7502474173510204 O
   0.2042929755275838    0.2505920262428055    0.2503518943569996 O
   0.2075361163008600    0.2512307162112328    0.7503802007171609 O
   0.2182572187125318    0.7507157271470377    0.2484957196984603 O
   0.2153056964398331    0.7507296981265402    0.7484523750291521 O
   0.0007419741214054    0.3595663757876972    0.2498916840228533 O
  -0.0028454249462034    0.3530853784843667    0.7511670009788245 O
  -0.0042928930280695    0.8483943614804907    0.2511346207287406 O
   0.0014073495847398    0.8509647740222833    0.7494894798794410 O
  -0.0000609634305421    0.2502374043478590    0.1450341474086861 O
  -0.0009694283478945    0.2508576475098301    0.6454010552860295 O
  -0.0023836879047559    0.7478081478781825    0.1462724433467892 O
   0.0008439329163099    0.7488544433715154    0.6436941081760033 O
   0.5019212732406089    0.2505044429334146    0.1005766562752216 O
   0.5023336711512197    0.2500901140342420    0.6063253349961599 O
   0.4979494002005111    0.7500822128075624    0.1074885498732051 O
   0.4996100541746623    0.7487947566650633    0.6052519401745746 O
   0.2398647383920297    0.3796239430423991    0.1255217805299909 O
   0.2574044948620851    0.3798344547460488    0.6221333415470844 O
   0.2594923820754427    0.8758123447854457    0.1270857908210551 O
   0.7484359054078308    0.8727641289568562    0.7285235573076204 O
   0.5322120545265523    0.6242236394373940    0.8762551552739912 O
  -0.0002940768341076    0.5017053689348905    0.6023445857566443 O
   0.5429305183867033    0.1249623780399262    0.8757145049119667 O
   0.2891411355827287   -0.0013099192953945    0.2487166996924774 O
   0.2940299882500494    0.0000374175991515    0.7507721321417395 O
   0.2854878393154314    0.4998907100983227    0.2494673002057559 O
   0.2938041208135578    0.5012571967606458    0.7514102655145138 O
   0.7055811527519688   -0.0012741726896688    0.2486692301572245 O
   0.7018558981278389   -0.0015025602013133    0.7500862384064496 O
   0.7124228589153930    0.5000992793933692    0.2512132257437667 O
   0.7053222441670806    0.5007275147506856    0.7505134771071770 O
   0.4992159859461105    0.1022461134671513    0.2490867416053051 O
   0.5024778508341371    0.1048944551890911    0.7492260650251509 O
   0.5002345632287593    0.6073006156669852    0.2502083121782034 O
   0.2523273488698616    0.7292474096235800    0.6254151258174003 O
   0.4999773041975317    0.6062434630875941    0.7504699225345384 O
   0.4983780079853870   -0.0011441365739338    0.6464653424686189 O
   0.4999256653070827    0.5005566921429633    0.1480690156332723 O
   0.4968673696959700    0.4996151208372695    0.6433916845926849 O
  -0.0024372606308214   -0.0001234184084575    0.1013151426765477 O
   0.0002503652236713   -0.0006688035441692    0.6041041257601286 O
   0.0038699153761657    0.4996826433362568    0.1062641702089899 O
   0.4977389050345972    0.7478097273598516    0.2466817783944472 O
   0.2484272784625819    0.2738965118649871    0.3759710492754578 O
   0.2484004588032135    0.2708323141562659    0.8765313849643704 O
   0.2476813251753711    0.7656764096370737    0.3753668853272907 O
   0.2514038664842819    0.7676668421308418    0.8747036076370253 O
   0.4957997891967370   -0.0017258832816217    0.1429541570181400 O
   0.5009621050293747    0.1453833070302217   -0.0002114452413539 O
   0.2506654242157884    0.7295036674607993    0.1258912634385851 O
   0.2504388180331372    0.2290020538108423    0.1251796414138306 O
   0.2444429454764953    0.0172741642074414    0.1269564419471036 O
   0.2490098734180803    0.0184347068586800    0.6262641897910407 O
   0.2501245447194440    0.5221166545505922    0.1256385291611928 O
   0.2505728693581271    0.5239103230785445    0.6247670069479072 O
   0.5018755511422095    0.3978200098724551    0.2515855462121214 O
   0.4982696894578351    0.3972399830275952    0.7503153052251608 O
   0.4949085202271993    0.8912194903329675    0.2480894898189767 O
   0.4974918942834766    0.8913199643889997    0.7495457691298369 O
   0.2503698186348638    0.1247265898374236    0.0200037886927925 O
   0.2506613498076757    0.1253735060928998    0.5222635124740206 O
   0.2520837901406304    0.6244216045091957    0.0188483073619649 O
   0.2512794735325960    0.2315978831752420    0.6255471416645975 O
   0.2503639498763406    0.6254078916996675    0.5160401114681404 O
   0.0434483025404627    0.1254963153688524    0.6252380037431784 O
   0.0424424545154342    0.6256100583360362    0.1248527656452711 O
   0.0406697209759515    0.6263477762505630    0.6235869627366464 O
   0.4544498809369737    0.1241766687396410    0.1237927527703621 O
   0.4593067454013138    0.1266562312160736    0.6266014297571166 O
   0.4591168993227274    0.6262111426409687    0.1269059421970762 O
   0.4591360562700073    0.6247770442522880    0.6248405272805544 O
   0.2491331621088733    0.1244016407030639    0.2284375848948180 O
   0.2487865303784116    0.1248845154406973    0.7291955590027438 O
   0.2488894069280839    0.6247890614268566    0.2331347102824675 O
   0.2490455985100179    0.6246350163997574    0.7316929926680069 O
   0.0427445381693867    0.1245343187201701    0.1245305112358462 O
   0.4998453910921039    0.1467612147134474    0.4999668055103005 O
   0.4994478279200337    0.6463525351883120    0.0001011521742748 O
   0.5008245828690827    0.6439585516384180    0.5007452244025039 O
   0.4976109610893199    0.3586599903890294    0.5014573885673796 O
   0.4986020336767942    0.8547978079139099    0.0005175010879396 O
   0.4995696874028620    0.8500969037498914    0.4992724489101230 O
   0.5012220830206078    0.2518128645760027    0.3964491229303598 O
   0.5011903399216994    0.2509138305186321    0.8965267993755308 O
   0.4997797558218067    0.7488998827419004    0.3945157529311308 O
   0.5009551541674589    0.7504220735867082    0.8935790954905790 O
  -0.0003069352304690    0.2508011969125964    0.3535912288411777 O
  -0.0001022341519196    0.2494863049397175    0.8575603786777960 O
  -0.0006387635441490    0.7494788148657315    0.3521697646655007 O
   0.0001285098667621    0.7502707513880335    0.8559822473004087 O
   0.5013159486771692    0.3568661126920161   -0.0007622262881640 O
   0.7496664655410242    0.0204369486893440    0.3750211689942778 O
   0.7505152528457043    0.5240081953459675    0.3751413280026863 O
   0.7498036275357886    0.5209452539621950    0.8756244081462937 O
   0.0014512513699487    0.3960448502307933    0.0000231214145533 O
   0.0007970884458871    0.3986555812074762    0.5000628113852629 O
  -0.0024331772371782    0.8944421371094035   -0.0012513269821014 O
   0.0005786096243903    0.8935420366056233    0.5001954033120587 O
   0.7496462430081038    0.1245231909469035    0.2709589488857971 O
   0.7498422411578403    0.1250140472237808    0.7725582818269076 O
   0.7496803331654709    0.6246152264585741    0.2682418769526563 O
   0.7513636472523879    0.6244796433611406    0.7727972703342718 O
   0.5416810440479379    0.1242127473290190    0.3749835921248013 O
   0.7506792565828543    0.0195935805161508    0.8749586212475163 O
   0.7083116211895494    0.7484787954633552    0.5001539647388413 O
   0.7062777780340673    0.7501028789430896   -0.0010405832864938 O
   0.7075132043986575    0.2507208125744749    0.4997767255229955 O
   0.2497849264862929    0.3764457205744081    0.2713716578683203 O
   0.2481216296950569    0.3761153683352503    0.7744019387360392 O
   0.2432699417364682    0.8765690864112909    0.2664284403633900 O
   0.2502967497329962    0.8746370359562763    0.7687623095932188 O
   0.0413744805337797    0.3770475129208188    0.3751937030500634 O
   0.0368963399257623    0.3754338260346055    0.8759955134642813 O
   0.0492688074346460    0.8740026063301650    0.3746079137157423 O
   0.0480009014327617    0.8746533866874990    0.8746740077784387 O
   0.4596255741198691    0.3762555568699343    0.3748061913678384 O
   0.4608787471306395    0.3748771656097700    0.8750304437429987 O
   0.4514186479035143    0.8724266099913172    0.3732888939017738 O
   0.4617279206061965    0.8744787992239976    0.8751230597445511 O
   0.2515534574150037    0.3773991495288319    0.4800020054934047 O
   0.2510925008199764    0.3763388110333361    0.9783325748893085 O
   0.2510100194238379    0.8741358403867028    0.4802711707789291 O
   0.2534853223712423    0.8754528795882249    0.9807243022260155 O
   0.2522435811077506    0.4842102353038512    0.3761730911743170 O
   0.2498660596549515    0.4839308796417021    0.8753344942318010 O
   0.2498574526360244    0.9783165634760312    0.3746987022858447 O
   0.2505891193349614    0.9782330276778881    0.8750858149182525 O
   0.2882292118174722    0.2501900559593007   -0.0004265874926052 O
   0.2936824479045295    0.2514094613812015    0.5007269763437957 O
   0.2930681687883859    0.7493752299766429   -0.0002106394433125 O
   0.2869619672869891    0.7484364082446066    0.4997124365522843 O
   0.7130109200296174    0.2510257810239447   -0.0006672499689849 O
   0.5353755709916566    0.6237437262492339    0.3763826682077276 O
   0.4944192887958681    0.7515589180267085    0.7511012808961056 O
