La13 Ce64 Nd13 Sm13 Eu13 Y12 O224
1.0
  11.0354832371147289   -0.0014183927528698    0.0009372483821584
  -0.0028365879740948   22.0694844411127136   -0.0035163556529562
   0.0018747562148009   -0.0035165026582655   22.0716919908535161
Ce Eu La Nd O Sm Y
64 13 13 13 224 13 12
direct
   0.3768359698997475    0.1863712830767222    0.5621698197379797 Ce
   0.1256013752122330    0.8129113476336116    0.3119358211149139 Ce
   0.1241992019984271    0.3127377105186266    0.8118832130702525 Ce
   0.1248600190307685    0.3111762168596781    0.3140478711540298 Ce
   0.6260092321898929    0.6874520242504053    0.9380795842260080 Ce
   0.6234391027190178    0.6878380575675581    0.4368366708462670 Ce
   0.6251820357391582    0.1861080860330309    0.9393787212424107 Ce
   0.6255342271067162    0.1864529218775369    0.4381317583352675 Ce
   0.3764906020503631    0.8133383535930027    0.9378297661221805 Ce
   0.3763872564774622    0.8133664888447840    0.4372326170810995 Ce
   0.3746912665759784    0.3136254854403658    0.9386690095104281 Ce
   0.3745160107042648    0.3118347523617976    0.4376307728782239 Ce
   0.8749426507595688    0.6874024580916153    0.8116679013715927 Ce
   0.8721272008538977    0.6877511637920353    0.3119171778086715 Ce
   0.1261841034599274    0.8124530812561468    0.8124589008539044 Ce
   0.8772276823342380    0.1862346987993694    0.3131663751476764 Ce
   0.1245660855450578    0.5625486496983895    0.0629708311538702 Ce
   0.1272586862335842    0.0621234742704907    0.5615477903757333 Ce
   0.1254208005103533    0.0625817328970757    0.0628220678004080 Ce
   0.6235310707642985    0.9388570561309729    0.6852970367578661 Ce
   0.6252397947483245    0.9380238719250683    0.1878145407211760 Ce
   0.6238929663056400    0.4374384949832044    0.6865378837628788 Ce
   0.6246623407124691    0.4382647191185909    0.1869174541623471 Ce
   0.3757605041004484    0.5626652534236239    0.6869885842469206 Ce
   0.3763588941452086    0.5629433410343294    0.1874902249524961 Ce
   0.3765042546231652    0.0622540721543916    0.6858284641293722 Ce
   0.3768414019705338    0.0629623019772358    0.1878419158533072 Ce
   0.8742685482307528    0.9385230738131003    0.5621090035738064 Ce
   0.8716053249132499    0.9390277904459559    0.0624358145113268 Ce
   0.1245161274120869    0.5622426383503407    0.5623922104159568 Ce
   0.8734616827321656    0.4372544530205079    0.5617584340332407 Ce
   0.3751798665222811    0.4378928524536573    0.3133381728297800 Ce
   0.3763263191184670    0.9379067378950688    0.3125228057222545 Ce
   0.6235058138884224    0.8132500981609367    0.5625302425087719 Ce
   0.6237136874934740    0.8133519831748446    0.0629876054043124 Ce
   0.6250196938234105    0.3120696201054978    0.5624904038559291 Ce
   0.6253772939087874    0.3123388131351115    0.0628219705937277 Ce
   0.1252203818148065    0.6876353676749213    0.6869026516273852 Ce
   0.1253575031026501    0.6876206660306983    0.1885693413422963 Ce
   0.1251552504652192    0.1868145442094659    0.6872682910455112 Ce
   0.1253209467766370    0.1864888155013482    0.1883199596540213 Ce
   0.8750827266280620    0.8123173003924792    0.6860428918933713 Ce
   0.8714811285490711    0.8125764043615000    0.1887633313263365 Ce
   0.8735002559400401    0.3121345388953018    0.6873395919717007 Ce
   0.8751442595157317    0.3115521207880648    0.1870698043453815 Ce
   0.3760770097092938    0.6877130401991305    0.5627397464366150 Ce
   0.3744639167657638    0.4369916064556294    0.8114999617307146 Ce
   0.3766771401407605    0.6877943557419491    0.0638701093596572 Ce
   0.6255586891701040    0.5627689967158620    0.8113914059039438 Ce
   0.6241440253788293    0.5630567213254134    0.3120250968539880 Ce
   0.6238659709059371    0.0623432143605604    0.8126980350913240 Ce
   0.6264594861970220    0.0623579526972664    0.3126979087787414 Ce
   0.1267789737255399    0.9386485637254708    0.9381246648984437 Ce
   0.1267670044528366    0.9382761142396294    0.4368379187000688 Ce
   0.1245789991221154    0.4368977142923266    0.9381390192354735 Ce
   0.1238447293968150    0.4375583885691262    0.4374840751794387 Ce
   0.8742689499882222    0.5625335628472807    0.9376534527948792 Ce
   0.8728784778500852    0.5622222716256103    0.4372630887514833 Ce
   0.8717282857855734    0.0621580022581167    0.9388480939742200 Ce
   0.8765804810682061    0.0621681421533438    0.4370662400247338 Ce
   0.3755060514711477    0.9385437842870415    0.8128188732492641 Ce
   0.3772867273760842    0.1865896468115761    0.0629510113819332 Ce
   0.8743431234805756    0.4375055340184209    0.0622783390278914 Ce
   0.8735370177590812    0.1865911646378360    0.8117454288626129 Ce
   0.1262844829971670    0.0618528797037427    0.8120820605797624 Eu
   0.3750823016056334    0.0619383826662797    0.4380005802620081 Eu
   0.1240800877395813    0.5628253218901617    0.3125502143645015 Eu
   0.8753425958190489    0.4378689100205712    0.3136919473533914 Eu
   0.8751491697277005    0.4372346955025260    0.8128084895431387 Eu
   0.1271399520670113    0.9387422679572254    0.6860723447067484 Eu
   0.8727668901849328    0.8139692628945715    0.4367064916295147 Eu
   0.6260198659490293    0.4369789573102497    0.4380115536099649 Eu
   0.6245782894822767    0.9382726039938633    0.4385211304342392 Eu
   0.1245444726171987    0.4369330574821165    0.6873770561149011 Eu
   0.8730956114837601    0.6869072449661680    0.0637629964010864 Eu
   0.6263640670659137    0.4375038988839710    0.9380164601970159 Eu
   0.8738905762861074    0.0628687804585800    0.6863880963419755 Eu
   0.8755359919130443    0.9382015286046279    0.8122059823378177 La
   0.3764957095980790    0.5614206749588405    0.9382159816448350 La
   0.1243035367763145    0.1864183213932687    0.9375488809544368 La
   0.1242428864186247    0.6877539069966061    0.4365670244538158 La
   0.1254715080817741    0.8124366593703282    0.0640845917869135 La
   0.1246338809846251    0.3119064474504685    0.5614989433537096 La
   0.1252757507923213    0.9383401943389169    0.1891339411139257 La
   0.3755956534179948    0.1861919899371774    0.8121470470165070 La
   0.6246540234280685    0.8130022320647539    0.8118076417693617 La
   0.1256692143595099    0.4378124417619630    0.1880767259882262 La
   0.6259236158003425    0.3121698965524720    0.8122271272897311 La
   0.6275395888805335    0.3121336788141843    0.3129423589816733 La
   0.8736338560812208    0.1864094767852572    0.5617174626693596 La
   0.3770143148360857    0.3121993135891036    0.1875517994467136 Nd
   0.1233011244473543    0.6872040958746775    0.9376330109149230 Nd
   0.3749941486409860    0.8138704357203358    0.6861573995129574 Nd
   0.1241730025437257    0.5611365694364459    0.8122289551954677 Nd
   0.1246584828020805    0.8153601630565211    0.5614554855322899 Nd
   0.3736254296578990    0.1859190498371529    0.3136793467630909 Nd
   0.8715696095085959    0.6886695543297241    0.5620202099228904 Nd
   0.3789705524146625    0.9384748222504145    0.0626241648692759 Nd
   0.8722742668657506    0.8133358841614399    0.9389449533709332 Nd
   0.8730929613354811    0.5621003168187356    0.6870290393926731 Nd
   0.3762035582332349    0.6871328189434052    0.8110161491690205 Nd
   0.1257748545105590    0.3126539439551193    0.0624784024342180 Nd
   0.6235986082703922    0.5628162520364945    0.5618040477874759 Nd
   0.0037750210531210    0.1119497849421960    0.4978999234630837 O
   0.0015845583522324    0.6117532901566114   -0.0007711630893335 O
  -0.0022341764285514    0.6114334071353248    0.5003889799908878 O
   0.0022637427688150    0.0006925568157094    0.3867279861405500 O
  -0.0017288357261645   -0.0000489094103789    0.8901686016066095 O
   0.0012361682768148    0.5003900865993955    0.8885339789632778 O
  -0.0012932071864650    0.4994881658871784    0.3885872719294853 O
   0.7659294171095830    0.0000793627672466    0.0002960123956407 O
   0.4997118576323901    0.0004499767552936    0.8656850851877133 O
   0.5220674747941267    0.8761777226793446    0.6241167036586985 O
   0.5252291081059991    0.8752980240114586    0.1257983154882135 O
   0.5241481275051197    0.3749085723503000    0.6245786566589266 O
   0.5248429895730403    0.3755014778801158    0.1245144570480116 O
   0.7498400327261616    0.8752341164862218    0.5136523314704979 O
   0.7483585742442860    0.8757921368120036    0.0130648960566799 O
   0.7511828196521269    0.3736017692239203    0.5128239740260923 O
   0.7518920260904599    0.3736299223692837    0.0130592509060636 O
   0.0003517353939665    0.6370642454196795    0.7496504176360682 O
  -0.0027489395229195    0.6380815827075274    0.2493756253790474 O
  -0.0002707808124383    0.1383408726270539    0.7500594265698286 O
   0.0012591933073355    0.1364773488563726    0.2505724762341772 O
   0.7478500328100165    0.7620433265944406    0.6250215535556927 O
   0.7465115934581409    0.7630459261319364    0.1260722577571201 O
   0.7463929690106276    0.2609851879230471    0.6262137202002669 O
  -0.0023276721843363    0.1113667012799144    0.0016482120004253 O
   0.7500803484870726    0.2600776055839217    0.1250401765731099 O
   0.4996164014248676    0.5002330725855669    0.8604426053548007 O
   0.4976795435162493    0.5017090565032640    0.3619099498541917 O
   0.5017153860851188   -0.0000553293094877    0.3617111050233461 O
   0.2246465210482327    0.4996557240148976    0.5000233125459568 O
   0.7747834466721417    0.0015209093753383    0.5002655330136361 O
   0.2298401134443401   -0.0014786866713972    0.5006821213874116 O
   0.7523702087493304    0.7373624106871315    0.8757052902573409 O
   0.7468955325138574    0.7378087627682939    0.3741199169115897 O
   0.7511175723249192    0.2353727104196516    0.8767783366375533 O
   0.7528840513277307    0.2358601515756762    0.3758664821216058 O
   0.7483567600069798    0.6244995146015868    0.9881030828089550 O
   0.7481455097376647    0.6253509914484382    0.4875546531156713 O
   0.7488530808181626    0.1241995245412523    0.9913657134855046 O
   0.7497092267534260    0.1235717048944148    0.4873298857250123 O
   0.9736089805222424    0.6251293508044642    0.8746905400696131 O
   0.9695767459543474    0.6255579515354761    0.3750083571716605 O
   0.9744317036026676    0.3741301026134483    0.1242501800732218 O
   0.9688305782119173    0.1245006407684608    0.8760235084566014 O
   0.9799168034057872    0.1241206953324369    0.3746452011146280 O
   0.5282571510442921    0.6255826229646948    0.8744222890140997 O
   0.5237549851611883    0.6253714545173792    0.3744479395715493 O
   0.5263177218093147    0.1234803606192197    0.8768217655141951 O
   0.5261096360337437    0.1252998102419203    0.3743208015043707 O
   0.7488453969064255    0.6258557873521260    0.7611673330218516 O
   0.7488387548599695    0.6252161737223945    0.2609866135236124 O
   0.7458571520511161    0.1257142182869711    0.7619569231959871 O
   0.7514228467992171    0.1243484821353265    0.2612889101519517 O
   0.0021246211023224    0.8901416157856582    0.4999485442458869 O
  -0.0021570109732405    0.8905676616527561    0.0001420697254485 O
  -0.0037081741060113    0.3869641695819821    0.4986592481718390 O
   0.7750027707029338    0.5004357509123541    0.0007213426199417 O
   0.7725274138452114    0.5003102996748331    0.5000546624535184 O
   0.2294863795902772    0.0012135706979731   -0.0002789124484228 O
   0.2247135685895933    0.4990589620142090    0.0010397994447056 O
   0.9706947408752669    0.3746315360379176    0.6244385701138472 O
  -0.0023789106635124    0.5004958030291239    0.6112676708711846 O
   0.9743269162641519    0.8747290628165361    0.6237071894698074 O
   0.0005694892700232    0.0029056225573183    0.2526295988248242 O
   0.0015245679568288    0.0005555921714526    0.7490844047202738 O
  -0.0008866039541514    0.3865301980961193    0.0000807379712074 O
  -0.0022880728401424    0.5007306709182027    0.2499458739426143 O
  -0.0007556379105190    0.4995688169536304    0.7496907183802595 O
   0.2424873358005091    0.1244064616044193    0.3751250204254394 O
   0.2555453449412575    0.1219621449911955    0.8778229514713892 O
   0.2537313241379642    0.6254560209316700    0.3742856308807807 O
   0.2498801508766165    0.6252232715454621    0.8746674509710910 O
  -0.0033441912565103    0.2493942286275319    0.0009854401137718 O
   0.0006280047769731    0.2491270671311399    0.4947224675469017 O
  -0.0011787214239409    0.7503961914073055    0.0002898709169249 O
  -0.0015495474325818    0.7513454491974263    0.4995722011714455 O
   0.7563932330722092    0.3724700477414135    0.3776053419006470 O
   0.7519426701038427    0.3743631557875204    0.8765282450448970 O
   0.7495141453141864    0.8756705465262479    0.3737830329324524 O
   0.7447333436099662    0.8777257565290404    0.8781053891719679 O
   0.5032593868434511    0.0018462724596999   -0.0012263916223199 O
   0.5005937433599648    0.0003418722456453    0.5031426819591049 O
   0.4986475951695211    0.4981918911098901    0.0035784751106044 O
   0.4960197836062101    0.5000029684006357    0.4997094221845317 O
   0.7479614168607464    0.1231349949146775    0.1244315695589416 O
   0.7411010527493577    0.1244754892532695    0.6244708916244345 O
   0.7474534862120137    0.6244878349637969    0.1263204988862968 O
   0.7451987304100945    0.6273873333739358    0.6265633683826550 O
   0.5011502945329827    0.2479887898848043    0.2489631920291994 O
   0.5025802850516742    0.2476985453144002    0.7463813919167051 O
   0.2546884994696347    0.8776803356229693    0.6222913405904361 O
   0.2563489078407070    0.8740206592102745    0.1275107375560292 O
   0.2534735813018524    0.3743131845325461    0.6245382775469606 O
   0.2560473518958912    0.3759327283049039    0.1232756696921730 O
   0.7494948341496717    0.3747224711099180    0.2352918543165425 O
   0.7483705332576172    0.3749701183437419    0.7360907645582830 O
   0.7481941796284850    0.8756125342308669    0.2391678377045419 O
   0.7491304134491646    0.8754569660297653    0.7338407569196094 O
   0.7495937267058038    0.4882677851335292    0.1242047816710221 O
   0.7489141106599950    0.4879286663372956    0.6243604723788270 O
   0.7488290426559355    0.9891040373479358    0.1253717595185077 O
   0.7468639863271689    0.9891931441833770    0.6232257229829142 O
   0.7788706727198853    0.2481694564966588    0.2495851919695173 O
   0.7751199843585036    0.2488278167394581    0.7492075203103881 O
   0.7689503911984291    0.7503174937728468    0.2499976442627624 O
   0.7759148914787661    0.7492541790497445    0.7486737340672557 O
   0.2242521823708284    0.2491497530506491    0.2504803466434951 O
   0.9671230945922047    0.8756555255068246    0.1251155784743111 O
   0.2241311775073325    0.2504875443227421    0.7490867718515570 O
   0.2258321720894949    0.7498618083199916    0.7498601667109337 O
   0.0011754213557619    0.3591831581282935    0.2501385123152201 O
  -0.0012675327258474    0.3611740968287706    0.7497672530308631 O
  -0.0021017961191343    0.8630369771193003    0.2505944609505353 O
  -0.0005245338548764    0.8601930010982531    0.7499525309916466 O
   0.0007174589194572    0.2488943439971108    0.1378209482516933 O
  -0.0005380789638986    0.2495550754741208    0.6380401153365077 O
  -0.0008473659468136    0.7506643762778168    0.1411003017827799 O
  -0.0005018219992562    0.7500032553556911    0.6366673950005490 O
   0.5013515922942154    0.2495017060418674    0.1128054469780723 O
   0.5001834442225780    0.2495817156952264    0.6121174959621339 O
   0.4984583312438342    0.7516067546852564    0.1142483982375509 O
   0.5011412954534503    0.7498226125779165    0.6130548365909164 O
   0.2280416590196302    0.7507917230278592    0.2498592453464593 O
   0.7498923236625562    0.5144157957111730    0.8745346303284574 O
   0.5032116926370983    0.7485298116157766    0.7472439180764655 O
   0.7465347466833615    0.0131775296375132    0.8766177771959180 O
   0.2527351577653895    0.2357101611139764    0.6254014662105242 O
   0.2521573264860477    0.7371370685062743    0.1264266710579906 O
   0.2502733336466762    0.7381815513047867    0.6248761881253080 O
   0.2771750588255495    0.0014479067669340    0.2507717515193661 O
   0.2798137510507438    0.0001065245613489    0.7492024962753590 O
   0.2782093401234534    0.5001075859103071    0.2498331471277767 O
   0.2760091980436978    0.5010239016257118    0.7503738287820454 O
   0.7265945397833479    0.0002564054966467    0.2498036739667460 O
   0.7207105375254891   -0.0001794217409731    0.7500880832773836 O
   0.7225939935599748    0.5013308746855173    0.2487481709687659 O
   0.7228738164338582    0.5005530972842878    0.7485097665327349 O
   0.7485084684551983    0.5133034026418201    0.3743571265376304 O
   0.5016842619399703    0.1113663117988402    0.7489219447705781 O
   0.4997107442289838    0.6146228336559904    0.2499156033691444 O
   0.5010641878243332    0.6136049897527637    0.7490451119246757 O
   0.5020301843319109    0.0008569549397029    0.1363021991451756 O
   0.4999796010904496    0.0005030415160107    0.6332792701463296 O
   0.4997132168924284    0.4999341738057236    0.1365609349584468 O
   0.4987293558956802    0.4997326202286976    0.6362337560059410 O
  -0.0017351738454178    0.0010439251062329    0.1122722922077167 O
   0.0010435609627750    0.0001964938664054    0.6103763292138449 O
   0.2517033679143955    0.2358342578971877    0.1257959516640023 O
  -0.0022940221211029    0.5007383222939340    0.1123670476115491 O
   0.2508903767801658    0.6253360673336062    0.7364530764152598 O
   0.2509981793565013    0.1244526857549805    0.7359959197777288 O
   0.2517973468911739    0.0136889798734539    0.1249668767312891 O
   0.2531264794339307    0.0127748762162172    0.6231690087219585 O
   0.2531002304059276    0.5135075172661230    0.1240503356366248 O
   0.2513050463626007    0.5131979376896451    0.6242298047028959 O
   0.4994532440478804    0.3887710028387958    0.2493734889005021 O
   0.4976601323666733    0.3871672516442095    0.7482663292492570 O
   0.4994228405738643    0.8872323153053455    0.2492427686827644 O
   0.4992111982466816    0.8892819960380764    0.7489513314624684 O
   0.2522692096874325    0.1239341053801033    0.0136821768608243 O
   0.2491999121677598    0.1257222541485161    0.5114223530377942 O
   0.2492953466466153    0.6260260802127845    0.0148254554247600 O
   0.2513598394130447    0.6245145907098132    0.5135110089863063 O
   0.0234343780484741    0.1244505049666952    0.1256428206369644 O
   0.0275275029699829    0.1245315833577651    0.6242180114402357 O
   0.0259328056495548    0.6245229469631188    0.1261794675217161 O
   0.0250156527721355    0.6250178364721850    0.6248579524530382 O
   0.4791912899687004    0.1247629388945495    0.1253922224316809 O
   0.4788470436792057    0.1253032905751777    0.6252450152874136 O
   0.4784392172017318    0.6255924070740277    0.1255735141019439 O
   0.4770383724319509    0.6259782947798921    0.6255617801600876 O
   0.2503042250587543    0.1240931375066199    0.2388982117209077 O
   0.2525159736204198    0.6260631902229870    0.2370305067015218 O
   0.4968334455211906    0.7520614493035161    0.2486670575047193 O
   0.5018237678776811    0.1121245945484058    0.2497002194518748 O
   0.2499256797742573    0.2642282663737675    0.8755088621945211 O
   0.2776364806048460    0.2501863200976259    0.0016235546393022 O
   0.2761913015135607    0.2481607131135677    0.4990116380116997 O
   0.2790533003369013    0.7498772241101879    0.0001773044153578 O
   0.2790176702917832    0.7510494438847739    0.5004186354149477 O
   0.7251902421993488    0.2492499518713322    0.0008600414939922 O
   0.7250552356856383    0.2508869811613686    0.4987356248362591 O
   0.7220073171703140    0.7512561820162069   -0.0000172159793052 O
   0.7201079337864392    0.7497914368287695    0.5003385332616395 O
   0.4978208557879704    0.3626720258709202    0.0020132702523512 O
   0.2489252548751276    0.2594058789980230    0.3760676225784638 O
   0.5017384094045333    0.8653614737415821   -0.0003093231689052 O
   0.4977678222038504    0.8638534064131568    0.5008420309983146 O
   0.4994282237113921    0.2488823129868667    0.3889869948768049 O
   0.5005299841202463    0.2492747171410858    0.8914037234838579 O
   0.4999516141072683    0.7504214249787119    0.3862220240288691 O
   0.5001624810313804    0.7501145829375374    0.8879723322834966 O
  -0.0000571692260518    0.2488748040489066    0.3634054766981965 O
  -0.0019551874622385    0.2503227526420598    0.8611253903888986 O
  -0.0006270362428838    0.7502922782185328    0.3589785907031512 O
   0.0012119629672728    0.7494339792176893    0.8617032964872484 O
   0.7539415397177781    0.0128389508467505    0.3736284049296698 O
   0.2525365905200584    0.9875231989251174    0.8762387116393211 O
   0.2483396261726745    0.9884855714951507    0.3730909384659508 O
   0.4971754612907450    0.3608388581481442    0.5012301800697422 O
   0.2510293353767304    0.4871409836584666    0.3762654381456240 O
   0.2485112613373846    0.4852139798204116    0.8744870018551512 O
   0.2515974785210010    0.7638352254970191    0.3741623908749867 O
   0.2513037236884818    0.7639026018257853    0.8753117058679580 O
   0.5006513549789621    0.1344486563571503    0.0010343677023437 O
   0.5019072954828520    0.6377242609901852    0.0012796268058706 O
   0.4988377552864427    0.6374279284289434    0.4995922939469206 O
   0.2515579373370415    0.3737297371968290    0.2646464930306596 O
   0.2502180612601214    0.3742340411009529    0.7619003416256213 O
   0.2528977574124246    0.8744541245749974    0.2625774128494119 O
   0.2520585323230765    0.8747953627605015    0.7636271161433847 O
   0.0259407205257238    0.3727858093270347    0.3767529638502520 O
   0.5040409576473084    0.1358773310054680    0.5016182534634369 O
   0.0265145838795290    0.8766368883564936    0.3737688026939231 O
   0.0257118012662081    0.3739645325937751    0.8762286918048133 O
   0.2515091315854507    0.8758549383862057    0.9880140864292256 O
   0.2511572823684698    0.8758656017107077    0.4866911408691816 O
   0.2504820310240997    0.3754970543993358    0.4867818920443586 O
   0.2507364292351110    0.3757239581831431    0.9893273132593926 O
   0.4753555281768473    0.8744074759923054    0.3738206599892452 O
   0.4716539628716845    0.3746585676385421    0.8748586424314949 O
   0.4739101482700774    0.3746897597420744    0.3753513632842924 O
   0.0280526761270266    0.8745875041720532    0.8761885892949544 O
   0.4740620856004804    0.8766311610074374    0.8760400323349308 O
   0.8748243002580673    0.9383645137903028    0.3137697596849476 Sm
   0.8729374520093657    0.1864859889130273    0.0636295932608425 Sm
   0.3755880472172658    0.6880547861858014    0.3113318647884491 Sm
   0.8747428543157052    0.3122166350281515    0.9378788380551893 Sm
   0.6233729666006791    0.8133119649028822    0.3128329544035799 Sm
   0.8742266280530328    0.0629702642625966    0.1881376854629983 Sm
   0.3749507776673899    0.5616431346811617    0.4365583306832717 Sm
   0.6266055454613171    0.1858917026365491    0.1871206213261209 Sm
   0.3753015536532493    0.3119087146339413    0.6863612150005204 Sm
   0.6238897283025170    0.6884166726865620    0.1875334934662501 Sm
   0.3747677122927578    0.4375125607445141    0.5620235719080225 Sm
   0.6262805220887503    0.5620449282740231    0.0632291847022204 Sm
   0.8737114041113119    0.5633146848781255    0.1882979425663707 Sm
   0.3773312862847742    0.8124919670697414    0.1887799661259408 Y
   0.3782917751140553    0.0609415732222339    0.9379742874796180 Y
   0.3760559161340296    0.9393537194261855    0.5611081856994419 Y
   0.6232621260105725    0.0613937883263571    0.5624825665897122 Y
   0.1249423047299266    0.0625686096141983    0.3147656319328202 Y
   0.8777532799788444    0.3123902741222511    0.4367840228633591 Y
   0.6223732121982900    0.9400812725365085    0.9382068379922527 Y
   0.6250753717330728    0.1857070769365282    0.6859770258124204 Y
   0.6246686172178606    0.6875665728842045    0.6864309450729414 Y
   0.6251685294438186    0.0625607562911210    0.0621360874959058 Y
   0.1255830028398807    0.1858088951847729    0.4366316686357806 Y
   0.3779322978296528    0.4369789705296120    0.0628238003175500 Y
