La13 Nd13 Sm12 Gd13 Er13 Zr64 O224
1.0
  10.7070240910845627   -0.0001261144537974    0.0006762045600294
  -0.0002522102583162   21.4097220807749622   -0.0048977254365277
   0.0013524958177479   -0.0048979036629211   21.4127999411736738
Er Gd La Nd O Sm Zr
13 13 13 13 224 12 64
direct
   0.3807344823921746    0.4308157184005234    0.0606588944026717 Er
   0.1266676669057139    0.0631167808825041    0.3102247890639435 Er
   0.8684697575535301    0.8068588986859485    0.9364594767341804 Er
   0.6270636344570550    0.4384041057690665    0.4375231062032442 Er
   0.3597938757299798    0.5590592227463206    0.9439958510548204 Er
   0.6162277065554367    0.9378112065300129    0.4299489741986056 Er
   0.3643107035587870    0.1891521836540404    0.3082405912793947 Er
   0.8780180913623244    0.0624127841916944    0.6860073371196796 Er
   0.6254717116893018    0.8143900441651808    0.3114332568454483 Er
   0.6283609662414401    0.5575301362758575    0.5635273432303108 Er
   0.3755931149585106    0.3120849980154352    0.1872083096117494 Er
   0.3877597279140962    0.3148787765579344    0.6864848473885606 Er
   0.6363434434527138    0.0596561027560995    0.0593449648076196 Er
   0.6263913644821676    0.9360418526426452    0.9415029788457239 Gd
   0.3831582127463001    0.4364071760747188    0.5629945866352267 Gd
   0.1265101028074954    0.6886767702765912    0.9382073187163629 Gd
   0.6176761110475265    0.4375778510518463    0.9354438368007633 Gd
   0.3811685976435953    0.0616018966909081    0.4310632461927418 Gd
   0.8683588578459003    0.4381660802829179    0.3122015415167275 Gd
   0.6239792299384823    0.3113618008248666    0.8133613963582887 Gd
   0.3744328505100009    0.8143634191843199    0.1898435027640262 Gd
   0.8737879333937140    0.6872616459477401    0.0596423590361157 Gd
   0.1294572244066867    0.3115894992377795    0.0628853276905312 Gd
   0.3723522559110436    0.8119676042552928    0.6882509566771045 Gd
   0.1283199032555565    0.9393406390479063    0.1897556096408699 Gd
   0.3779736911905672    0.6896860862849922    0.3114356357755236 Gd
   0.8753462161157688    0.9379941277424295    0.8137253425362136 La
   0.6236061519909447    0.8127423231686793    0.8127989431388394 La
   0.6279634628341526    0.0617752975795033    0.5607767479134020 La
   0.8720043615116350    0.3128075001636834    0.4371860163184206 La
   0.6210459817096485    0.1861155532268102    0.1874202485328036 La
   0.6213523991063150    0.5614817910922597    0.0616389393501704 La
   0.1264328068932238    0.5630879382082612    0.8139002799679864 La
   0.1276831595806839    0.4361136281999831    0.1861891346937359 La
   0.1254208487301799    0.6888848396670085    0.4365860041115023 La
   0.1272068363299715    0.1849522463912100    0.4361943864971028 La
   0.3799132635865638    0.5620216226656688    0.4380287932314562 La
   0.1305466930242613    0.3115346043008189    0.5634379914208720 La
   0.1221482706017288    0.8137214320206634    0.0630133763243558 La
   0.3767419049207714    0.9374002153103650    0.5606730340357715 Nd
   0.6251374069893580    0.6900720118833532    0.1870925601209687 Nd
   0.1300113211431152    0.4367866979193921    0.6883538702911033 Nd
   0.8731034585186692    0.5626624799293198    0.6870005104087922 Nd
   0.8752885370088362    0.5631456469628529    0.1870678198952104 Nd
   0.8697293254757220    0.6867626400951652    0.5612628176434744 Nd
   0.8751165241053785    0.1872537899366985    0.0631585711451628 Nd
   0.1252874735339332    0.5621408410102227    0.3118693114021083 Nd
   0.8719711632626972    0.4367902201526226    0.8128727750157904 Nd
   0.1256560068829190    0.1880590073323981    0.9378532921794491 Nd
   0.8687680211075544    0.8148295526682819    0.4375201053000815 Nd
   0.1241456639648397    0.8134340802017591    0.5636154968145780 Nd
   0.1263039052856305    0.0635263771884236    0.8117315164507956 Nd
   0.7492189987112383    0.6251811447218669    0.4795553884850668 O
   0.7863176552849536    0.4992101624552723   -0.0008156968219885 O
   0.7927675243894474   -0.0005742273940924    0.4991276453789381 O
   0.7797634126142172    0.0014775997009556    0.0014125268953191 O
   0.7523232133784631    0.7325435424209745    0.8770811243505602 O
   0.9574451994898816    0.1257226685584362    0.8758733839389410 O
   0.7479514135551878    0.7343004500603687    0.3744424444734378 O
   0.7489192110602197    0.2311621800626479    0.8757130529971351 O
   0.7505620883393822    0.2292805926238455    0.3742008533593669 O
   0.7512965822100881    0.6262462260211132    0.9809306461375199 O
   0.9635829797260260    0.6258885273972543    0.8761609620017057 O
   0.7521244932809823    0.1258136316049648    0.4782122723838196 O
   0.7781795626487561    0.5003286585886377    0.5004853629181938 O
   0.7467556645773740    0.1242348779078638    0.9838336358283006 O
   0.9548821497771061    0.6248553987379066    0.3750119641897068 O
   0.2178226851463756    0.0001857357063244    0.0009269369065414 O
  -0.0019909189970392    0.6024248747852262    0.5003849978473521 O
   0.2145296444750618    0.5016575404357945   -0.0020745548335892 O
   0.7491065005294483    0.2679474057894943    0.6244591222702506 O
   0.7498465010308442    0.2710047468681687    0.1244526947492615 O
   0.5014803393921757    0.4997253149249201    0.8577903376882161 O
   0.5025227659045255    0.4982097538947947    0.3561854554104821 O
   0.4986073397264488    0.0010345789668202    0.8567781328950290 O
   0.5021734586893885   -0.0015417327508443    0.3568815623773035 O
   0.0013708619236637    0.4996804155626154    0.8973245114665580 O
  -0.0006955233573472    0.4998902047781435    0.3939546180295628 O
  -0.0002738577698549    0.0009814103737208    0.8967701076804312 O
   0.0021686401244309    0.0007802625594764    0.3899856367778011 O
   0.9660784976960186    0.1234755771150591    0.3732613231493607 O
  -0.0005100181399187    0.6081761346586410    0.0010988997425073 O
  -0.0022798284760285    0.1036774821090954    0.5007660646074499 O
  -0.0014306942658555    0.1055286870065405    0.0007749299800250 O
   0.2151336684666775    0.4992805500702522    0.5005337012723753 O
   0.2094571321343902    0.0006442891185142    0.4999392682785678 O
   0.5415359842535027    0.6276160777105690    0.8733695090615869 O
  -0.0025924846909397    0.3969283700975120    0.4994928713582101 O
   0.5381961462536144    0.1255383998211086    0.8753681266906496 O
   0.5004356672348502    0.2496291443734767    0.3905272106884214 O
   0.5045947623590301    0.8578662677398601    0.4979888842207478 O
   0.2495758719919947    0.9819038744309480    0.8754471762720939 O
   0.7491648806006104    0.7700234861429313    0.1249177347579061 O
   0.4994649944711165    0.8572064114331940    0.0000355567215430 O
   0.4999323629889640    0.3579771134970937    0.4999591010789490 O
   0.2878763910880854    0.2507919534435993    0.0004923454421477 O
   0.4990551506312683    0.3592416499886464    0.0005508925026018 O
   0.7090945618690989    0.7503386268599184    0.4997921316628772 O
   0.2975544896145111    0.2506613037326673    0.5004928912360997 O
   0.7175225223694409    0.7511577377133729   -0.0006008678347811 O
   0.2843782593220209    0.7493526257152379   -0.0005151807359868 O
   0.2965036213844663    0.7513155666487430    0.4998753908810019 O
   0.7030142268828594    0.2493281120208301    0.5002515733934270 O
   0.7101454118764068    0.2501829600657801    0.0002553061373395 O
   0.4994161496798071    0.2503563854095796    0.8944520771403192 O
   0.5411485063177678    0.6251724307295436    0.3741665842457488 O
   0.4994883182997976    0.7500081265740267    0.3904202797906759 O
   0.0024961144047298    0.2492910398667359    0.3531998473921256 O
   0.5353496114123142    0.1229086322089215    0.3751246328662534 O
   0.7510607102687420    0.6249428008139581    0.7699187462040097 O
   0.7495680241729330    0.6243038972727823    0.2683117348144839 O
   0.7491752802630538    0.1253445276924845    0.7684192428171206 O
   0.7523671953954372    0.1232534889337670    0.2694003746987534 O
   0.0026668090443457    0.8964985552057542    0.4999902051403421 O
  -0.0021667342989892    0.8960477085418209   -0.0002258474548105 O
   0.0010490169889257    0.3921203156300153   -0.0004920287642696 O
   0.7517926375927785    0.5193991235895076    0.8747740491756776 O
   0.7479983560788458    0.5153172368200596    0.3751579135941686 O
   0.7478182153418144    0.0195495628907747    0.8760943345681289 O
   0.7477869377616978    0.0158990320535396    0.3755626431487706 O
  -0.0030657297513481    0.7518425157051178    0.8586195743096711 O
  -0.0006621050557009    0.7502686260615009    0.3530276900660544 O
  -0.0005762518303990    0.2502514633640298    0.8553132232341716 O
   0.4983929632946871    0.7502034906341978    0.8955180789070777 O
   0.7506494094958923    0.7682853559713022    0.6246014510857963 O
   0.7823693820943515    0.2508873228968904    0.7506858199861515 O
  -0.0022347172566600    0.1436200982477183    0.7498574276885926 O
   0.2552056918265436    0.6269255216989480    0.3724225515805173 O
   0.2542424823141119    0.1256437375532947    0.8754235175980426 O
   0.2544116505656450    0.1228300197084258    0.3691907791201941 O
  -0.0002491705771306    0.4993651269249695    0.7501104458176079 O
  -0.0039866692267404    0.4980904352615677    0.2511319353332286 O
  -0.0033364913578588    0.0024584817048986    0.7472181637025774 O
   0.0057407327917392    0.0014043385181379    0.2510702884251472 O
   0.2529173621711988    0.8751846595403726    0.6267810959845868 O
   0.2518435376623128    0.8769404796110265    0.1286275643664330 O
   0.2627850335188909    0.3739117907005194    0.6267080657883450 O
   0.2602912130002927    0.3718025668924613    0.1230632175949371 O
   0.5013894126030130    0.7505710339219412    0.6079072159619618 O
   0.4997509816925046    0.7502072140713862    0.1045197131688609 O
   0.4967836502033642    0.2519906141103119    0.6101284912440273 O
   0.4970562706209807    0.2515096462875016    0.1063545929760608 O
   0.2557527947081472    0.6241300410717536    0.8804243974511319 O
   0.0017997306494446    0.7502629816208699    0.6435289657714048 O
   0.0011027889065301    0.2521760727084212    0.0014376399659867 O
  -0.0058209838608401    0.7498488619385409   -0.0027522185589958 O
   0.4987765610142605    0.2527454837471796    0.7494664429702215 O
   0.4887307452181053    0.2501920770916813    0.2500077101588845 O
   0.7414339547108957    0.6220774761789947    0.6225234394166412 O
   0.7523995961408335    0.6270865202947856    0.1230557245637842 O
   0.7552922646929383    0.1239091121616931    0.6281854211489216 O
   0.7471654766581971    0.1207597854497594    0.1231948146529774 O
   0.5095773623694755    0.4973419836605658    0.5012880771689152 O
   0.4882543741813867    0.4966380636668064   -0.0010647791878453 O
   0.5020751486371725   -0.0013038324754427    0.4929918339951630 O
   0.5063773559080681    0.0010434203393041    0.0023168144741415 O
   0.7523607610937291    0.8735090572650571    0.8810028133711865 O
   0.7407379920602993    0.8766391846937140    0.3730401301497646 O
   0.7435136742793825    0.3740792077807992    0.8758703860292563 O
   0.7432994326770176    0.3778079186940890    0.3750475155911255 O
  -0.0027722473342611    0.7509940759446250    0.4994692048354746 O
  -0.0010644963186395    0.2481988494547199    0.5010146135475726 O
   0.0025981838656031    0.1413491960827891    0.2501073910447297 O
  -0.0028013587529154    0.7495614541557334    0.1455585751816225 O
   0.0000316980184725    0.2492000640386552    0.1461455543942097 O
   0.7506932424274396    0.3750516309832103    0.2328090852624478 O
   0.9648739567673633    0.8750764137026684    0.6249144710226018 O
   0.9543091255637433    0.8758790646202099    0.1255959571815922 O
   0.9574834337235715    0.3756140398478042    0.6253680727077331 O
   0.9642571877748580    0.3734978526191128    0.1236568283562412 O
   0.5379940552892877    0.8757384230008768    0.6245651827957753 O
   0.5389960762046028    0.8751746010604500    0.1249604902087817 O
   0.5334585731995186    0.3746717238032071    0.6259379891478677 O
   0.5315971082261581    0.3752631679051484    0.1241690359835761 O
   0.7530076447249702    0.8746964858053122    0.5203104498272982 O
   0.7486180390765181    0.8758139445666910    0.0178112940459554 O
   0.7458254556621087    0.3759482387408196    0.5192659635564981 O
   0.7495970817949764    0.3741553175173266    0.0174436144398740 O
   0.0013436327104884    0.6464962089187133    0.7505872497652216 O
  -0.0014793019110608    0.6449925777609370    0.2503277432761774 O
   0.7486844215770690    0.3757226220606273    0.7308181714531837 O
  -0.0027021497482286    0.2490171043098176    0.6453381686877863 O
   0.7467244762097732    0.8742450807364660    0.2338317557779717 O
   0.7512147985224420    0.4771673651600779    0.1254909191277119 O
   0.0016188933460788    0.8552107949762822    0.7494965969895098 O
   0.0004261846022368    0.8580142121280389    0.2491212445808288 O
  -0.0005738526214471    0.3546429547084839    0.7497337132247194 O
   0.0012277756786231    0.3546147718873768    0.2502016598432559 O
   0.2128042456446648    0.7499788542272738    0.7503745212162953 O
   0.2170391628137868    0.7506662861342105    0.2501990561024483 O
   0.2131873813383713    0.2494312098657396    0.7505678841657940 O
   0.2179481696408457    0.2485076037131563    0.2505445962097209 O
   0.7895459029706258    0.7496209627539966    0.7497093805754038 O
   0.7815055936574994    0.7508705645272062    0.2507802290637908 O
   0.2525462866616238    0.9830697795910357    0.3745450732299468 O
   0.7883519171693052    0.2493390649106922    0.2497200622959794 O
   0.7529545801738609    0.9821111326181817    0.6260472297100794 O
   0.7467138006116945    0.9826814352122355    0.1240372582624099 O
   0.7467373738066052    0.4827379770677104    0.6244276771421389 O
   0.7502466547388862    0.8752585229835036    0.7296199694892537 O
   0.2534134560434853    0.4799434883395368    0.8763889552406879 O
  -0.0019896848762026    0.5000365234190511    0.6054440749175344 O
   0.2505383932376357    0.8757202953543687    0.9824052035750266 O
   0.4593168284100476    0.6255797287344012    0.1250684750756464 O
   0.4652700453758936    0.6251107106586465    0.6247722603414995 O
   0.2508306715669790    0.1250696872097268    0.2339783255541081 O
   0.2497676489820074    0.1250069074570484    0.7317031085690616 O
   0.2486531354754572    0.6244477405128070    0.2306694362412239 O
   0.2529218028592888    0.6253767035925034    0.7305695579548549 O
   0.2500693544934153    0.2322555741629084    0.1257267798116905 O
   0.2494261504560192    0.2297511812521489    0.6256503477834533 O
   0.2508294863810454    0.7309068910484654    0.1255237886954246 O
   0.2525214928111211    0.7324614958166165    0.6254433878584815 O
   0.2833989126511964    0.0003517881373700    0.2509422702358050 O
   0.2864285655526962    0.0001640437577971    0.7499673363668371 O
   0.2911358517086073    0.4996584648233220    0.2503976874746298 O
   0.2949429198963633    0.4993131231799494    0.7494884475998610 O
   0.7157597580827446   -0.0003708043723154    0.2497839901716762 O
   0.4650992478783273    0.1259143257525379    0.6265011803518192 O
   0.7105112347066427    0.0015974355512101    0.7491717259086702 O
   0.4569694696431077    0.1245577813580699    0.1253424261613894 O
   0.0423432066250809    0.6246355841007414    0.1255907364317956 O
   0.2501026822525055    0.4790281576891233    0.3735080668363469 O
   0.2481210019340557    0.0179999705132040    0.1263236695299153 O
   0.2497587650333680    0.0192257830653337    0.6257524298858601 O
   0.2518538958386703    0.5182926345605319    0.1235194603534934 O
   0.2502752705910458    0.5178905733482654    0.6255933736557450 O
   0.4997919027171042    0.3896569973548830    0.2490916338990320 O
   0.4986875496526005    0.3915781901003929    0.7489774796735149 O
   0.4987771565823180    0.8937850446384249    0.2494377064547962 O
   0.4989401243460265    0.8954706681128575    0.7495444568367862 O
   0.2485653993669490    0.1254538262565016    0.0196753260693110 O
   0.2484561785497749    0.1258840486332604    0.5222645182868739 O
   0.2516429057087327    0.6239014885657259    0.0168321196603579 O
   0.2492670629455562    0.6261752603977067    0.5221394927593690 O
   0.0401214044712730    0.1245556191783881    0.1254579225294422 O
   0.0326630290451818    0.1244471389639609    0.6260734628441829 O
   0.0382655143368069    0.6246104228175275    0.6255798626860782 O
   0.7099883375238835    0.4992314752311467    0.2496951771771766 O
   0.4952904464105631    0.7490887889566094    0.7489076872443344 O
   0.4982693377762599    0.1047897734666955    0.2514189534983007 O
   0.2553864696060510    0.3724931840775335    0.2665756194743314 O
   0.2512475649564727    0.3749311337304449    0.7692912544356799 O
   0.2502668257364475    0.8756077607600755    0.2683509564287067 O
   0.2504158456826482    0.8749192246366060    0.7695991438890032 O
   0.0403689232367361    0.3748203664021416    0.3743115317787776 O
   0.0383603395871975    0.3750126458088514    0.8748811365442098 O
   0.0354754845739457    0.8757682033925015    0.3741717760778982 O
   0.0426325812875144    0.8754144500283476    0.8757104633378524 O
   0.4675751080696249    0.3754376850443614    0.3752234554555413 O
   0.4653818910771687    0.3747934320284479    0.8753860003485130 O
   0.4703510139840624    0.8757300237540314    0.3736720291780209 O
   0.4593079966462050    0.8758445802361738    0.8759931035601136 O
   0.2500660833636188    0.3742196326744617    0.4788856383780481 O
   0.2534307285801274    0.3762002977975317    0.9852417010095428 O
   0.7070869869870350    0.4998976960543566    0.7500335694573773 O
   0.5019535868837166    0.6441397963501057    0.5004212480077327 O
   0.4976359547943059    0.6427859554582488   -0.0011259267343701 O
   0.2530118876041557    0.8762194726727988    0.4781442945248832 O
   0.4991615589993380    0.1431633198394739    0.0005770142290834 O
   0.4981214808849456    0.1439887443923033    0.4991462827266906 O
   0.4985449292514526    0.1079726375461967    0.7508945477284108 O
   0.4982701930997926    0.6067051126065930    0.2505376488696202 O
   0.5012590001666392    0.6058422557252534    0.7494070412041058 O
   0.4982039223956961   -0.0005361025119300    0.1454064708318632 O
   0.4992148498797854    0.0002000102396025    0.6434748560234909 O
   0.5016849503843862    0.5005001976914648    0.6397433267679498 O
   0.4995504322000068    0.4989697743148825    0.1448320806641831 O
  -0.0008390857024226    0.0007434623115744    0.6094963734629968 O
  -0.0012511295376204    0.5002074606649978    0.1027687484960499 O
   0.5003147636494556    0.7543969614807567    0.2520043682118479 O
   0.2541075840178640    0.2672755817343075    0.3734678421538825 O
   0.2502416017984311    0.2707102235183878    0.8756220536547741 O
   0.2506814890139230    0.7720963838237399    0.3744366520788933 O
   0.2497007943900312    0.7671927789014049    0.8752568149240540 O
  -0.0015522031623192    0.0001160504218037    0.1067492780988581 O
   0.6182367451782999    0.3128728738346907    0.3127043741195620 Sm
   0.6201096101366179    0.6861561983193343    0.6857864190254686 Sm
   0.8768654357182746    0.0612905316563703    0.1873594380287924 Sm
   0.8770288293525006    0.1858739920623429    0.5648359427997190 Sm
   0.8726045758505846    0.3130940824398495    0.9387214503461201 Sm
   0.6259221989295130    0.1871464126087139    0.6890103357850793 Sm
   0.3793002131352424    0.0627173891684354    0.9381024327216849 Sm
   0.3765416356232175    0.6865539036873941    0.8147027074995923 Sm
   0.3750209811792302    0.1884877412417659    0.8114375940999781 Sm
   0.1252197908163289    0.9385167729366813    0.6872639209116526 Sm
   0.3772110396457084    0.9392517182516750    0.0645177292788646 Sm
   0.8752205532791359    0.9384750367994084    0.3125990071462312 Sm
   0.1244376319219425    0.0621397265970314    0.5634019643110604 Zr
   0.1259855424161851    0.5625507180679259    0.0623276388095581 Zr
   0.1255820010559512    0.5615878588362646    0.5630377914555956 Zr
   0.8767728800547687    0.1867836903762849    0.3117025154748146 Zr
   0.8711431831679816    0.6880786295134668    0.3124279250064481 Zr
   0.8753732015159028    0.6880363497124748    0.8130863757305806 Zr
   0.3782337384750619    0.3125014715448993    0.4364986133270655 Zr
   0.3751692844351378    0.3128996649752308    0.9379203551057315 Zr
   0.3793648111638975    0.8133054752726255    0.4364112700055846 Zr
   0.8732584429159569    0.1878448641898809    0.8121957992688450 Zr
   0.1253357275525057    0.0616176315289292    0.0624941013500062 Zr
   0.6234216803317089    0.4378522594222986    0.6875673652622362 Zr
   0.6257351862218699    0.9374721896448691    0.1874477829777544 Zr
   0.6236819529251140    0.4360534001855796    0.1874038979071038 Zr
   0.3769480101355500    0.5628709588718784    0.6863317934301860 Zr
   0.3745201087405665    0.5623744550425932    0.1869938280659740 Zr
   0.3755241783731720    0.0627070020423951    0.6878571089202837 Zr
   0.3741404789180744    0.0622892768984377    0.1879922036284083 Zr
   0.8763199470874634    0.9381604235903094    0.5628381472759777 Zr
   0.8735627600088058    0.9378099572259208    0.0622161943356773 Zr
   0.8727887696727015    0.4380540824514109    0.5623701010111026 Zr
   0.8748861384663711    0.4361140267455686    0.0611163512230789 Zr
   0.3728301958552118    0.8131596546234136    0.9379503225478499 Zr
   0.6250860219406521    0.9383188329936314    0.6872391908513679 Zr
   0.6222373596494783    0.1868375202898711    0.4357888388364503 Zr
   0.1255140152716014    0.9388873323261493    0.4362666183783676 Zr
   0.6244299367802443    0.6881218247694140    0.4367285033754486 Zr
   0.3743451458268790    0.1871570920499216    0.0629640140612897 Zr
   0.3771069350410672    0.1871686565382673    0.5638073210405850 Zr
   0.3738751397216652    0.6877262251828614    0.0621601932417635 Zr
   0.3783614365733531    0.6881116821209019    0.5630561193581525 Zr
   0.8751125211428742    0.3127587335226323    0.1881793203373251 Zr
   0.8727324314717909    0.3122688261107266    0.6875684344653016 Zr
   0.8729190098786649    0.8128191836707541    0.1886067051801833 Zr
   0.8757429438672842    0.8120955800077936    0.6870486303839914 Zr
   0.1259582696294207    0.1871290032024944    0.1879538625406968 Zr
   0.1247800836851135    0.1873429978805833    0.6881961866612276 Zr
   0.1255291738375983    0.6879977896575008    0.1881578115344109 Zr
   0.1268324295715320    0.6879415348213812    0.6870483221999698 Zr
   0.6239813737789018    0.3129865017401952    0.0625421337297365 Zr
   0.6253051114119148    0.8130799798071930    0.0621262773187707 Zr
   0.6253347926586527    0.8136385330817153    0.5628483604204619 Zr
   0.6242212788200839    0.5632768505509375    0.8137644721256443 Zr
   0.6244586557738931    0.5620143989818620    0.3119827673069228 Zr
   0.6242790829335030    0.0628838998527041    0.8125196582514836 Zr
   0.6267868109638384    0.0622958575821872    0.3124492401673622 Zr
   0.6233506064019776    0.6875371762383030    0.9381604091432376 Zr
   0.1277394619353693    0.3125944452486946    0.3120836680177013 Zr
   0.1253776508912717    0.3123072203655133    0.8117919426260568 Zr
   0.1236712609393681    0.8133046590109292    0.3118296867612526 Zr
   0.1251516033992320    0.8124235804094406    0.8130363512842571 Zr
   0.3773427980698069    0.4361193411354991    0.3119517496467763 Zr
   0.3773127630309154    0.4371608981728625    0.8128498335067101 Zr
   0.6236528438599103    0.1872038616722130    0.9381588954535283 Zr
   0.3744723780199107    0.9374316582798986    0.3119464714043321 Zr
   0.8759295129471595    0.0615945898987507    0.4359835362997413 Zr
   0.8727006558744659    0.0630490107122413    0.9380343926249396 Zr
   0.8721136043418461    0.5610249795218148    0.4375242676149445 Zr
   0.8754919171826092    0.5626809718186266    0.9382913739419968 Zr
   0.1257070556610375    0.4378550799140611    0.4372552533865774 Zr
   0.1260558483481244    0.4360802064989073    0.9381610144641419 Zr
   0.1261274200572893    0.9379745494081442    0.9382434290781968 Zr
   0.3742020200289477    0.9381407837234219    0.8130576170734546 Zr
   0.6227029213935580    0.3119863756618721    0.5626170119003654 Zr
