Cd39 In38 Ag39 Sn38 Sb38 Te192
1.0
  18.9257888060076560   -0.0154639351582169   -0.0054952710302475
  -0.0205897054386632   25.2167202599318578    0.0133733222206994
  -0.0073222705839650    0.0133786502088328   25.2976816045983455
Ag Cd In Sb Sn Te
39 39 38 38 38 192
direct
   0.3030008878129691    0.3798752152177488    0.6533499098554481 Ag
  -0.0220146705754680    0.1291863552501229    0.8876573269638747 Ag
   0.1304359051905577    0.5996417608734986    0.7124219491907982 Ag
   0.8522776957785740    0.4955817532905956    0.8838599629347184 Ag
   0.2901108048347812    0.7123164255907850    0.4666829549604367 Ag
   0.3071682441231691    0.7255687065295678    0.7172202007209513 Ag
   0.6227723139462459    0.0122245433470650    0.0322778028870912 Ag
   0.7217015397883079   -0.0245618366790432    0.2833705610629930 Ag
   0.6390278355431943    0.0045414533568910    0.5011415346856749 Ag
   0.6899034472360058    0.2499192623498267    0.2321514631413504 Ag
   0.3218009632126712    0.5263105222423876    0.0001419769519457 Ag
   0.6776716119449330    0.2620450435470756    0.4840715608331819 Ag
   0.3546420021462634    0.8955092816315317    0.3689100695972201 Ag
   0.7271182682412349    0.4929030759657787    0.7811527622685548 Ag
   0.8692383638192007    0.6516398557213011    0.5399683183667855 Ag
   0.6402183897018020    0.7839265677156121    0.5214415692556293 Ag
   0.8059494101292163   -0.0198005019375009    0.3945834658697628 Ag
   0.5342557751261876    0.7773960089279616    0.8334495716860698 Ag
   0.5296451437126160    0.7757430032854203    0.6179105656656503 Ag
   0.4809586467372065    0.1097834372925690    0.2477703916930844 Ag
   0.4610063509135334   -0.0149270820836918    0.3672908180719944 Ag
   0.7882597065035756    0.2262500286365750    0.9008113413703289 Ag
   0.0034845945167854    0.3979160157983295    0.1513797730854109 Ag
   0.4591925070341466    0.2669750057417005    0.8938941033210326 Ag
   0.3538414074563497    0.2568064773143056    0.2220514581429950 Ag
  -0.0027191437217927    0.8492451625617794    0.3908116718983420 Ag
   0.0135881931998464    0.4898563274869421    0.2265459419171479 Ag
   0.0109393846383302    0.2555405506281366    0.2296665694481939 Ag
   0.6442143218971917    0.8527146134353147    0.6198635574980123 Ag
   0.0124881623529723    0.5244500677516304    0.7573918314916227 Ag
  -0.0013170616163994    0.8906247274853438    0.1285290112289892 Ag
   0.7138426311955218    0.3494661422012225    0.1402997181039496 Ag
  -0.0294249940854203    0.5961889652563556    0.3600122420413447 Ag
   0.0080135208618993    0.0291216254005507    0.2569637725745380 Ag
   0.3645045836992086    0.0350103290925312    0.2749667163684894 Ag
   0.3363279866163308    0.1090575393111977    0.8904589328823721 Ag
   0.5313822386624134    0.8533363131205330    0.7115351917568078 Ag
   0.0175620515044860    0.3734518885202240    0.3785575795808751 Ag
   0.0250960881302729    0.2481134946078391    0.7648834147512511 Ag
   0.1618336492438155   -0.0026487231026560    0.1396161408590695 Cd
   0.8322506526948501    0.8618044068855627    0.7568602192424354 Cd
   0.8123496952411429    0.3722651330637073    0.4981060571968951 Cd
   0.5240106182797766   -0.0068379567554368    0.1434615160019244 Cd
   0.3479357982293304    0.6522915420873577    0.6070344017777392 Cd
   0.3257106926258710    0.6322823533178329    0.3852450227045827 Cd
   0.8324516081331701    0.6118071974963111    0.0061907087524027 Cd
   0.1603841569845132    0.2627935353724671    0.8940285138666261 Cd
   0.1474734651879125    0.4929794248726724    0.1248916270520217 Cd
   0.1515041672290991    0.0007772056282824    0.6128127600301810 Cd
   0.4808037441646333    0.6311898115529737    0.2445706897397874 Cd
   0.1820123525543040    0.2577741657643164    0.3553577391296305 Cd
   0.3294412943001288    0.1198882476360846    0.3568305968899866 Cd
   0.1395959383593740    0.2497174448805633    0.1249203204022147 Cd
   0.6657108860569191    0.3511395049989478    0.3569985939399082 Cd
   0.4756925180363494    0.8659433505696217    0.4931915453724524 Cd
   0.1797861933982660    0.7703989789877655    0.6430245693495740 Cd
   0.5171309503021437    0.8751470506931913   -0.0114904423616840 Cd
   0.6303133348480096    0.8785926334194626    0.8385041294633235 Cd
   0.6799530077551577    0.6216440820778802    0.6110809996983402 Cd
   0.3311344038705551    0.1133026596433848    0.1323615480603492 Cd
   0.0317469692321766    0.0210216967853648    0.7518744481412220 Cd
  -0.0015705182719532    0.9018346309167441    0.8590584939164534 Cd
  -0.0049608627982953    0.8628059822946660    0.6359727586920492 Cd
  -0.0249256132779809    0.5022070085822112    0.5042719727888577 Cd
  -0.0012280671344354    0.7691951417289955    0.4766822414612318 Cd
   0.0227665275517967    0.7527973386858491    0.7455621006159876 Cd
   0.3300317237296508    0.0129130718906725    0.0150332431098533 Cd
   0.8192215281712600    0.7275046519354890    0.3877440994130031 Cd
   0.8392099277085874    0.7598497234239588    0.1407984025522190 Cd
   0.8470348870827510    0.4994108222995104    0.3606181694179512 Cd
   0.8485594525866506    0.2472561852001763    0.6472110639462544 Cd
   0.8165792271865299    0.8771224555380315   -0.0215498006327472 Cd
   0.4735477370800494    0.4995770660672456    0.6159167438981872 Cd
   0.8321741376670093    0.2682623180872165    0.1437357972008237 Cd
   0.8120369331825056    0.0009867360317838    0.8807062832009263 Cd
   0.1507480565718574    0.1255959220581701   -0.0152953187570379 Cd
   0.8597750628369780    0.2432800408643530    0.3727580688786455 Cd
   0.3604628827670916    0.3594139897567425    0.8769905071678117 Cd
   0.1750614211224989    0.4972251519355254    0.8687726220114936 In
   0.6370795170367841    0.1237334972254192    0.3657070323096685 In
   0.3146325730675202    0.6311620398882227    0.1258438281345595 In
   0.4925761766205304    0.2492822733430540    0.3550035095789961 In
   0.4940679623105086    0.5197021331644817    0.8711321969511582 In
   0.1593138675132217   -0.0128516197056134    0.3793321836094720 In
   0.5124232818118368    0.7598684783784794    0.3737559850321566 In
   0.0040440611489824    0.3863924490694479    0.6274786109954753 In
   0.8233844317304194    0.7474217995098061    0.6411397775033419 In
   0.8132504997979800    0.4733208173741137    0.6282609773739786 In
   0.5025895991670484    0.4980550995993009    0.1145386390980458 In
   0.3246653777676010    0.8804270797851482    0.6338093729499855 In
   0.5010216404297333    0.0014700618654505    0.6320803866762951 In
   0.1513783281776759    0.2336744757054511    0.6222070415369650 In
   0.8121012028008502    0.1129892634123048    0.2611107403063332 In
   0.6807236509600159    0.7574944575142940    0.0154745089035834 In
   0.6669501785800210    0.6103921060763143    0.1306118847159171 In
   0.3345650177573964    0.4985743677780720    0.4828224892730959 In
   0.2288565100452983    0.8764357744903638    0.7853018889394321 In
   0.3541657733338577    0.7530363051774398   -0.0131251583247328 In
   0.6632348737545601    0.4956626824071855    0.5129093342834803 In
   0.3321975843471329    0.7668912155011902    0.2529062188568871 In
   0.3378278587305905    0.2482795221351412    0.7425315810701659 In
   0.3544130215856295    0.2441187370627012   -0.0067323132001448 In
   0.1605892115782973    0.8900163317021152    0.2555452199917425 In
   0.5198069796299862    0.3745981324813299    0.7507244990027890 In
   0.1692660146148808    0.1318085920773369    0.7569020949291431 In
   0.5150073917968002    0.6398149051009837    0.4754511673618598 In
   0.4803034410339870    0.6284744115006767    0.7363747851615758 In
   0.6631622791053151    0.4802559776253850   -0.0060907531856806 In
  -0.0031372037348563    0.7682875447451781   -0.0065441134015569 In
   0.0220900075729060    0.4976972452618753   -0.0159624560738497 In
   0.8333310797410181    0.3750202298474010    0.0018857416857513 In
  -0.0143756467475794    0.2625175216908618    0.4984622918094147 In
   0.6607800203306169    0.4838636726388275    0.2603856099803796 In
   0.6565971915770612    0.7311279545091413    0.7653078313355522 In
   0.1655791264353950    0.1276924087752051    0.4862622804696050 In
   0.1527783950009121    0.6272843228318477    0.4975497203305827 In
   0.6643282735468967    0.2538941565903553    0.7478653704956213 Sb
   0.6850237266315863    0.2378764352634049   -0.0125620088520282 Sb
   0.6711672600417223    0.0011386726746524    0.7395096640770746 Sb
   0.1600824118430882    0.1311225831251433    0.2430567092920844 Sb
   0.8214498577296698    0.7260281930874969    0.8797811882169715 Sb
  -0.0149222832057207    0.1148728092618363    0.6237853930223450 Sb
   0.3427404252031790    0.0010561412515047    0.7520438271685551 Sb
   0.3388637378688472   -0.0032628680673852    0.5048828324122573 Sb
  -0.0026618716593247    0.6270070628775273    0.1344170258350834 Sb
   0.0029494983081239    0.7525370713979885    0.2492978124786414 Sb
   0.0381271299816185    0.6337153336886877    0.6319274553343169 Sb
   0.0124388259703902    0.6259238895908649    0.8723174709787762 Sb
  -0.0021645085049288    0.2572113959581886   -0.0019156412913134 Sb
  -0.0035308488000377    0.0013947894093127    0.4872652585438657 Sb
   0.3368168990553939    0.5009997317484937    0.7598155906725685 Sb
   0.0006219737148387    0.1254570165558868    0.1251114824819297 Sb
   0.3282848260368054    0.1319002319940957    0.6205458626688956 Sb
   0.8394546595762825   -0.0013089977255238    0.1270165377990545 Sb
   0.4926987875134659    0.3695848679975020    0.5000087603785315 Sb
   0.4942662459709612    0.3788827140202333    0.2434244000146837 Sb
   0.4924273068165073    0.3755272796282682    0.0013859874860188 Sb
   0.6727018393212273    0.3649925447029926    0.8768869226275933 Sb
   0.6680605846046754    0.7548053244655606    0.2579021240774438 Sb
   0.8351384429187051    0.1103437837803860    0.0053436700804545 Sb
   0.1665190923402401    0.0053360564662821    0.8754707010256038 Sb
   0.4990553536120169    0.1230389724012859    0.5087798466285386 Sb
   0.3191881799079357    0.8757753694301280    0.8813429631566810 Sb
   0.5053825693591653    0.1178335540668252    0.0115069461828409 Sb
   0.1644768190730703    0.8792993741668559    0.0074471519397271 Sb
   0.8465126098489747    0.3752932287413858    0.2662780106297374 Sb
   0.6610172558216326    0.6192023007049809    0.8827414823719330 Sb
   0.1708308775506794    0.3716178401036818    0.5040957750514494 Sb
   0.1689907379252897    0.3798819257224732    0.2496058316566326 Sb
   0.8420264542248111    0.3644588964216250    0.7523682751312800 Sb
   0.8307478639429400    0.6237792868712293    0.2459800787246692 Sb
   0.7904179183859471    0.5884018870593777    0.7488950415299827 Sb
   0.6549056480147430    0.1142752097663287    0.8695218411939075 Sb
   0.6572727108386428    0.3755798297091539    0.6283539318202443 Sb
   0.6889604428068392    0.8907381473149171    0.3876452054749778 Sn
   0.3271425093349333    0.8798047926483720    0.1323522834975076 Sn
   0.3326052798125173    0.3787561096672732    0.1154250646509281 Sn
   0.3394128906917762    0.6274539846292504    0.8775025990946386 Sn
   0.6656604457363312    0.6213558983681458    0.3680435653603795 Sn
   0.3427980286581349    0.3760494816734883    0.3721123970700847 Sn
   0.6835803676274045    0.8762104765965799    0.1328048429643446 Sn
   0.6651160354771076    0.1264245619414469    0.1236222554463693 Sn
   0.6604648330249946    0.1263103733818431    0.6174916012342365 Sn
   0.0053009494956492    0.0002387440722636   -0.0013177173381999 Sn
   0.0051156413616026    0.1283489522498686    0.3715003991962920 Sn
  -0.0112893380789831    0.3621171085265413    0.8679130283883643 Sn
   0.3410543761597601    0.2499267011001904    0.5024981936392580 Sn
   0.3357098387955060    0.4937102374287180    0.2360389783561473 Sn
   0.1698261378339451    0.3766814553868089    0.7531725886223309 Sn
   0.1480868327840544    0.6261110517095191   -0.0028271819391130 Sn
   0.1576759863490613    0.6239605443094113    0.2541947673939073 Sn
   0.1714331115236047    0.8749420188648530    0.4985831847765601 Sn
   0.4976150500188611    0.1272088408401030    0.7615887198951978 Sn
   0.5106729046309852    0.6301904907213414    0.0062264109462366 Sn
   0.5020498244434589    0.8785257047141329    0.2536197883223265 Sn
   0.8299388571674847    0.1252954243521697    0.4963631470404283 Sn
   0.8359788533692297    0.1231764740177149    0.7548915169040322 Sn
   0.8475065094354944    0.8793170528280961    0.2579048603897724 Sn
   0.1633119085739932    0.3732012941871340    0.0031215162299204 Sn
   0.1522194002259540    0.4930575303526789    0.3739963230694285 Sn
   0.8298028934190442    0.8701403457617396    0.5050724173534973 Sn
   0.8291144807927472   -0.0038004272999019    0.6239696353562925 Sn
   0.5014879939347442    0.4944147559991904    0.3759761340868003 Sn
   0.5068134940058117    0.2527255981715973    0.6241139467452861 Sn
   0.5059461873369678    0.2486957458185871    0.1192189406061274 Sn
   0.5018264011598497    0.7589294391068897    0.1276963747141351 Sn
   0.1660987509839854    0.7452150226644497    0.8788341379885118 Sn
   0.1624844570111772    0.7477652283221295    0.3707940278673872 Sn
   0.1591412233425384    0.7538241418973151    0.1242019905876539 Sn
   0.1690494583393557    0.4947693190818683    0.6212665754468072 Sn
   0.4996345274186279    0.0046810482861692    0.8848146743346202 Sn
   0.8337103487520290    0.5020398262502902    0.1226170349060309 Sn
   0.3319715633574307    0.4957241034944966    0.3669715827218477 Te
   0.6660080435262241    0.0109544903767665    0.3782237768581811 Te
   0.3277692145084873    0.4901759886678305    0.6418824785889478 Te
   0.3315706810998273    0.5031391275789591    0.8862302285662624 Te
   0.3307260155611950    0.7504495078711585    0.1391821650924535 Te
   0.3432564519076720    0.7433545976745519    0.3671378940336089 Te
   0.3274586163171399    0.7640150450170180    0.6155687610395564 Te
   0.3297071241799390    0.7561155974989732    0.8748351245114200 Te
   0.6737064471666335    0.0012669607997799    0.1348816148381029 Te
   0.6501294641803743    0.2430005328617748    0.8675063037826645 Te
   0.6615621913983218   -0.0086635580704711    0.8715039193658032 Te
   0.6815612658971073    0.2439337688361449    0.1189057497495741 Te
   0.6472162488244771    0.2410154168499554    0.3777611736382013 Te
   0.6712580177913050    0.2531651191575460    0.6319267866101598 Te
   0.6615537084658049    0.4978788310356805    0.1130355426668058 Te
   0.6612972435298271    0.5008627261848038    0.3725616791418632 Te
   0.6651094537364024    0.5040633780273684    0.6298353949801780 Te
   0.6502327748968376    0.5004755651018863    0.8778459872350980 Te
   0.6749151901863015    0.7544359612481129    0.1313700835398314 Te
   0.3478738698071250    0.5063138830967642    0.1129794026345464 Te
   0.6605892110840809    0.0057650060055189    0.6177354473098079 Te
   0.3146079694050374    0.2494808320157314    0.8803125594676584 Te
   0.0099140902508114    0.4996236743553674    0.6172126005258560 Te
   0.3353181856769876    0.2569602961199723    0.3766413421743672 Te
   0.0095117426705837    0.0067870591937476    0.3683801492223759 Te
   0.0024708207751268    0.0000778677208288    0.6386483966988972 Te
   0.0041647161798765    0.0154580193936117    0.8658837881290595 Te
  -0.0137949044209986    0.2498803190775573    0.1200376035721760 Te
   0.0081284664560672    0.2584097462614258    0.3861176213129690 Te
  -0.0036629666804185    0.2402153951169240    0.6140986320295605 Te
   0.0114192067346531    0.2410686774993612    0.8772295590812987 Te
  -0.0045891376662882    0.5049206663934233    0.1145039779446824 Te
  -0.0069664292014576    0.4907679115308921    0.3901671901361547 Te
   0.3392839200745483    0.2557303907085197    0.6277005903468484 Te
   0.6696223139949922    0.7519767101685642    0.3773183765012815 Te
  -0.0082584920347740    0.7428553546528751    0.1222742582822523 Te
  -0.0028945107825739    0.7376171281915046    0.3664672608138319 Te
   0.0250604838519034    0.7501626181683712    0.6281914429825812 Te
  -0.0109355785907207    0.7433729686714656    0.8811343272876360 Te
   0.3143555577374019    0.0002900127008011    0.1271633760832847 Te
   0.3118565709768089    0.0064027259617935    0.3761112550485468 Te
   0.3400169160700175   -0.0000558450364970    0.6234052667710627 Te
   0.3301990706236998   -0.0034347533068237    0.8722303903158154 Te
   0.3428933967851024    0.2607511492726469    0.1103319670197677 Te
   0.0025002938208682    0.4991939215974394    0.8701072441086924 Te
   0.6739161875249843    0.7373868815932064    0.6182304703565408 Te
   0.1687542319186169    0.6179642940802695    0.8748232145268163 Te
   0.1736380065777685    0.1351085083531519    0.1277298160281325 Te
   0.4873989191934836    0.6132449731892003    0.6254410976465126 Te
   0.5022114245997543    0.6365304542257580    0.8821551647031117 Te
   0.4959751120575869    0.8792762163818745    0.1337084720984732 Te
   0.5048079335017335    0.8743001803056978    0.3796748262677829 Te
   0.5000257130417394    0.8877411890294432    0.6044349288979158 Te
   0.4887746003926384    0.8754402791207303    0.8777226228359579 Te
   0.8352207137485727    0.1208969066457278    0.1218225790061376 Te
   0.8395013970499178    0.1302301030356986    0.3713295010987222 Te
   0.8298496101945071    0.1320426730001946    0.6238240242525849 Te
   0.4918452093087479    0.6186725831370982    0.3635523666251846 Te
   0.8277993690816952    0.1177035558778794    0.8817800031976224 Te
   0.8097358456313068    0.3850567281560455    0.3802174174205251 Te
   0.8431570607572885    0.3604621783936193    0.6161106710331488 Te
   0.8289909737611819    0.3814809393282971    0.8753494436369587 Te
   0.8277962050420913    0.6307469656718439    0.1205662349555038 Te
   0.8277809380115162    0.6147018262643824    0.3781625678227737 Te
   0.8272181208725361    0.6295007854843510    0.6413755058420053 Te
   0.8239220179389319    0.6113865705808941    0.8648354000929578 Te
   0.8445132387921773    0.8750627992981722    0.1309922158479510 Te
   0.8483903440679641    0.8756121687818897    0.3739667063262416 Te
   0.8523903157638026    0.3801918412504171    0.1187443014160076 Te
   0.5148442405938333    0.6298993351091650    0.1296430401197334 Te
   0.5112167802566827    0.3730593843120065    0.8773350287287263 Te
   0.5013837239061603    0.3830382807357469    0.6314452605546499 Te
   0.1760022857067003    0.1428434620921980    0.3717485923152239 Te
   0.1732910516310876    0.1159338561913252    0.6324167967344659 Te
   0.1833314932853181    0.1247421805292690    0.8730665035480564 Te
   0.1521369087822628    0.3763271670469264    0.1231845956355281 Te
   0.1705430290499325    0.3721598625461562    0.3775429170744878 Te
   0.1604677860777479    0.3652976590937312    0.6234639827764559 Te
   0.1567769955521863    0.3772702253162932    0.8818284352952190 Te
   0.1609061800509695    0.6209856933183856    0.1236857348538491 Te
   0.1753461209282026    0.6168223739991269    0.3796934196153353 Te
   0.1945534418698605    0.6258421368781021    0.6121371703800019 Te
   0.0077024508456965    0.0072253449852723    0.1254524447675987 Te
   0.1576797988662098    0.8799529795885933    0.1305150752377100 Te
   0.1472031230621811    0.8717355264519411    0.3697269712298698 Te
   0.1697691740421804    0.8839420050316878    0.6247785529515599 Te
   0.1432287197510840    0.8753755076022386    0.8850968401147371 Te
   0.4896820770518636    0.1162881017092580    0.1277815973503333 Te
   0.4836953627317040    0.1335274458834076    0.3605155460946001 Te
   0.4933711874760238    0.1233579477330232    0.6289262220761024 Te
   0.4899373109705052    0.1248662194947850    0.8824738911761332 Te
   0.5082455651619514    0.3798085742826014    0.1172814678107901 Te
   0.5125188231148601    0.3707898322648677    0.3749535935446013 Te
   0.6738802922799906    0.7698348602823972    0.8738289072302491 Te
   0.8142148068685474    0.7478740543894855    0.7555402022514046 Te
   0.8555637892167876    0.0059016904438397    0.2471111154786545 Te
   0.8357933876133130    0.7447300903122961    0.2537763803585433 Te
   0.3292707004350796    0.3673563127005031    0.7627102700637576 Te
   0.3362574871536307    0.6383197088514938    0.0093872172369213 Te
   0.3320337079408117    0.6151148206823854    0.2388395216094890 Te
   0.3586732458121424    0.6164362293556346    0.4962194873189348 Te
   0.3305668852877616    0.6227459899177844    0.7570748954875166 Te
   0.3198468667895598    0.8666742729447896    0.0042554975570798 Te
   0.3177405166868707    0.8791818375193389    0.2602432594710992 Te
   0.3257254048361931    0.8765017637418617    0.4792160859914195 Te
   0.3712348698703243    0.8779318787924792    0.7414960863619149 Te
   0.3371253152227477    0.3804936550494158    0.5030297144106228 Te
   0.6649624151877553    0.1133557400428609   -0.0063426347601851 Te
   0.6605852172169511    0.1208348094257996    0.4981809997615706 Te
   0.6650668028781004    0.1271004880925342    0.7513303744215736 Te
   0.6721840894726239    0.3633954198378131   -0.0008701884763272 Te
   0.6597233572188813    0.3694206624753358    0.2427342565739204 Te
   0.6593258062792177    0.3729983232224028    0.5096465635027406 Te
   0.6779643293776071    0.3847289362258671    0.7515043578684043 Te
   0.6805113765014590    0.6406763513236364   -0.0023220167937802 Te
   0.6719252116952760    0.6286281938717884    0.2448344239267170 Te
   0.6596491809510159    0.6140429671627097    0.4992456848798593 Te
   0.6669564646394228    0.1373235543957424    0.2513202576726447 Te
   0.6399965761052833    0.6172214802779320    0.7574560875768953 Te
   0.3321701557455517    0.3685541486966663    0.2428138403304042 Te
   0.3293021249442579    0.1270750500058389    0.7466924555443923 Te
   0.8462602866337061    0.8637221433287424    0.6258268132875139 Te
   0.0002687182869229    0.1235440333306879   -0.0000534552237259 Te
   0.0019604560307912    0.1422832672014531    0.2461483831790018 Te
   0.0075174652364773    0.1197812825789529    0.5018272149047996 Te
   0.0107007841248689    0.1329141859631104    0.7454272556172996 Te
  -0.0072046887893352    0.3804486597354461   -0.0067022584638103 Te
  -0.0009168029113723    0.3815470589034536    0.2628076135674740 Te
   0.0122594318119458    0.3759145023609429    0.5037119268320770 Te
   0.0014339514957740    0.3586631351810531    0.7412123043280984 Te
   0.3360080886606251    0.3734999914765444   -0.0078857307062706 Te
  -0.0151706511595774    0.6139234683699205   -0.0073233169506233 Te
   0.0007589711532280    0.6146183222068714    0.5107135391613346 Te
  -0.0002301249522419    0.6395508339563098    0.7506803261625112 Te
   0.0033225737431696    0.8803654047031875    0.0136991509643393 Te
   0.0096990246120144    0.8683218896662496    0.2408858840304507 Te
   0.0061569206197468    0.8821514978617928    0.5005053021178850 Te
  -0.0136943182528880    0.8638322192270923    0.7502901125949031 Te
   0.3396236842631979    0.1265773029740171    0.0022429217063699 Te
   0.3315591813831100    0.1409363405616757    0.2427737217694486 Te
   0.3296933754800101    0.1236413264758560    0.5023267994484284 Te
  -0.0070251287511473    0.6061141188087045    0.2499437069095791 Te
   0.6673812728782037    0.8735275379360110    0.0073544196175266 Te
   0.6705768464841311    0.8723263646376324    0.2582816588100366 Te
   0.6765047584897440    0.8896078025777675    0.5061545861072312 Te
   0.5074177179871187    0.5020279009864611   -0.0045407096801415 Te
   0.5066662965571317    0.4983052938706841    0.2426959885876921 Te
   0.5034790820084929    0.4903493126582322    0.5030380913200353 Te
   0.4932198884133071    0.4905898280034423    0.7595204488448760 Te
   0.5054325361862566    0.7594034003013818    0.0024735227800959 Te
   0.5011538340056443    0.7449727672713573    0.2546452810784448 Te
   0.5023087472244898    0.7507458278906340    0.4990054600498519 Te
   0.5072028070830739    0.7441613462590387    0.7297548165067015 Te
   0.8327643221761023   -0.0074325006664550   -0.0019834732369989 Te
   0.4957309158412183    0.2556662722157944    0.7521183712994418 Te
   0.8416818780407532    0.0044792103634499    0.5017810409031246 Te
   0.8405256600295823    0.2525979123392075    0.0003821354819443 Te
   0.8359410222993636    0.2589588951325564    0.2582592265033326 Te
   0.8297934171656237    0.2559388009673726    0.4862951134902494 Te
   0.8306372680860669    0.2468640204104026    0.7602920379506870 Te
   0.8177670274015710    0.4986422090464436   -0.0064743314042350 Te
   0.8174791208722624    0.4984458714655089    0.2482792640309603 Te
   0.8222489865421423    0.4900210906979826    0.5125823859596624 Te
   0.8671904133093223    0.4879674212874722    0.7361663595840587 Te
   0.8377670331811921    0.7640953459846198   -0.0022042949291592 Te
   0.8273794974346550    0.0053063675724368    0.7439076608236850 Te
   0.5058569065706211    0.2463976196387798    0.5043095282776697 Te
   0.5005641156747673    0.2593703194824523    0.2409212381656400 Te
   0.5110008666060012    0.2446919551846615   -0.0019698976327197 Te
   0.6766114955162820    0.8800417257765878    0.7314379829255439 Te
   0.1742477069760295    0.0086151472657727   -0.0032713193212191 Te
   0.1584117767482821    0.0073918552347701    0.2533975724832737 Te
   0.1674717644493355    0.0070812379058681    0.4995713994077216 Te
   0.1758279356855198   -0.0155523970807681    0.7543887874856046 Te
   0.1622954823442200    0.2429244712499828    0.0069150258996657 Te
   0.1594591287476756    0.2605496630985053    0.2420550261980376 Te
   0.1722924790979583    0.2440363657885021    0.5082204059337641 Te
   0.1730638678588615    0.2469733885262182    0.7399105751654207 Te
   0.1739190917219347    0.5028876483565969    0.0092913231149398 Te
   0.1641012030556869    0.4977870561485018    0.2414407897522091 Te
   0.1825332792760192    0.4989617131331680    0.4986074128587388 Te
   0.1607094077152462    0.4970562118161866    0.7536466184203325 Te
   0.1542029173569283    0.7500380871778168    0.0030589356069804 Te
   0.1665799265780286    0.7435636560298226    0.2487510420119508 Te
   0.1517431434321778    0.7450576533152489    0.4911987151611237 Te
   0.1772003221321329    0.7626251068626850    0.7563229297117361 Te
   0.4833936009497799   -0.0104872136013551    0.0049335524450450 Te
   0.5013679969442461   -0.0027828880707867    0.2550132806532474 Te
   0.4918136611440263    0.0085381814527223    0.4796482755573858 Te
   0.5030731440364080    0.0050620921881622    0.7505070153114438 Te
   0.8494626387007821    0.7503225908577463    0.4951650815528895 Te
   0.8482503572853393    0.8892488692151332    0.8691316644531680 Te
