Li14 Mg33 Zn32 Ga14 Co33 Cu33 Ni33 O192
1.0
  12.8755369816366869   -0.0012897896070427   -0.0018211788187649
  -0.0017198839636967   17.1767295691632071    0.0016813663183915
  -0.0024283662418605    0.0016814037838364   17.1809946346654954
Co Cu Ga Li Mg Ni O Zn
33 33 14 14 33 33 192 32
direct
   0.6669004534459874    0.8774081924779279    0.8729085447960028 Co
   0.3336704114814373    0.3763795505154117    0.6252391426923498 Co
   0.3304638423111553    0.7559478802281228   -0.0004012382672937 Co
   0.3350649739176151    0.7474292624234983    0.7428826507139762 Co
   0.6565746898968381    0.4982966115517074   -0.0001271892608636 Co
  -0.0021825466630253    0.1237952854489741    0.6191529511396032 Co
   0.8316026557331230    0.5001382616825335    0.6258058681302689 Co
   0.8317027323342226    0.4996444590779335    0.3752854995457560 Co
   0.8306505978492280    0.4977337007484919    0.1222193879851466 Co
   0.8318884723334795    0.2488470811640320    0.8748866713804423 Co
   0.8374986594865080    0.2476876262347786    0.1248624303881516 Co
   0.8300608307327439   -0.0008001802884402    0.3792175692505451 Co
   0.4969966497074640    0.7523282104347812    0.1295681985454033 Co
   0.1646123087576579    0.6267138734360828    0.2461533427519441 Co
   0.1692182718626911    0.8749112243992818    0.7425767005597905 Co
   0.4896839473582010    0.3721709893260049   -0.0010090618918637 Co
   0.4952962078966502    0.3706695252523190    0.7489176968099865 Co
   0.1693848511390922    0.2381793451269293    0.1249085606937470 Co
   0.5023806767547194    0.8789171878551596    0.2567378832281753 Co
   0.5021577272139556    0.8736913626637555    0.4980276111083987 Co
   0.8356684952462189    0.1210243961191663    0.0006326466400159 Co
   0.8319017650227722    0.6238598212852616    0.7560391183011639 Co
   0.3295402077319866    0.3717662324050602    0.8736611245783615 Co
   0.3237971678230237    0.5025973775968962    0.0002414305383290 Co
   0.8334318415230211    0.3741810128743189    0.7531525754904824 Co
   0.0005153042733215   -0.0078328121521164    0.4994235958108984 Co
   0.3332321046311542   -0.0016034238527207    0.0004636143204409 Co
   0.3276753115912336    0.6299990673049800    0.8724164224748504 Co
  -0.0019159214384091    0.5056182539863615    0.5003433523912034 Co
  -0.0024703840680458    0.2552197462139473    0.5021475588052650 Co
   0.6661489833560509    0.1272131206002790    0.8753163303164159 Co
   0.3319737091505590    0.2405051231816112   -0.0021598161522611 Co
   0.6692255606465838    0.6196582055562487    0.3847190375972790 Co
   0.1676025598644192    0.1316017244432598    0.5019981288272372 Cu
   0.1663977608580117   -0.0020998503882298    0.1364430849857315 Cu
   0.1722096648836809    0.3667967162071651   -0.0031798435032313 Cu
   0.1687395344776882    0.3744259794669694    0.2457361384231372 Cu
   0.1675726427554370    0.5068941306824564    0.8695831138164598 Cu
   0.3356574760391507    0.2526358361515603    0.7445081700462334 Cu
   0.4943218837259308    0.1269934331869282   -0.0015707172393824 Cu
   0.6651025219461236    0.3770301401130566    0.3775495002544506 Cu
   0.1711903155760875    0.6262381567848364    0.5042092926060294 Cu
   0.0031506846835772    0.2507084964679034    0.2535914846826582 Cu
   0.1677179901459635   -0.0075298578659542    0.3825009238682553 Cu
   0.1688017975744545    0.7587297884689940    0.8661302127033886 Cu
   0.1654218455363471    0.8745687871752571    0.2576180454376551 Cu
   0.1723724927101909    0.7463817119954227    0.6237294955635045 Cu
   0.4918704361083175    0.1263558046156100    0.2493085221418094 Cu
   0.5055912952521239    0.7458853006770281    0.3765670201832916 Cu
  -0.0018730259131008    0.7558147714921202    0.2498309212077690 Cu
  -0.0028873291413416    0.7464452238036391    0.4973353140292215 Cu
   0.3304661184548495    0.2557619664343132    0.5016625362036540 Cu
   0.3253218357849387    0.2484980203297268    0.2554493558269496 Cu
   0.3281702445935852    0.3699036219194433    0.1249660523972627 Cu
   0.3353336853756629    0.1232079301005125    0.8669726296473496 Cu
   0.3359429455465903   -0.0009855531254096    0.7429807687202028 Cu
   0.8321508120860689    0.1282153719812729    0.4985902581512999 Cu
   0.6669347027186702    0.8646545015927958    0.3854433958990957 Cu
   0.1689054320820066    0.1110490250437251   -0.0079470028144897 Cu
   0.6669138562490020    0.0024985648039971    0.4973989357256455 Cu
  -0.0026507727509704    0.6217512433702609    0.3673547109098659 Cu
   0.8307317556423433    0.6230974941360463    0.5051563204065379 Cu
   0.0052630591603447    0.1200455960512415    0.1269974309132108 Cu
  -0.0034744316186830    0.7568346544239211    0.7547341639957004 Cu
   0.6674123845425923    0.0021518822480311    0.7392014201452080 Cu
   0.1764131994492966    0.4983081678499326    0.1291744151932811 Cu
   0.8304426259959162    0.8762772805603075    0.2546121908250479 Ga
   0.4973782891809159    0.6239541133750519    0.7472293972774829 Ga
   0.5006693133877702    0.6222233323219164    0.2523167033314975 Ga
   0.6645422374066958    0.8748830099169186    0.1255361547830428 Ga
   0.0051315988925724    0.2312811387309687   -0.0033735854567378 Ga
   0.3310941826101531    0.6327400990016933    0.1297076919865865 Ga
   0.4972936003430330    0.1313076554146082    0.5011598617279428 Ga
   0.0129630415171959    0.5007075740469031    0.0045835123367750 Ga
   0.0041858899099795    0.4976931272362313    0.7519796159747475 Ga
   0.0079067156381421    0.3722116508211178    0.8753866450167678 Ga
   0.0003480449766261    0.6295225027956931    0.6349076518198006 Ga
   0.6652066341699244    0.0021767368688044    0.0040210376337659 Ga
   0.1686439927354640    0.5014875749846776    0.3738875789190420 Ga
   0.0008593328096069    0.1264668777276895    0.3828180606919808 Ga
   0.5004890395082762    0.2540154871763817    0.6232090519410576 Li
   0.4931205015981832    0.2465669995457099    0.8726911117281462 Li
   0.3403446618472031    0.6241528364830515    0.6213763947620780 Li
   0.0063646789493272    0.8805955188895291    0.1323453736215734 Li
   0.0023721740525139    0.8737781766206701    0.3743116468533028 Li
   0.0099893687309581   -0.0011332668997874   -0.0100920179333766 Li
   0.3303226467033454    0.5075329263336691    0.2523523990828910 Li
   0.6657492648591828    0.7374598522753749    0.4968945184327881 Li
   0.1708789564761208    0.3724674722471156    0.7441846919788374 Li
   0.3470291037350535    0.7509874859770231    0.2577392090186733 Li
   0.1711905973808245    0.6323140394155293    0.7489426715996047 Li
   0.3326733528000513   -0.0057449161099958    0.2618582554228077 Li
   0.5005683855036510    0.6169318704974301    0.5008136967056256 Li
   0.6617323698958439    0.5002439198696996    0.5013619195149832 Li
   0.6647547581068900    0.6225582744500762    0.1219133960339132 Mg
   0.1677866261230167    0.6368939913445213   -0.0005715998419460 Mg
   0.4907060546965017    0.4981849300607150    0.1258966831341634 Mg
   0.8368256774436348    0.6210658610270096    0.2437124142264917 Mg
   0.1676179917752037    0.3808238343644453    0.5043673521351864 Mg
  -0.0000966023527998    0.8788927919378220    0.8735530777508126 Mg
   0.1669929649324243    0.1239703487222431    0.7422108774229108 Mg
   0.6660212432243613    0.2552186958212789    0.5007523878872888 Mg
   0.0003596527484182    0.3772492661328742    0.6247297929149241 Mg
   0.8350390982433321    0.2559884381831025    0.3771472932369679 Mg
   0.8329144622812537    0.2532868175660096    0.6220341406957176 Mg
   0.6646075147308763    0.7477658812744040    0.7508836027135437 Mg
   0.6674934415643349    0.7456335766858126    0.2515305575674137 Mg
   0.6665982996712666    0.7512692632874144    0.0004369048106190 Mg
   0.8361834558281435    0.4989803809328309    0.8790274363364599 Mg
   0.0082512953181195    0.3692726944523791    0.1215406963445153 Mg
   0.4941002086323569    0.2535286723238651    0.3758006787268579 Mg
   0.3332209706313586   -0.0028665932892704    0.4981119718790070 Mg
  -0.0027049099656725   -0.0000399198055128    0.7436256936714172 Mg
   0.3358847731694467    0.8771688951567340    0.1344850607431622 Mg
   0.1664209605627339    0.2545999298138231    0.6229327059493661 Mg
   0.1657478216075078    0.2565693878002016    0.3811767280823347 Mg
   0.1692443929511598    0.5032348218860161    0.6290017411000400 Mg
   0.6648671473404919    0.3736174541628707    0.1243779253918753 Mg
   0.0044300174068949    0.4958660928931392    0.2452880564196706 Mg
   0.8386099706555398    0.1269519097552259    0.2517420704348952 Mg
   0.1677972608742706   -0.0010412926035716    0.6201234324254208 Mg
   0.1626449663602453    0.7444363433255392    0.3716355420772562 Mg
   0.6659427356732139    0.6239926318977832    0.8785309285117506 Mg
   0.1661226221954781    0.8668657462250227    0.4979307281163964 Mg
   0.4971804385305242    0.8746644111375966   -0.0002624779104364 Mg
   0.6655503389020615    0.3773288057624249    0.6240920958789594 Mg
   0.1655487857222976    0.7590338171820642    0.1311334149431558 Mg
   0.8370867598898050    0.3741351512023130    0.2478911384389622 Ni
   0.0025758500680904    0.3777997748110840    0.3770969297359202 Ni
   0.0013071309397668    0.7622760665638988    0.0012153971159251 Ni
   0.6662728552927739    0.0050459647514986    0.2531176987840631 Ni
   0.6665907715036761    0.1317298156416118    0.3751736996658852 Ni
   0.3334442491218835    0.8768283855699410    0.8706967036159697 Ni
   0.3299618525715180    0.1256688847821836    0.3792750092437092 Ni
   0.0013434124309619   -0.0011660483357511    0.2583156197448739 Ni
   0.3355034577306694    0.1285751370154659    0.6227041686964219 Ni
   0.3416352818201371    0.7466369942160339    0.4985887746766255 Ni
   0.3383477747723296    0.8721795323351959    0.6213246839054560 Ni
   0.6686859800356918    0.6204882690706497    0.6231845654165526 Ni
   0.3293343463421559    0.3777988316934719    0.3756878418722469 Ni
   0.3366949222045423    0.5049353814075033    0.5021436718308346 Ni
  -0.0013602332878472    0.1167652642011229    0.8676319121226134 Ni
   0.6603626383892085    0.2487212313617863    0.0002582924569662 Ni
   0.8323280856438116    0.3811278567459190    0.4999157375192100 Ni
   0.6652243162847277    0.1297143934823300    0.6215544317825661 Ni
   0.8299864406358807    0.7527165763491097    0.8768221439785723 Ni
   0.8382018679484470    0.8779655617978024    0.0009227919593019 Ni
   0.1667660872129955   -0.0012986364128075    0.8643327766171175 Ni
   0.4909676038986968    0.3747175136873472    0.2494360602653477 Ni
   0.4961769442590662    0.0015890264135111    0.1273749002987615 Ni
   0.5014519870877846    0.0031362894025861    0.6216508204477765 Ni
   0.5019192004941040    0.0011564168964629    0.8737500606765123 Ni
   0.4923653122078985    0.2488066017121301    0.1242940856099196 Ni
   0.4991879198666929    0.5005317239438813    0.6220178761094647 Ni
   0.8318812157414814   -0.0006001416171142    0.6189551988755364 Ni
   0.4999600733411361    0.4958536107154686    0.3761375440777354 Ni
   0.8342294990385023    0.8694100635228511    0.4997943647606437 Ni
   0.8263637931045048    0.7467040441225012    0.6260681846430849 Ni
   0.8344034591644583    0.7444660490064909    0.3758808436044355 Ni
   0.1641060397069495    0.1214255055321641    0.2618561920342612 Ni
   0.6655434356819204   -0.0008765103947837    0.8900523756919800 O
  -0.0039580023032029    0.7377094782970997    0.3655247898599585 O
  -0.0171466250300500    0.7432147331198882    0.6428241038944486 O
  -0.0097622850337985    0.7568007861719647    0.8735760028632708 O
   0.3335513839889725   -0.0004517202837857    0.1246516033996132 O
   0.3352405499975631    0.0020259968624832    0.3787838354447089 O
   0.3329286016759445    0.0002183284823235    0.6258807688205984 O
   0.8194721746814106    0.8703927386716528    0.3723903558331850 O
   0.3366746425514291   -0.0034289347433328    0.8589239923363784 O
   0.6684513290301607    0.0075369535971997    0.6162900058133943 O
   0.3495576133130279    0.7519545809081701    0.6192391486894977 O
   0.3288417308867495    0.2533293172375293    0.3860350621143762 O
   0.6696603067765188    0.0145759777586092    0.3752716997361703 O
   0.3273743643972520    0.2519358009781842    0.6154357869221050 O
   0.6585757372688276   -0.0051369417968671    0.1216183092267095 O
   0.0002637313323359    0.7541657480006645    0.1244945855964973 O
   0.3375182173570171    0.7547717185000455    0.8777382946512570 O
   0.3320980784626286    0.2488538482397100    0.8848971405879219 O
   0.3273576583942782    0.5164567958911104    0.1211482325154840 O
   0.3233158053129071    0.5020256720528221    0.3773211106354744 O
   0.3295411302260980    0.4996148288903537    0.6264179124986274 O
   0.3225281506488567    0.5018312675469515    0.8739996913693047 O
   0.3374645094119160    0.7509796352964868    0.1243648642181236 O
   0.3277583128850464    0.7451636747691248    0.3787370998117486 O
   0.3311660275205302    0.2314965424050869    0.1114425609357499 O
  -0.0025064947654446    0.2543932230539952    0.8844863451769348 O
   0.0018108270114072    0.5005419712699738    0.6335905698366212 O
   0.8271993406947007   -0.0021536846411581    0.2528127534800190 O
   0.8421383225809991   -0.0109247831619134    0.4994402713818932 O
   0.8259574639984458    0.0004326804333396    0.7430111486064037 O
   0.8455408614920429    0.2465978134052505    0.0009682938419804 O
   0.8447227238077443    0.2515554252534752    0.2501201071000395 O
   0.8306182431148116    0.2601271896302964    0.4992408208763566 O
   0.8406382707229769    0.2517895756479183    0.7485114283451163 O
   0.8553333495254531    0.4989724472165205    0.0013592206818289 O
   0.8381451409777861    0.4958205893167615    0.2428130424283817 O
   0.8407065671236561    0.5011722962445514    0.4997356979396598 O
   0.8441083854048314    0.4968418406488848    0.7573341870435469 O
   0.8333916548277086    0.7536677046221028    0.0000891007585473 O
   0.8311371592167532    0.7549024610301336    0.2486010330828695 O
   0.8412332127399216    0.7472408856619881    0.4997259529433989 O
   0.8245386366531822    0.7484301338206480    0.7555755691340870 O
   0.0058814550061228    0.0044051958880686    0.1378187295702555 O
  -0.0070936087805412    0.0086543849351644    0.3807005374213729 O
   0.0003204185749010    0.0019074499675386    0.6214538166463002 O
  -0.0021777143077177   -0.0023532634267789    0.8647954336791401 O
   0.0042903107015285    0.2464352155842867    0.1079906549688856 O
  -0.0005350889579392    0.2502180654983930    0.3851470060779575 O
  -0.0019913613366660    0.2536113718054811    0.6219637302518989 O
   0.6658223038240167    0.2523973865114919    0.1224448505707596 O
   0.0201886899102094    0.4902448896194554    0.1189431290594796 O
   0.0070485778382042    0.5020868610527437    0.3729740310043108 O
   0.0061492717984725    0.4925947831242908    0.8742400717472469 O
   0.6680097730110263    0.2539850945414614    0.3752801822610472 O
   0.6751817601652180    0.7378656569061233    0.3714275641646168 O
   0.6735230259847665    0.2505131586585777    0.8800384432772209 O
   0.8264694515696116    0.6240587360133895    0.1229542845164808 O
   0.8509069582889678    0.3748768727686177    0.8792413904800266 O
   0.8206093736270337   -0.0019951890505829    0.0060213600119458 O
   0.8353123295945346    0.3773768228107136    0.6263544984778425 O
   0.4981315445170957    0.1310531081842813    0.3839619085991529 O
   0.8457334418241963    0.3774601290700213    0.3716951096603218 O
   0.4994610291070021    0.1252479570833577    0.6170796879918498 O
   0.8389696852447076    0.3727849851049939    0.1234169516946770 O
   0.8332312000516764    0.1228967395447857    0.8736645755912961 O
   0.5077065965278028    0.1207955796847624    0.8794222462591684 O
   0.4875271374597735    0.3750120337881533    0.1278899868918909 O
   0.8406540375997985    0.6201235782471143    0.3613090631222108 O
   0.8312986296889070    0.1268485778657318    0.6153914870212660 O
   0.4876967968906044    0.3750358813092520    0.3696306069733460 O
   0.8447865985960270    0.1250541215587490    0.1289433680554032 O
   0.5013720752709792    0.3797352717972748    0.6271925297205130 O
   0.5010300040717124    0.8791253476232701    0.8756562895840047 O
   0.4940169214746237    0.3805270425679939    0.8746353010350100 O
   0.4957895134797623    0.6257079962627046    0.1316203829964337 O
   0.5021346058172310    0.8806811456366174    0.6226540711557845 O
   0.5028511298577345    0.6139937034471464    0.3658943395364458 O
   0.5072708703108959    0.6204628689568468    0.6320358590756655 O
   0.5169593919884664    0.8816838203488510    0.3754108697444262 O
   0.5003985365384731    0.6199981334295496    0.8732519557249208 O
   0.8364008312503969    0.1305953088399661    0.3807898292068864 O
   0.4995085839451473    0.1247002158153808    0.1179926034405434 O
   0.1676478829715098    0.8743413210024320    0.8639780791564278 O
   0.8359626636877963    0.6225195990073102    0.6391807203260240 O
   0.6624190071632959    0.4972892726659038    0.1197081033949726 O
   0.6681072927946018    0.4962476127838539    0.3713863752785543 O
   0.6688355631081306    0.4988659994513351    0.6304983305976130 O
   0.6751057737510351    0.4992042897961702    0.8804906857894975 O
   0.6618809690657798    0.7545666227842542    0.1244094888758291 O
   0.5055532482354370    0.8751004698182137    0.1272241374178837 O
   0.6654860969680338    0.7447875136095715    0.6281932928983897 O
   0.6680001215294169    0.7492457223195287    0.8789160106417048 O
   0.1594912695494078    0.1156150777873785    0.1434215560849368 O
   0.1607870793081241    0.1361231061216459    0.3851828064222559 O
   0.1684918763993614    0.1248138267487367    0.6188450844197662 O
   0.1561403910630464    0.1216694736413949    0.8600432505987101 O
   0.1742753395279575    0.3587140149367846    0.1106123222031817 O
   0.1641490632021527    0.3830774335979307    0.3854295858371404 O
   0.1630661316831128    0.3801462666050334    0.6228036972421016 O
   0.1614047215375526    0.3608666539890852    0.8810077244733109 O
   0.1782569332406730    0.6385005290190672    0.1255834926624156 O
   0.1566872002551782    0.6200583822386468    0.3653842737717462 O
   0.1514510884737456    0.6262629540244273    0.6304948079857188 O
   0.1650619605306058    0.6458875566190161    0.8773734926769248 O
   0.1736957993091265    0.8805723078536486    0.1373254707569988 O
   0.1649636486814925    0.8644069821454872    0.3748432474660026 O
   0.1717014013768966    0.8702443406067257    0.6204472807517590 O
   0.8207840420849579    0.8768599532321120    0.1282111835389876 O
   0.8354322199655623    0.6242639199448973    0.8793296930784771 O
   0.6727983099025489    0.2534437930498489    0.6230789199541905 O
   0.5045467237410000    0.7390252139066675    0.7542405784779682 O
   0.6793938990946616    0.6204050921332102    0.5023541895672105 O
   0.5082183421801143    0.7404024560820638    0.2560516995600513 O
   0.3330693250835690    0.1362523862169391    0.7462353145174442 O
   0.3257247309247238    0.3781661417707687   -0.0017807502247809 O
   0.5029316130191446    0.7515957285226361    0.4917902648694387 O
   0.3303713538968190    0.3848621300839651    0.5004307934649439 O
   0.3331075595485059    0.3697463261636150    0.7501364603845029 O
   0.3317420023718587    0.6318052878487728    0.0035298010712800 O
   0.3401121298523121    0.6279052889774598    0.2452771116308750 O
   0.3434873728329063    0.1185431799739226    0.5008932321120348 O
   0.3330384799816358    0.6251210151585832    0.4998040228322240 O
   0.3352583481995562    0.8780260390680807    0.0019187984384596 O
   0.3524500894917176    0.8733948109298714    0.2538283204409036 O
   0.3336159795768940    0.8724655186837100    0.4979682385924246 O
   0.3408704818064690    0.8680783980948459    0.7465470994093573 O
   0.6744921222950366    0.1213951025216238    0.0050043182255483 O
   0.6794652763577069    0.1286955121827114    0.2497726308525637 O
   0.6549040116297761    0.1299862949955715    0.4981056234301048 O
   0.3424530985363712    0.6262931829273860    0.7528273948199363 O
   0.6684772284037330    0.1300003262450969    0.7470948337437615 O
   0.3214083007895868    0.1333976469504746    0.2599034513290889 O
  -0.0020610069781709    0.8807647484657374    0.7461401070960250 O
   0.8290753001174102    0.8715618861858472    0.6235542236896866 O
  -0.0041642443426452    0.1194892756145669   -0.0138648361181965 O
  -0.0001183165204228    0.1266195484677113    0.2699177797576501 O
  -0.0020684958589669    0.1274460013357377    0.4971774277347253 O
  -0.0037791390487264    0.1220646141021703    0.7435986581746665 O
   0.0142370750621110    0.3825303558127470   -0.0045497129812402 O
   0.0061469993943160    0.3729250219261976    0.2457815990422324 O
   0.3311058071654635    0.1155032961108541   -0.0164694140308863 O
  -0.0017110984880856    0.3824051062511853    0.5015656524065766 O
   0.0046720174830951    0.6205860759278909    0.0033625280276166 O
   0.0003165064161861    0.6127581326079610    0.2345571845531497 O
  -0.0148486559259402    0.6258262319316890    0.5199530903242765 O
  -0.0043697327839040    0.6120957958653708    0.7523080611294469 O
  -0.0007709588116463    0.8792596755404886   -0.0039458062700786 O
  -0.0228998657066246    0.8821890110544593    0.2540015086582268 O
  -0.0001583957868196    0.8663620801624223    0.5025914080324575 O
  -0.0000429528212368    0.3797239412459657    0.7567617961189578 O
   0.6668351731605165    0.3740204157438696    0.0016446090277178 O
   0.3268384822967400    0.3632525355704562    0.2501903975333410 O
   0.6680759855462143    0.3754084923221089    0.5002445014768749 O
   0.1539486544400128    0.7533642404171986    0.2507286708692136 O
   0.1569720785326321    0.7430913421368942    0.5007654381265756 O
   0.1723014728834881    0.7537862918591192    0.7394995930637204 O
   0.5065350417736505   -0.0053373306329775    0.0021592611451241 O
   0.5074273094867153    0.0093018270211716    0.2487440289668943 O
   0.4942454552451158    0.0034878241521868    0.5012649749312889 O
   0.5119832528232873    0.0060675642970031    0.7471964395449495 O
   0.1633913428183641    0.7594007712608595    0.0101331690918946 O
   0.4995637484267760    0.2542728628305445    0.0047923806018277 O
   0.5024524941647381    0.2496635252608243    0.4971594367866894 O
   0.4991852524200762    0.2499380087906898    0.7499343361439296 O
   0.4919014876360089    0.4994789928846120    0.0040531218800976 O
   0.4981606085320195    0.5017148700609246    0.2471898313258119 O
   0.6659748036868502    0.3731803138000636    0.2453659194862667 O
   0.4975643914435561    0.5057700635311655    0.7504805631625618 O
   0.5026750557998593    0.7528193037129962    0.0001220584836501 O
   0.4964182793930453    0.2470344931393360    0.2498627183477186 O
   0.1598791354618582    0.4994648980432201    0.7532829463161577 O
   0.4968643504447152    0.4992414281609199    0.4988274019393511 O
   0.1660159691348815    0.4940662410738088    0.2587245569580115 O
   0.1633067073875386    0.5082945756887322    0.4973635615466656 O
   0.6679261830057182    0.3751159295232255    0.7527038247805705 O
   0.6629653361196781    0.6256502559884163    0.0010482023496752 O
   0.6632339302063155    0.6227139538433560    0.2421649742916347 O
   0.6618887626704446    0.6230770565546518    0.7566474943065985 O
   0.6660116734305329    0.8760372674482659    0.0073570445518311 O
   0.6724315544456932    0.8759336495716321    0.2405630263614837 O
   0.6696156911199919    0.8837610842697456    0.5012592323859892 O
   0.6626121182873674    0.8709590840227850    0.7506349551802247 O
   0.8310262620147499    0.8767433661890427    0.8761841989225093 O
   0.1616630432536949   -0.0039836815796364    0.2698641346020380 O
   0.1675920413261656   -0.0122096667030001    0.4984531352103824 O
   0.1627081073143918    0.0005317270070354    0.7410086316605022 O
   0.1604887263746310    0.2244728553129939    0.0005378340524331 O
   0.1580809108995041    0.2527569785360570    0.2531448556066985 O
   0.1617670921497504    0.2600464917049009    0.5025257736563910 O
   0.1594757683318166    0.2460904155756615    0.7436511548740743 O
   0.1734982940584616   -0.0017880505049575   -0.0171966856011724 O
   0.1620108754631008    0.5161556378969462   -0.0153691457949824 O
   0.5070880342874329    0.7417239645393369    0.6144865407264077 Zn
   0.4923282427813054    0.4996726550104246    0.8772152400014566 Zn
   0.4998567320144423    0.0045187852361698    0.3754905524839846 Zn
   0.1626902455847389    0.8802694355766285    0.0057796461299819 Zn
   0.4995599390403218    0.1300791987925053    0.7504219322630448 Zn
   0.4991785046059320    0.3783657521748330    0.5025832433147942 Zn
   0.8307612266597697    0.8741560067756269    0.7479607395394905 Zn
   0.4950668561923405    0.6288428439272434   -0.0024967155382299 Zn
   0.5002174035319062    0.7539598172602163    0.8745797829817683 Zn
   0.5014587097834847    0.8793015778346960    0.7464388103785192 Zn
   0.8306887389061778    0.1262016142116570    0.7467263537063628 Zn
   0.8349221095552707    0.6264041612315285    0.0012310891724324 Zn
   0.8317675810797509    0.3718682673863100    0.0005921099945032 Zn
   0.1733807454612209    0.2414669124692128    0.8662622680010422 Zn
   0.8460836464842177   -0.0004382758045204    0.1261637916919724 Zn
   0.6653122391673618    0.4977553996724059    0.2492571379422704 Zn
   0.8392110317918118    0.7534673449783623    0.1245147237920334 Zn
   0.6645994304143070    0.4991223473748921    0.7518708011372590 Zn
   0.6604285729757181    0.2517992705835424    0.7453939794768247 Zn
   0.0040535569083685    0.6322468053859184    0.1221921027978103 Zn
   0.6627407941100127    0.2518965296805374    0.2518158426140479 Zn
   0.0044164857289409    0.6362270132419592    0.8726838800085742 Zn
   0.0001670140489894    0.8685118772034565    0.6239671105416188 Zn
   0.3284127499370637    0.5022105464683299    0.7482189374093521 Zn
   0.3393949401826498    0.6258572118802697    0.3785391680735712 Zn
   0.3290973610753514    0.8709503963447885    0.3721950378250793 Zn
   0.6636881309895750    0.1297469314080922    0.1286446314777391 Zn
   0.6561438636689119    0.3723849663349893    0.8762352335319630 Zn
   0.0012902881951736    0.2467164093259782    0.7431088272745735 Zn
   0.6653378551730387    0.8701209998252033    0.6214744359442352 Zn
   0.8322431571726269   -0.0002180215298157    0.8729671141425972 Zn
   0.3293813279598557    0.1165467696461061    0.1360345523718075 Zn
