Ta38 Ti38 Nb39 V38 Cr39 N192
1.0
  12.9044738548055129    0.0000206797801887   -0.0006755324933342
   0.0000275677821769   17.2055564039794966    0.0005605076961364
  -0.0009006290944486    0.0005604459014450   17.2109447405976503
Cr N Nb Ta Ti V
39 192 39 38 38 38
direct
   0.3364514000300138    0.3789371527314904    0.8694733685151294 Cr
   0.3355022150418775    0.1203494580211786    0.8681091143671169 Cr
   0.1592811163486552    0.5015986490948136    0.6283184448547871 Cr
   0.6644277110246101    0.5044571252752744    0.7460745753906264 Cr
   0.3306313772931792    0.3738235915383176    0.6244191493599911 Cr
   0.6632594361705947    0.6244724975083892    0.8726680696234701 Cr
   0.4981001656902965    0.2409785916755760    0.8695984374385247 Cr
   0.1681727364826456    0.8867835000902304    0.7490578304623421 Cr
   0.8391470074103698    0.6254535766782331   -0.0018996750359043 Cr
   0.8401719702690085    0.8779807483846257    0.7598770045588498 Cr
   0.8364739863940964    0.8716934585989661   -0.0036525576413983 Cr
   0.6657481642573085   -0.0071254269567516    0.0069902141946325 Cr
   0.1623175899047900    0.6237527715707496    0.7469006991929908 Cr
   0.6673021366663552    0.0021016975114528    0.7466496579164419 Cr
   0.5105915041026221   -0.0210923009232320    0.1280488426419596 Cr
   0.3256878557202510    0.8803110648743477    0.6234638248194442 Cr
   0.6711183933537042    0.2486187679700273    0.5023175761981346 Cr
   0.4967663405967053    0.2576948172832429    0.1286872839941376 Cr
   0.5039934742911778    0.8794385832159025    0.4963144076622014 Cr
   0.6765425787947777    0.3725654806691534    0.3753849252258745 Cr
   0.8308828956380737   -0.0046455289281590    0.1286469197549284 Cr
  -0.0020443208679771    0.0033805084113896    0.2529336966534138 Cr
   0.6682851939381533    0.6265372811457105    0.6237490580317061 Cr
  -0.0034790678850944   -0.0004327402468653    0.7503374274902572 Cr
   0.0038903537543619    0.1319232498300188    0.8726548963463783 Cr
   0.4994033146377255    0.8744739151620201   -0.0010628781537592 Cr
   0.5051718083544592    0.6245836083100460    0.7507074851213569 Cr
   0.5012527381161654    0.6249806161127223    0.4990730557929065 Cr
   0.6706761468011647    0.7560991892289390    0.4983149388155688 Cr
   0.1638750415784747    0.3695103936536806    0.7462974475114698 Cr
   0.5028376050297766    0.6216535110074237   -0.0020717224745438 Cr
   0.8317244705523441    0.7517170117432193    0.6205774968455364 Cr
  -0.0069842293179840    0.6275795520957067    0.8773372457064101 Cr
   0.0111314732161121    0.7424911697401692    0.2545983833172886 Cr
  -0.0008832547484652    0.7514667731131428    0.4936296180172783 Cr
   0.0032791495186733    0.8724198359480854    0.3773544174308436 Cr
   0.6664765365890356    0.3738756845161340    0.6258753853812963 Cr
   0.8429357729734905    0.2494323258886972    0.8711436984611273 Cr
   0.6719693413134461    0.1248798159274183    0.3759534467983306 Cr
  -0.0000360320995483    0.1210236479019597    0.2442645138352828 N
   0.0079149923213198    0.1221198744741448   -0.0093033006354962 N
   0.8286172931193565    0.8707179469957500    0.8768323204667863 N
   0.0010149428793460    0.1206192670058250    0.7539499631099692 N
  -0.0023046489156261    0.3725125094118486   -0.0003446614038635 N
  -0.0013362507261653    0.3742166133010127    0.2500365483105423 N
  -0.0020631691095416    0.3775325834955264    0.4981777553702048 N
   0.0074171024372943    0.3695773930274715    0.7524829750727446 N
  -0.0017841786899205    0.6240802221073756   -0.0027749506144305 N
   0.0043853827538694    0.6256737438536151    0.2493425849219677 N
   0.0021567913693525    0.6294346696186920    0.4978838163477123 N
   0.0053056075394042    0.6294373870609323    0.7520940685771057 N
  -0.0040989249996950    0.1246384718620904    0.4994630941658911 N
   0.8347991145280350    0.8757708181492135    0.6198704933102742 N
   0.8379199645131901    0.2517171546748508   -0.0125209491429887 N
   0.5002434187327883    0.7424203382426094    0.7495643848808735 N
  -0.0033267091541762    0.2495506854487404    0.8706224337904811 N
   0.0009840099635955    0.2450023749033753    0.6236041146066509 N
   0.0031388874964545    0.2500270323852978    0.3786454707182096 N
   0.0021835880775368    0.2523051703394253    0.1252729417767355 N
   0.0010397290867158   -0.0029625880099641    0.8706589893322620 N
  -0.0010810376192885    0.0023883346720197    0.6257438490642907 N
  -0.0074380169219781    0.0008004629695512    0.3719148470851004 N
  -0.0035930560059915    0.0005997388883473    0.1259753807384286 N
   0.8355969384322682    0.7599012595373063    0.7433024213929089 N
   0.8308061282935324    0.7568821256531211    0.5051503155751793 N
   0.8473165106760805    0.7501736849438654    0.2522379009178282 N
   0.8341560646544317    0.7495049197886176   -0.0048091624444456 N
   0.8217283977149373    0.4988021171583331    0.7496552670220269 N
   0.8330636433026817    0.4970884168401227    0.5026679745248146 N
   0.8319174640364120    0.4949188948610231    0.2451238055416500 N
   0.8331233413756127    0.5076670062437897   -0.0009684224287977 N
   0.8301605728314281    0.2470967441062708    0.7536074072547576 N
   0.8296432960080730    0.2491379002047719    0.5036301056907873 N
   0.8365292258074905    0.2556066352187473    0.2498534012203090 N
   0.8351918193981882   -0.0038617253500411    0.7486802800496264 N
   0.8337881083879983    0.0005468879146433    0.4997104581481475 N
   0.8405397388605601   -0.0016855699657043    0.2466850252090709 N
   0.8296483344411639   -0.0093869855796051    0.0073355357724894 N
   0.5042893943102658    0.7507875177156653    0.4998635556515822 N
  -0.0074409088663381    0.8711516278339873   -0.0052741226950067 N
   0.3208453056544361    0.1297148435493457    0.2506879726414026 N
  -0.0028110064499374    0.8726989832110666    0.4952044640158487 N
   0.1692185059673203    0.0044080740858039    0.0016834508178787 N
   0.1586349948187002    0.0003308469198433    0.2501723585494615 N
   0.1636575914579647   -0.0055668276150994    0.4996245786387060 N
   0.1638871677656090    0.0008531009888752    0.7461106301160170 N
   0.1544599699905188    0.2473506822019394   -0.0011831045460517 N
   0.1664087137150741    0.2514016828553406    0.2533396379184318 N
   0.1647911505119819    0.2551169640773544    0.5017635213368639 N
   0.1595563232729646    0.2515481212993585    0.7460401191152141 N
   0.1650415083575344    0.5026737322581405   -0.0014612307570837 N
   0.1656738092478019    0.5038286550723760    0.2535608163810295 N
   0.1651806771185781    0.5021358038105002    0.5064660027163125 N
   0.1684830794381167    0.5034849245961657    0.7457898624274056 N
   0.1680658068131949    0.7469275603114455    0.0014438961896781 N
   0.6747953702173032    0.8816417271425752    0.7507135594763545 N
   0.1666278261425290    0.7481908349885021    0.2506783459102150 N
   0.1611249120364630    0.7438574814279117    0.7485652634461136 N
   0.5066604388367228   -0.0066729439058709    0.0058401941802086 N
   0.5122124201491057   -0.0042005878570167    0.2421019751170868 N
   0.5010118660217154   -0.0026123823087162    0.5015696828720053 N
   0.5059005336351681    0.0011926041213755    0.7518323840853731 N
   0.4991442313848377    0.2545768300068696   -0.0052097309228365 N
   0.5008838294946886    0.2521167390827755    0.2482731946466235 N
   0.5023066788634103    0.2473536170545628    0.5008809482501384 N
   0.5006589341808207    0.2444866565067851    0.7513174097335691 N
   0.5003331743458425    0.5051235053161378   -0.0036573984386890 N
   0.4969320550871832    0.5045017409635728    0.2517086401644164 N
   0.5005194792540903    0.5066319084284909    0.5006830548647133 N
   0.5095314751326092    0.5073199903677216    0.7424744551069770 N
   0.1544736565868524    0.7503179219541011    0.4971945950481736 N
   0.0033575340602679    0.8735349797087991    0.2554165246573977 N
   0.6609971574675028    0.8743835828624176    0.4985328801006148 N
   0.6693232077292121    0.8741691989724342    0.0007855417879222 N
  -0.0003054303047416    0.8799357349854212    0.7480021048600092 N
   0.3285267009593063    0.1197672649990553   -0.0063440003561100 N
   0.3382070954811359    0.1274698863004155    0.5004896963305308 N
   0.3346444847494924    0.1184453614096658    0.7514240783677669 N
   0.3371478242846166    0.3764298158469234   -0.0108032715379879 N
   0.3277096166735239    0.3821176231631018    0.2517593901947996 N
   0.3270365715011926    0.3771597824259310    0.5062290736792345 N
   0.3236440709233662    0.3778060709849009    0.7486612491595923 N
   0.3376011825826412    0.6257694697292829   -0.0003405840215514 N
   0.3318198378025112    0.6247689957343938    0.2498083281593745 N
   0.3362712373508509    0.6231220269177803    0.4952665656807110 N
   0.3308721985397471    0.6234670539045247    0.7511262163487833 N
   0.3410281978005675    0.8739209671124173   -0.0018022548777451 N
   0.6686250548951704    0.8743428146999737    0.2590673504969139 N
   0.3367417980639367    0.8718469815914499    0.2549088298583478 N
   0.3237739086872877    0.8785123760132659    0.7423180774650309 N
   0.6656477410289041    0.1108989061332310    0.0052980221793559 N
   0.6635912710390928    0.1223485916931946    0.2596247611897476 N
   0.6676297583964197    0.1272504673862453    0.5009356330120074 N
   0.6701360288386025    0.1181033667898065    0.7494265374587170 N
   0.6602819052570829    0.3746545585596245   -0.0020380599891569 N
   0.6679127761012316    0.3739425517670129    0.2553091490706168 N
   0.6696769786846382    0.3712683196717735    0.5011981622088202 N
   0.6696944803474735    0.3733666800530024    0.7448991420979851 N
   0.6633911950736291    0.6260840650399836   -0.0045250423325666 N
   0.6625067980034670    0.6197039648528488    0.2465495891664502 N
   0.6598737525082856    0.6277135116635486    0.5050497546033760 N
   0.6624965762278161    0.6226218743339434    0.7480219458824968 N
   0.3363418647744131    0.8776939627517352    0.5034663521441415 N
  -0.0035691123130858    0.4992784994937386    0.1256697998583953 N
  -0.0056474651118551    0.7534637913915444    0.6220371510094240 N
   0.0012422351699136    0.5046349083365624    0.6226791653327598 N
   0.4935115601010561    0.1254438912889874    0.8697839072062943 N
   0.4981658874288838    0.1246510250635942    0.6235256502097843 N
   0.5050273814543700    0.1264999812700854    0.3783762664241411 N
   0.4943818559056779    0.1388254126197199    0.1251580878798219 N
   0.1647873038478583    0.8706312850789824    0.8659463974471229 N
   0.1654331475417579    0.8756571782055803    0.6261538598067997 N
   0.1641155139149303    0.8741720150546017    0.3765003391668372 N
   0.1812334346248865    0.8756091278301628    0.1272392881087871 N
   0.1636474221936492    0.6250868461168072    0.8707217657557983 N
   0.1625347008519882    0.6228127274343808    0.6297428962683649 N
   0.1669514094549840    0.6227181129845014    0.3811545389041143 N
   0.1672632618771393    0.6270755887808313    0.1278964965584848 N
   0.1725839863345799    0.3784183818563813    0.8657754522615682 N
   0.1701461385182090    0.3787627327324931    0.6288779465553422 N
   0.1639008353969562    0.3761248674689414    0.3810444857867650 N
   0.1664653989049715    0.3760714658783069    0.1297972970250865 N
   0.1700494499820233    0.1231438843271788    0.8708708273297669 N
   0.0033739573005813    0.5035632220664858    0.3757590166866914 N
   0.1678811851819574    0.1302476986687116    0.3751377076126463 N
   0.1676535524367986    0.1242977674709016    0.1248607698881717 N
   0.6685634002008345    0.7463476202712401    0.8767982951572836 N
   0.4984056981859877    0.3742829422741221    0.1248668726094189 N
   0.4988165500852402    0.3755498658624071    0.3773367063341621 N
   0.5016733924535020    0.3752023434403331    0.6248334844154877 N
   0.4943212821370382    0.3776303523245759    0.8758572234519497 N
   0.8423629171591492    0.8765131540619174    0.3714115817562040 N
   0.8383679380244540    0.8774786086593556    0.1222987003878301 N
   0.8331484447110321    0.6271397098176807    0.8798061930865519 N
   0.8272449744032764    0.6311392833210414    0.6254030756913549 N
   0.8467582806991445    0.6268266113508840    0.3709056969319646 N
   0.8357979319003938    0.6213442901177569    0.1151399227657642 N
   0.8304777527096384    0.3733048731361911    0.8725409089789430 N
   0.8248848576448532    0.3732088396598077    0.6258459929720296 N
   0.8313748921599816    0.3680895242777215    0.3791282959007998 N
   0.8313831635813044    0.3744616781844590    0.1330008422104719 N
   0.6727937929449028    0.7487892021307033    0.6192460483568646 N
   0.8414409715684629    0.1291318959431501    0.8710623325244816 N
   0.8327438208203616    0.1235115169856145    0.3821316932096401 N
   0.8373537704591218    0.1156995088597648    0.1267488268865672 N
   0.4988050427986938    0.8750717071667201    0.8803562444627550 N
   0.5003865827685149    0.8762805695738402    0.6198181513206735 N
   0.5030966649737423    0.8733413901029393    0.3771731633593043 N
   0.4992457920246013    0.8689152540190243    0.1227833803624612 N
   0.5045306210807670    0.6243011683521796    0.8740634305071097 N
   0.5096995798966982    0.6258372724521402    0.6237064606413482 N
   0.4948982611234282    0.6252581639029212    0.3787123512217558 N
   0.5011138258908784    0.6228441248808191    0.1219103947252548 N
   0.8259413781280047    0.1236047493292602    0.6266178101621555 N
   0.6617114329625831    0.7560265456874052    0.3808979715706980 N
   0.1616341849045469    0.1251968168778900    0.6278872267008332 N
   0.3335084471357458    0.7613179739151638    0.6238282463544289 N
   0.6700137456546500    0.0083549090156505    0.3771961593813689 N
   0.6691943747123421   -0.0036116458205414    0.1274733147997678 N
   0.3348361492624202    0.7528440178082734    0.8795931481489637 N
   0.3306374989947084    0.7479274646759205    0.3711188609778833 N
   0.3322777680065446    0.7508527582008896    0.1262642574645628 N
   0.3345949108610654    0.4970012182448856    0.8742637065119874 N
   0.3327666662673838    0.4968949934689517    0.6271169430680565 N
   0.3318197945948517    0.4961117269335998    0.3795846974036327 N
   0.3313801069106903    0.4974753062873962    0.1297818674594244 N
   0.3414712085149523    0.2532532018092268    0.8717246747057190 N
   0.6704417128377305    0.0002807872156656    0.6282085317792009 N
   0.3330356027296673    0.2524692827289080    0.6180646082767116 N
   0.3403401409199047    0.2540453238079775    0.1290957775449069 N
   0.3400344721607189    0.0018739932255810    0.8747626644941702 N
   0.3312676533987180   -0.0017496781955083    0.6276982071450260 N
   0.3261715147201215   -0.0002665652766617    0.3782522164796921 N
   0.3408369534151187   -0.0018398218344899    0.1227318465094680 N
   0.0014339146454659    0.7456295911038020    0.8775448392623635 N
   0.5012069678787078    0.7486619342456946    0.0001858997745615 N
   0.0041659843561802    0.7538560460167667    0.3747152826982174 N
   0.0083718552163134    0.7446019544667395    0.1289733926298825 N
  -0.0019898631585727    0.5033566055953235    0.8767562151537007 N
   0.3382972745337657    0.2484030788565522    0.3785743147994760 N
   0.6648322787426667   -0.0041127343846215    0.8789251877595683 N
   0.4991258840059647    0.7505214536653055    0.2515323761395570 N
   0.6606960924738217    0.4988376449492160    0.1258409088178571 N
   0.6691264867358770    0.2512464494196045    0.3815097365667361 N
   0.6651717169384309    0.7400891349648661    0.1214049048741998 N
   0.6627065439333524    0.4922080750172917    0.3775573625784872 N
   0.6651266263292821    0.5057271359719793    0.8712313312978389 N
   0.6668984396729712    0.5011280337165938    0.6276969602256879 N
   0.6588805720312219    0.2537045338229584    0.8706092440019604 N
   0.6546360877492556    0.2582937386674521    0.1292972615488986 N
   0.6700529049351486    0.2505079116060193    0.6205529875632467 N
   0.1660030093158720    0.8757728414672530   -0.0029675323571513 Nb
   0.3318236099073811    0.2471716142395120    0.7447251102904421 Nb
   0.8310729272618972    0.1281577632364206    0.2580110521411821 Nb
   0.3248468094229282    0.2461289798216757   -0.0018626889793240 Nb
   0.8315402487020193    0.0004487568247452    0.8771652339474673 Nb
   0.8252078066534381    0.2441576352734406    0.1170908628353776 Nb
   0.0119476306202321    0.8694202844120272    0.1256409224806839 Nb
   0.8260968558406826    0.3806387813289160    0.0046168740616166 Nb
  -0.0083197834211770    0.5011199428846501    0.7490017166984764 Nb
   0.8337599081208102    0.4999305349244712    0.3729429559613612 Nb
  -0.0033479780697598    0.3749627880530301    0.6256131598172980 Nb
   0.8311048861951083    0.6215474792947974    0.2422368435103444 Nb
   0.8363502325861439    0.7508161625051430    0.1257079913944379 Nb
   0.8282012147546702    0.7507111769807657    0.3801807500146259 Nb
   0.3359396208503478   -0.0010374069795317    0.2501021009789047 Nb
   0.8351400598768661    0.1217380805960809   -0.0026649073521961 Nb
   0.6681621758302496    0.8671760355937872    0.1340027381924661 Nb
   0.1704215462955542   -0.0053864646718797    0.8719841217381663 Nb
   0.6656980399245715    0.1223859671953931    0.8779161882086514 Nb
   0.1678775197524047    0.2501464346915281    0.8710382778028752 Nb
   0.1688174639986918    0.3743394639544806   -0.0034664963040503 Nb
   0.1665990394075435    0.1259881654886483    0.5020362718184855 Nb
   0.6634775445634554    0.1277097512516175    0.1331987694317966 Nb
   0.4984015175471421    0.1275870835362333   -0.0001253272499211 Nb
   0.6682205917845494    0.7519648162762457    0.7517872853159868 Nb
   0.6736914905576181    0.7463004564177385    0.2508774609717834 Nb
   0.8346822224217183    0.6298846294285467    0.7539569863061445 Nb
   0.4990987893432626   -0.0025218131572991    0.3689847435385859 Nb
   0.4924682817330423    0.1211133131556943    0.2515814684015659 Nb
   0.6727684607798144    0.6232913308282156    0.3750321121709769 Nb
   0.3375787847273133    0.6308341478884060    0.6221845754263612 Nb
   0.6720128924020120    0.2409503633195120    0.0009780015511642 Nb
   0.4942049394933797    0.3814463865707363    0.2540835334580608 Nb
   0.3320968289811952    0.7498954336671456    0.7535213910541586 Nb
   0.3232587014394471    0.7493163023208138    0.4943617222000310 Nb
   0.4974171039842947    0.3734563301293409    0.5004586854185034 Nb
   0.4960253874919009    0.3760426665893754    0.7482367200609619 Nb
   0.4969651229589033    0.8734534584333139    0.7521869186514145 Nb
   0.8344063006077269    0.6246705068983738    0.4965981827544404 Nb
   0.0019241504673212   -0.0060517794768059   -0.0035956549553569 Ta
   0.1765142605599701    0.2515170150284757    0.1212321691979757 Ta
   0.6718870239632012    0.2526686396641387    0.2567965079781491 Ta
   0.6625595295608404    0.2401829888230466    0.7407829144611763 Ta
   0.0067697803199609    0.1294876008465185    0.1158477113732036 Ta
   0.1673422389903590    0.5049950986757286    0.1296729519959165 Ta
   0.6678346561552211    0.4981752360008931    0.5038876023628666 Ta
   0.6693681710190459    0.7507986059086446   -0.0022249109616773 Ta
   0.1664638229490227    0.3797025775647103    0.2608410465135739 Ta
   0.5015680306187390    0.7538128528124491    0.6234636227714655 Ta
   0.4963237383714199    0.7482865229714996    0.3737306543862364 Ta
   0.1670832798432216    0.8722061724275758    0.2533221818680459 Ta
   0.4994616980592095    0.3792376580559975    0.0039063416508629 Ta
   0.8345753384677003    0.1253673489632648    0.5063601244117869 Ta
   0.8424068413430057    0.3718069529608750    0.7481137880185201 Ta
   0.1715194710577626    0.7505747194058102    0.8755328751855302 Ta
   0.1650588149863256    0.7500252114531694    0.6207284980708034 Ta
   0.1544396920675619    0.0065141518639489    0.3746998866877403 Ta
   0.1604931183905494    0.5040128884100911    0.8701746492288094 Ta
  -0.0083460443388105    0.3786583676220909    0.1224834443952124 Ta
   0.6717601013020799   -0.0000604339905893    0.5031009082282323 Ta
   0.6681643463266571    0.5042131568354412    0.0015330545130139 Ta
  -0.0033392251511447    0.7545381800347948    0.7546412481714212 Ta
   0.6587066163022776    0.3822611290130039    0.8677286557130661 Ta
   0.0016654923442111    0.2453999352703204    0.2602097574494264 Ta
  -0.0029549419443299    0.2496905999623500    0.4997638482138151 Ta
   0.3354880306045974    0.7529823687761373    0.0054524398653057 Ta
   0.3327747853251709    0.6240728529145904    0.1292312306037600 Ta
   0.3386774282059966   -0.0061081216604725   -0.0004183312760309 Ta
   0.3305800459702946    0.0012291888945244    0.5020297827817097 Ta
   0.6750321231262294    0.8774269791657829    0.6274813740040406 Ta
   0.3326700741225198    0.2587174971886595    0.2584287989536512 Ta
   0.3457589873553330    0.5038792566207975    0.7491628729825933 Ta
   0.3298172262891240    0.1223062150635950    0.1262407622117841 Ta
   0.3327993156446997    0.5028049041892773    0.0012689099429055 Ta
   0.3323433231875524    0.5014868848076010    0.5030896035169115 Ta
  -0.0049035294239862    0.8795846968244212    0.6151172445644449 Ta
   0.3315739709213075    0.1237230983575821    0.6270996372981966 Ta
   0.6652298461179370    0.4974676495880321    0.2513703365445858 Ti
   0.1623161903195862    0.0018051480217458    0.6232474261929749 Ti
  -0.0018120055966366    0.0007417086155047    0.4986828530028509 Ti
   0.1643455419421835   -0.0020356774040652    0.1256779183327913 Ti
   0.8376220847561765    0.8731473534976835    0.2492327229945749 Ti
  -0.0013971730710075    0.4988479475137010    0.0006642824526273 Ti
   0.8351156233837415    0.3726818174330611    0.5023187405606119 Ti
  -0.0030536656468016    0.5024021745409618    0.2523113777246980 Ti
   0.4996433050588099    0.6253621877416422    0.2516357701875877 Ti
  -0.0014986208704057    0.5042425428905610    0.4989696441356863 Ti
   0.5021282458732925    0.1240370398984369    0.5007990507291925 Ti
   0.0009963345783629    0.7479456909578718    0.0023089799519777 Ti
   0.1659538693530316    0.6260555596659017    0.5037498343302913 Ti
   0.1639125608102298    0.6246192310540517   -0.0005235855240089 Ti
   0.1616685941874194    0.3778845273012831    0.5040042232507274 Ti
   0.1654977366306857    0.1254026270016894    0.7489642240013106 Ti
   0.8365497258173138    0.1211409871528397    0.7480506430813514 Ti
   0.3327285612529422    0.7485444071731345    0.2492901216556920 Ti
   0.6651912721305511    0.8728087347514333    0.8739790413614014 Ti
   0.1657229740979239    0.2496417729441300    0.6242082729829489 Ti
   0.3317722502614125    0.8738057260286772    0.3780774466061416 Ti
   0.3380329609596707    0.6236940058649896    0.8752434458577474 Ti
   0.3374059917409190    0.1241494447155854    0.3752904123465672 Ti
  -0.0071848256923273    0.6281037098681357    0.6221594025625149 Ti
   0.0018551004316812    0.6235180056438143    0.1241701933976135 Ti
   0.0005199576203195    0.3754995908007885    0.8762218698308475 Ti
  -0.0045634259817427    0.3779215332502976    0.3748543397030337 Ti
   0.8355573749232124    0.5041755251309149    0.6260900997941256 Ti
   0.4993185633146991    0.7506433629360659    0.8742464848350160 Ti
   0.5004357312801696    0.7453613078984473    0.1277043398977493 Ti
   0.4959562297345601    0.5001364255811871    0.3748656474985071 Ti
   0.8338890456045539    0.5000592904208399    0.8732989194088706 Ti
   0.5037557668518481   -0.0006667438128290    0.8740752643797517 Ti
   0.5017400735228758    0.2512594187078087    0.3793404279088986 Ti
   0.1659343458059925    0.5012847682170680    0.3787703621785650 Ti
   0.4985404886131037    0.2489484404700957    0.6232164286585550 Ti
   0.4996653148996941    0.0011130680979147    0.6295379905181051 Ti
   0.4962707620604756    0.4993860685778716    0.1291489388215854 Ti
   0.6758751493185683    0.3806908722722847    0.1265244832349352 V
   0.3292208007961635    0.5058756028415583    0.2624732686559351 V
   0.6746165552036421    0.6178318558356312    0.1240720695798012 V
  -0.0146101489420852    0.8690073827558187    0.8709033528980141 V
   0.3289629460655523    0.2576733000995692    0.4944415269775252 V
   0.1663104983465053    0.7401080362995871    0.3727530360675951 V
   0.3355904521345301   -0.0038644781675449    0.7550332786739115 V
   0.3271060432347422    0.3755162384477980    0.1166403969870723 V
   0.3273040234143218    0.3675665274447351    0.3839291343026899 V
   0.8233065837737124    0.8809382552311176    0.4879651699437599 V
   0.3416222198426733    0.8756323443526539    0.1362806648823288 V
  -0.0052914460879339    0.2436179771038801   -0.0042366790318274 V
   0.3369200939538194    0.8824529569311151    0.8630513125714784 V
  -0.0090994194053492    0.2433705332496206    0.7407128258054738 V
   0.6576901136242256    0.1233695815615609    0.6307508558719516 V
   0.3229419696940434    0.6217909833711261    0.3675326576144319 V
   0.1666629055764086    0.7542501208824415    0.1264171998360289 V
   0.5023292192531670    0.4982388095277827    0.6194329501422675 V
   0.5017515377970057    0.8781891947817834    0.2479389847724564 V
   0.5074495653367144    0.1207648728349142    0.7424494670931530 V
   0.5022483197266399    0.5027264630016852    0.8621404229626024 V
   0.1677605917645490    0.8702164558795340    0.4945491578866307 V
   0.1671441847645018    0.6284660142527079    0.2630456769321797 V
   0.8257295601002448   -0.0062978820708915    0.3692141539969169 V
   0.8421278711024837    0.0014322390706418    0.6288109015718909 V
   0.8325065808196164    0.2443156880471552    0.3725773471944259 V
   0.8433062822746193    0.2446939938882835    0.6320276641938058 V
   0.1551628053957484    0.1253060545842253    0.2595830358581122 V
   0.1697457952307049    0.1307399491044250   -0.0112596855925895 V
   0.8193268350527851    0.4989559964223127    0.1232697274608944 V
   0.8289656108848822    0.3769866070961725    0.2595549736672226 V
   0.1797138068365900    0.2538983536496112    0.3827945840204570 V
   0.8409758962096662    0.7498943466403022    0.8690496318309217 V
   0.0049571842322617    0.1260149819095414    0.3665153600252905 V
  -0.0130626376687160    0.1256279447087937    0.6344110040613025 V
   0.6791636371702930   -0.0071408496754312    0.2573360034574664 V
   0.0130546862539887    0.6338997227881272    0.3699456796998483 V
   0.6790734807873172    0.8872244969848921    0.3768842938764595 V
