Ag19 Ge154 Bi10 Sb9 Te192
1.0
  18.1491478796743131    0.0016761398465841    0.0055756627404574
   0.0022314055459632   24.2315864915652703    0.0133799253820114
   0.0074329471182196    0.0133880698449430   24.2567124883552943
Ag Bi Ge Sb Te
19 10 154 9 192
direct
   0.6703101810950663    0.8745277611904759    0.8822410484489248 Ag
   0.3351362917725254    0.1188554539110747    0.8700253858345933 Ag
   0.3238212984668389    0.1301197165916749    0.1130274026279839 Ag
  -0.0176007536767321    0.6264007670065475    0.3738549878938585 Ag
   0.6689743515997537    0.5049532180025762    0.7547157472652248 Ag
  -0.0109591155766358    0.1169785852411641    0.8745442158503518 Ag
   0.1627075467982330    0.2473205130733250    0.8731090425242132 Ag
   0.3387320545393778    0.5163347819631657    0.2526889166352184 Ag
   0.8327377906770183    0.5047649254958034    0.1193556234182568 Ag
   0.4996334694753538    0.7459284645055252    0.8737498127207023 Ag
   0.4799352880773965    0.5905541004514469    0.2240136503636863 Ag
   0.5035435705611152    0.8774746261047328    0.7592548274329272 Ag
   0.8337296203587379    0.1224336004812129    0.4909387732690182 Ag
   0.1537217223640081    0.0133486675892343    0.1206092531855584 Ag
   0.1761053520875402   -0.0023180381770989    0.6218550412873725 Ag
   0.4917689386407955    0.1162273722164547    0.2401534191642921 Ag
   0.3330655473896920    0.6207784227775143    0.8736409956474717 Ag
  -0.0028831418945725    0.1125834830477585    0.6300307259948577 Ag
   0.6612918366006009    0.8731964390981354    0.3927740658386671 Ag
   0.1735204378618858    0.2478472286101515    0.6213266416988540 Bi
   0.6653571714407378    0.2361452842837136    0.2436823316805619 Bi
   0.4985426673862808    0.7427323544837782    0.3638004609863365 Bi
   0.8369403715254251    0.3723105744104300    0.2531321483387857 Bi
   0.0082819251693023    0.2406140350409363    0.4982278641634633 Bi
  -0.0010730832147348    0.4986756024047210    0.4981637862922930 Bi
   0.1657423572024558    0.1225067479765652    0.7471569124497592 Bi
   0.0065997438119751    0.5154995159966121    0.2432040023204594 Bi
   0.8366685238389086    0.7503671949050805    0.6316684415706069 Bi
   0.6640416792738000    0.4932619440255719    0.2542367853446818 Bi
   0.8190666364227640   -0.0017084029306015    0.1281323126399221 Ge
   0.8486139233228595    0.0024920642909254    0.6234705083487264 Ge
   0.4935295011940383    0.4893896902523434    0.3862192137608217 Ge
   0.8292916358992974   -0.0007598252146648    0.8790638999004989 Ge
   0.8396484810536059    0.2517621140362435    0.1203849169479032 Ge
   0.6682107021484308    0.6163344725268676    0.1144874217004597 Ge
   0.6562844294238757    0.6242106904167734    0.3733637584412010 Ge
   0.4911027449635226    0.7563999096965344    0.1162656794642377 Ge
   0.5032810657861114    0.4986514044800042    0.8770320524902970 Ge
   0.8407184383558681    0.2419723262202583    0.3751934505896030 Ge
   0.5031497162366285    0.5065023803246945    0.6353804997108804 Ge
   0.8296599072922363   -0.0008978560561344    0.3759429848350761 Ge
   0.6539368068825561    0.6405440633835888    0.6165888137987722 Ge
   0.8345131458478361    0.2478494116953441    0.6270527541512795 Ge
   0.6786153794245309    0.8931237691055811    0.6354729076294799 Ge
   0.1677696807374130    0.5209759619555285    0.1172890355147534 Ge
   0.1649670867491423    0.5000367869295850    0.3620407055782877 Ge
   0.1730921347845963    0.5005081510591504    0.6255410087838522 Ge
   0.1693599650126683    0.4919644138350572    0.8737981058246307 Ge
   0.1667060928691327    0.7707092857476753    0.1237409436977847 Ge
   0.1637078748021280    0.7442953845220021    0.3656551119436448 Ge
   0.1738191723173275    0.7468828071767895    0.6269238712654739 Ge
   0.1724255865478695    0.7506210160375305    0.8801228352024848 Ge
   0.4842720231430470    0.0020327956810262    0.1298624295435696 Ge
   0.4955047630034510   -0.0077653410333876    0.3810102605101697 Ge
   0.5045296749919852    0.0153233624612471    0.6333083505647724 Ge
   0.4907498193168111   -0.0099232056785959    0.8802498064703568 Ge
   0.4966874160436481    0.2436229366388810    0.1109661044389325 Ge
   0.6611531449045625    0.6302413077580494    0.8704932094029739 Ge
   0.5102298281451011    0.2415087626376260    0.3700468362933128 Ge
   0.5054894778861481    0.2561746917328846    0.6168470929299351 Ge
   0.4950206190847308    0.2451793029546185    0.8657854366624161 Ge
   0.8355498971111132    0.2428693721226490    0.8740064975503384 Ge
   0.3342787078904033    0.8690327810404406    0.8832551173249270 Ge
   0.8202313492767568    0.4996763490034239    0.3779956497711699 Ge
   0.3350281335042381    0.1281897487710266    0.3622255951684737 Ge
   0.3314328095213978    0.1281446972187094    0.6127741745940815 Ge
   0.6627904202594085    0.1295119772891786    0.8648930337756926 Ge
   0.3341202770125045    0.3853824172928128    0.1288663187924084 Ge
   0.3467188443746952    0.3750485828088314    0.3767409762878833 Ge
   0.3369236444658180    0.3801873103307256    0.6341862729146321 Ge
   0.3338159339011360    0.3690241795491196    0.8803859325434299 Ge
   0.3333715774707495    0.6323444222896575    0.1188670798852819 Ge
   0.6720746116237076    0.1344082894292253    0.6185382247962088 Ge
   0.3269185210418816    0.6191842124325339    0.3767480758047081 Ge
   0.3353299286465108    0.6254258486118791    0.6230889934848232 Ge
   0.6651341961361664    0.1130332920646104    0.3730020835269185 Ge
   0.3117551135840019    0.8944798806298850    0.1388265757040635 Ge
   0.3374347278428534    0.8755655647093511    0.3841564903592734 Ge
   0.3360895845612665    0.8856845962591195    0.6347998933178572 Ge
   0.6589912484235010    0.3666390547377367    0.1241158166494516 Ge
   0.0001917449770061    0.8721101956118781    0.8793323729101012 Ge
   0.0148324781850422    0.8713032372743291    0.6341506348356587 Ge
  -0.0072563423261613    0.8898588909200791    0.1290905833830488 Ge
   0.6619064706821008    0.1136935325017051    0.1132694528959511 Ge
   0.8336577315833072    0.4962773799604239    0.8747777223737518 Ge
   0.8299330989043456    0.7526785639296840    0.1284746722098611 Ge
   0.8300416876220820    0.7519295516221762    0.3768036627892669 Ge
   0.8337646970861619    0.7517190858098842    0.8810120930459671 Ge
   0.0011551612482314    0.1342266665448622    0.1205504526487554 Ge
   0.0090838870407426    0.1255875235430286    0.3684467188274084 Ge
   0.6675920633205481    0.3742637918938164    0.8773656440989526 Ge
   0.0062013759988751    0.3899078559989974    0.1228991478773569 Ge
   0.0000518703115367    0.3689833951971498    0.6365103306818489 Ge
  -0.0005002489008775    0.3675299216249677    0.8789487797133951 Ge
   0.0023975048271860    0.6460034447246606    0.1263254484519445 Ge
   0.6661192307374993    0.3833858271347680    0.6335822522724582 Ge
   0.6713792007298633    0.3696262616552674    0.3887082087749169 Ge
   0.0016553850192533    0.6181760803385140    0.6194912376347473 Ge
   0.0066633284460604    0.6205501008977008    0.8773719118603923 Ge
   0.0118276891630263    0.3736077872643427    0.3796958710200334 Ge
   0.8315683650532334    0.4963960558554204    0.6281062502786406 Ge
  -0.0035815393050011    0.0034597122449459    0.0008883469529897 Ge
   0.1709583567649896    0.2598876766985385    0.1164733475792874 Ge
   0.3349341071416867    0.7423997945710274   -0.0035375180176348 Ge
   0.3305744249728315    0.7544055160141192    0.2415766908323454 Ge
   0.3241433969581966    0.7472894065424306    0.4913878351596914 Ge
   0.3438481445785330    0.7562446344436438    0.7483245635599111 Ge
   0.6639843437912644   -0.0103407925379236    0.0026910151551325 Ge
   0.6505259510059717   -0.0117466876899263    0.2560854641439300 Ge
   0.6700195226820880    0.0053546623196338    0.5095659412993587 Ge
   0.6634400040674269    0.0003871857595398    0.7631273578558937 Ge
   0.3442679531370810    0.4989727346077582    0.7574933525239402 Ge
   0.6738386525937115    0.2426142516012821   -0.0065739320764751 Ge
   0.6667315725642408    0.2552324303464460    0.7470835955755463 Ge
   0.6696286743142372    0.4907436148468642   -0.0031900261589800 Ge
   0.6614983491091179    0.5046659137533293    0.5115630007650200 Ge
   0.6660590959505753    0.7438179911449802   -0.0019683405882458 Ge
   0.6596856697754631    0.7426884615674471    0.2453124571947701 Ge
   0.6637523928322309    0.7594970517570199    0.4999280867326805 Ge
   0.6642212054098036    0.7564116634803313    0.7528590951531366 Ge
   0.1744764834666105    0.1293700339987317   -0.0045282010074270 Ge
   0.6714675931102257    0.2561812825850390    0.4981427897851943 Ge
   0.3324775428459469    0.4960185927525395    0.5031253251320914 Ge
   0.3401395877474371    0.2497453662458979    0.7461454581417958 Ge
   0.3459194201172393    0.2438018084666682    0.4871559261541847 Ge
   0.1794594172968835    0.2530912701323643    0.3673812336746151 Ge
  -0.0137698426397759    0.0152191379591705    0.2465734253372038 Ge
   0.0113902300717710   -0.0055918711353587    0.5035301192484385 Ge
  -0.0050052195148742   -0.0068682372485214    0.7538284732232835 Ge
   0.0051852123998550    0.2469916324050631   -0.0033828071761781 Ge
   0.0074371635897305    0.2592042713965782    0.2409634152317154 Ge
  -0.0034338392769897    0.2400835675686157    0.7533704088925098 Ge
   0.0012327473417199    0.5015722504728982   -0.0065038020982518 Ge
   0.0049747065829655    0.4968917352310225    0.7504855178975839 Ge
   0.0086987027524890    0.7562013559704038    0.0038606732452349 Ge
  -0.0003327193224385    0.7637748251933552    0.2526466078899655 Ge
  -0.0083979826439325    0.7489774639857719    0.5060365184893248 Ge
   0.0098821425809797    0.7438547237865983    0.7596547901375308 Ge
   0.3274572357946574    0.0011791754532759    0.0004373491526954 Ge
   0.3271123173375365    0.0060952845158988    0.2587634044002851 Ge
   0.3351645016380323   -0.0071310076312108    0.5049583062366428 Ge
   0.3317885180075163    0.0030730584954734    0.7565087244608169 Ge
   0.3391683324583517    0.2454192440601225   -0.0081492750249198 Ge
   0.3321695024871456    0.2527862907393594    0.2359202236835205 Ge
   0.1661555253202839    0.1390699142676901    0.2411680346975289 Ge
   0.1671923251882894    0.1156340868479237    0.4893242491511126 Ge
   0.3401272970669738    0.4943322121041875   -0.0003905269590182 Ge
   0.1720184917492599    0.3892023505959322    0.2483898072679133 Ge
   0.5041198529682874    0.6377331811893178    0.7452088380239987 Ge
   0.4802535535545105    0.8707922385874707    0.2558769965463741 Ge
   0.5006557343256107    0.8739980643050694    0.5225890455354655 Ge
   0.8336423165508396    0.1221362114583191    0.0010014911031334 Ge
   0.8164830805309490    0.1181774162723432    0.2462760992138149 Ge
   0.8281419228544727    0.1198655383137784    0.7455767664058252 Ge
   0.8410300411351560    0.3737256169425406    0.0021712590387283 Ge
   0.4887153937085067    0.6183065634828525    0.4950386611806752 Ge
   0.8340649978126219    0.3703597470807212    0.7573391457715222 Ge
   0.8199041101145512    0.6255878830691667    0.4944346073467260 Ge
   0.8343148372121335    0.8749365009674451    0.0084571331456187 Ge
   0.8173629171246390    0.8727689100978148    0.2542093327722559 Ge
   0.8331482304082398    0.8810258529815490    0.5076407003590795 Ge
   0.8348540820980463    0.8753911516436548    0.7605113469153634 Ge
   0.1716311579993319    0.3751544055116933    0.0030948780076909 Ge
   0.1596770949096329    0.0038906768533790    0.8766369578455844 Ge
   0.8175120085255654    0.6264405854672316    0.2468278847061383 Ge
   0.5009163685896241    0.6123530235290590   -0.0082422648871823 Ge
   0.8409258194004208    0.3703081151758761    0.5060311025418667 Ge
   0.5017166215080899    0.3781144773039065    0.7553400500309395 Ge
   0.1844994875459136    0.3769810144671041    0.5016294184178746 Ge
   0.1652470149681480    0.3719888407742984    0.7551564591410652 Ge
   0.1692418853712579    0.6436405150671374    0.2448001013715505 Ge
   0.1606967319697432    0.6264764011988809    0.4972928304602430 Ge
   0.1653485397514435    0.8827454769239386    0.0016407169246080 Ge
   0.1512599468302005    0.9032449419433702    0.2764926567260959 Ge
   0.1648324341443213    0.8701679019640153    0.5109987741073115 Ge
   0.1745304108949020    0.8727007965391240    0.7588970560516116 Ge
   0.1705286665806401    0.6222292753974433   -0.0011721835636874 Ge
   0.5036402323061160    0.1181084699114194    0.4912966530488553 Ge
   0.5051538197565616    0.1191121846535032   -0.0096120465569860 Ge
   0.5067646809186254    0.3731391327842001    0.5077376169131890 Ge
   0.5002073808538522    0.1275447557634065    0.7398576666739808 Ge
   0.5059088712760695    0.3680310008099217   -0.0013867944422274 Ge
   0.4948163426629619    0.3595076814684094    0.2476756975114490 Ge
   0.1587949700377909   -0.0153153473113158    0.3600578460493768 Sb
   0.4940146514923239    0.7816777286032154    0.6029761616698847 Sb
   0.4930381805977451    0.8699207432228910    0.0021648371971479 Sb
   0.6471628942675401    0.8634620874043728    0.1296684214812665 Sb
   0.8356991574088821    0.6200284036260463    0.7472018226393741 Sb
   0.5040721222891639    0.5053403644951254    0.1412994951069073 Sb
   0.8385790918440542    0.6261214491360694   -0.0017473186277095 Sb
  -0.0089819534515557    0.8709973871401654    0.3771611523787593 Sb
   0.1778217365136658    0.6238564185536576    0.7527031170416407 Sb
   0.6637080398825274   -0.0077944143335425    0.3771039991660467 Te
   0.3376940307005853    0.4992016957456034    0.8784065845154594 Te
   0.3295967936591493    0.7544407284939140    0.1195896676215154 Te
   0.3369919151557846    0.5020572451937013    0.6262033777441337 Te
   0.3257586166975825    0.7453017482542771    0.3695491122520783 Te
   0.3354856826841303    0.7473949701867465    0.6283135057313237 Te
   0.3347907855088965    0.7470725627692801    0.8748672481549277 Te
   0.6571390207686391   -0.0071486466729934    0.1255788819019968 Te
   0.6672605958058933    0.0119167367378830    0.6301140806815363 Te
   0.6690769370536717    0.5048598984008408    0.6325528686309841 Te
   0.6630261221162115    0.2447707292532158    0.1154840161282538 Te
   0.6740631254434920    0.2466760175331309    0.3754557906025788 Te
   0.6699168148319059    0.2572333572293807    0.6228561692229272 Te
   0.6708013925899091    0.2516533534903291    0.8716100502447450 Te
   0.6705431378843535    0.4923683787272297    0.1221429222870178 Te
   0.6599231024194951    0.4962603827940594    0.3844488253268896 Te
   0.6667615346006450    0.7384116266221324    0.1211002967067182 Te
   0.6704959473548076    0.4966914433867868    0.8760306067602462 Te
   0.3270752600627786    0.4976981305149847    0.3744351595051859 Te
   0.6675453998373502   -0.0044610003538275    0.8811849374200709 Te
   0.3308349169223455    0.5059018102626047    0.1208004041910848 Te
   0.0090001687968802   -0.0066998997039067    0.6261175489687077 Te
   0.3438042403294957    0.2557492170760114    0.6235746426511749 Te
   0.6695986948531485    0.7510342389748296    0.3804497547046972 Te
  -0.0050146328666715    0.0034181134746834    0.3711876512759691 Te
  -0.0040587907692208   -0.0033434205639607    0.8768823196156164 Te
   0.0041859804921899    0.2572913702290630    0.1188291807879486 Te
   0.0034231948578007    0.2513457300363348    0.3696095906504172 Te
  -0.0018670297307921    0.2465361992158439    0.6286290903934344 Te
  -0.0012106932895276    0.2444269467572224    0.8739938334884245 Te
   0.0041167841560900    0.5110022991302579    0.1152649742297423 Te
   0.0046752437223980    0.5050882657515697    0.3709932347930791 Te
  -0.0009992793956740    0.4948873229807840    0.6281091256262291 Te
   0.0046162942869603    0.4965572684636012    0.8727339587418983 Te
  -0.0062655386974690    0.7655577284108258    0.1282124970469080 Te
  -0.0063372323622740    0.7471678113370656    0.3767809295290976 Te
   0.0095310556906230    0.7489556164476520    0.6275488919254759 Te
   0.0089175377957197    0.7496083410528277    0.8806471571970316 Te
   0.3237538211978513    0.0095265550782054    0.1213943352893664 Te
   0.3303894450600446   -0.0023369400920853    0.3800402855413422 Te
   0.3374270091680970    0.0055565334010415    0.6267333518878127 Te
   0.3319099957703146   -0.0009427200092270    0.8778066243471467 Te
   0.3332512687831932    0.2483103815552228    0.1150320814038835 Te
   0.3422840811179720    0.2507708825428450    0.3675879781409522 Te
   0.3333166665230732    0.2479418037465376    0.8700910795616221 Te
   0.6638275223491539    0.7569382387154820    0.6283389018493750 Te
   0.8368067974731659    0.6215558848582738    0.6187921190500006 Te
   0.1626465854825616    0.1360433898079970    0.1181175192826472 Te
   0.5003519230425243    0.6268293336109135    0.6238455993464671 Te
   0.5012006929663428    0.6246467874139717    0.8722035348358150 Te
   0.4789107608545479    0.8790896659010327    0.1330169016362405 Te
   0.4997765320310746    0.8722516411133795    0.3766720894302236 Te
   0.5081504225355552    0.8944780493953997    0.6419364141538647 Te
   0.5000713387038945    0.8741019026413810    0.8772171994910132 Te
   0.8246947164640054    0.1232598391332658    0.1241765083174894 Te
   0.8300076572537908    0.1206201726645285    0.3701874920057120 Te
   0.8369928708605787    0.1239303235510516    0.6245413772159850 Te
   0.4910816251002258    0.6142704631547292    0.3736327485127149 Te
   0.8290654326332463    0.1211683766485888    0.8733839512451541 Te
   0.8344999422595757    0.3769156291383450    0.3817883391378723 Te
   0.8368732048276359    0.3727220536084648    0.6281698080197857 Te
   0.8360858524849032    0.3720848395753700    0.8799969942852843 Te
   0.8300928651773182    0.6252863166602761    0.1252689594502255 Te
   0.8236428591612324    0.6221395154065521    0.3725601179438340 Te
  -0.0091077265276701    0.0116185641327226    0.1254279541394518 Te
   0.8441234778538813    0.6216275866307104    0.8741531658280737 Te
   0.8255392885061309    0.8757602827181774    0.1319371130705854 Te
   0.8260097202391966    0.8751223857425980    0.3779292330497223 Te
   0.8427932378316788    0.3734700714082562    0.1239515415282107 Te
   0.5011223691889157    0.6248704434701629    0.1129575599326478 Te
   0.5000418113489222    0.3716148244317691    0.8767882377432707 Te
   0.5009715216692098    0.3808942040806135    0.6304452762258713 Te
   0.1721668543219882    0.1305793704170994    0.3687200514551880 Te
   0.1690491085377918    0.1189450776947215    0.6159017326591046 Te
   0.1678198483963913    0.1241126385255386    0.8759727173348748 Te
   0.1699122688079573    0.3816493789127700    0.1258446155776577 Te
   0.1735395212856722    0.3764121128674675    0.3784639154420208 Te
   0.1721051984557696    0.3774677061595191    0.6244222681573590 Te
   0.1680081976071510    0.3709524976446000    0.8765541626612937 Te
   0.1651448583141822    0.6427149574805454    0.1215287005397225 Te
   0.1654607279195871    0.6252139406293500    0.3712861040629746 Te
   0.1661233174544045    0.6228336991022738    0.6232006036437375 Te
   0.1695257805667753    0.6210105170689748    0.8779254232361614 Te
   0.1557855434948194    0.8907471764362553    0.1254310331588374 Te
   0.1712530883233753    0.8636095639592249    0.3899864946445650 Te
   0.1776305834332957    0.8768183403469982    0.6303648962685093 Te
   0.1689322324065472    0.8742497326335054    0.8794154604562809 Te
   0.5006945451524200    0.1224377610491994    0.1175064490221721 Te
   0.4989980832621930    0.1188495370687039    0.3703144376081124 Te
   0.4976941896920834    0.1336156008066038    0.6174296872757283 Te
   0.5020476403220295    0.1253448683386779    0.8692726065601570 Te
   0.4958929507783946    0.3668580057849449    0.1248718185726896 Te
   0.5090041046605995    0.3667703802466508    0.3858168889814466 Te
   0.6707451891027261    0.7510637537317922    0.8754187276928030 Te
   0.8450447021343968    0.7526532568169483    0.7596988488010070 Te
   0.1735707197787302   -0.0042041583037449    0.5020252724133806 Te
   0.8243638611610958    0.7491851470961786    0.2515320183281822 Te
   0.3357398640759488    0.3763902181589607    0.7558576717769097 Te
   0.3329496124765674    0.6218570361332141   -0.0043892786363566 Te
   0.3303590507790138    0.6325718376649110    0.2403354680609116 Te
   0.3250275494134149    0.6240001640787692    0.4993412181716823 Te
   0.3428350886430077    0.6201608429828583    0.7513750068165039 Te
   0.3279874351269418    0.8793040600493972    0.0041239787068113 Te
   0.3183136956882488    0.8822542516513975    0.2571886838843210 Te
   0.3393034099711391    0.8692784588662350    0.5064860235377597 Te
   0.3389511313100317    0.8779510641549332    0.7549640490675940 Te
   0.3446099190500376    0.3735170372818440    0.4990806894372862 Te
   0.6694044012740422    0.1207711271911619   -0.0071884106465012 Te
   0.6704729511910904    0.1243348999356726    0.4961854124072403 Te
   0.6636294489087347    0.1322074295754831    0.7427882736165571 Te
   0.6717917859454482    0.3674812754659656    0.0018767657300638 Te
   0.6627106301589287    0.3646264738356433    0.2498910856982675 Te
   0.6714770632237880    0.3784049993086847    0.5101659109816831 Te
   0.6706008358727105    0.3787087358954757    0.7545098888080387 Te
   0.6656925833814292    0.6205054991383882   -0.0077951780899953 Te
   0.6563700594628528    0.6217038064880622    0.2502093502726010 Te
   0.6580714228432870    0.6263202359002993    0.4987939031939471 Te
   0.6548379683300162    0.1089586787286786    0.2490020170715474 Te
   0.6679182869637890    0.6289757097312458    0.7497132994312101 Te
   0.3318343241279563    0.3729159825117637    0.2511687263391171 Te
   0.3393157514361345    0.1269322360537040    0.7491442057880564 Te
   0.8386485731813844    0.8801155273542741    0.6299946897127694 Te
  -0.0047477427261923    0.1254779141296839   -0.0047770915615796 Te
   0.0002022419791427    0.1361001343294002    0.2460656715484346 Te
   0.0000029831291659    0.1137548997546453    0.4940776652688411 Te
  -0.0080287568129611    0.1165263470213771    0.7501333512936432 Te
   0.0060419990339823    0.3795638981310642    0.0003450456854017 Te
   0.0087298855138858    0.3818375450912653    0.2522245203658937 Te
   0.0037066251868197    0.3700613421171385    0.5020372281389193 Te
  -0.0016166041384292    0.3702736602884442    0.7563606500275959 Te
   0.3346520064021358    0.3725053595476314    0.0025721516231970 Te
   0.0083680909737254    0.6328801391091923    0.0014081877774749 Te
  -0.0021132209949570    0.6283496128984334    0.4956213331501076 Te
   0.0059117154844825    0.6214396605047242    0.7487208741806063 Te
  -0.0019553843937799    0.8788644953919300    0.0025561506688754 Te
  -0.0050951602411458    0.8860045789234652    0.2518513690722956 Te
  -0.0029811277126703    0.8724915777480801    0.5044142504085981 Te
   0.0054426958129796    0.8711048732052791    0.7554870798850912 Te
   0.3371710058128428    0.1241576388662350   -0.0076376186197206 Te
   0.3314243256904092    0.1262994434372099    0.2417086076371658 Te
   0.3389485677851479    0.1234129504852261    0.4928591359916358 Te
   0.0032874570260815    0.6429544532373058    0.2469983192716406 Te
   0.6700449368193446    0.8671763035215787    0.0029773270356145 Te
   0.6555812760401650    0.8659757940417594    0.2519660617637171 Te
   0.6672710175405255    0.8803527346643814    0.5108844601608076 Te
   0.4908590314191621    0.4805638842345295    0.2636111114062566 Te
   0.4973580764481254    0.4978772697623898    0.5078707331457980 Te
   0.5072307649126732    0.4990853265533016    0.7557865334712460 Te
   0.5000158822034991    0.7443212561334823   -0.0042589637474169 Te
   0.4956541469557363    0.7478496016666175    0.2366375741682193 Te
   0.4928581602375819    0.7400766560759785    0.4921228934494709 Te
   0.5024507617951655    0.7545413585674438    0.7545258360039266 Te
   0.8306309778972005   -0.0015098597780720    0.0045477972111664 Te
   0.8244768846730067   -0.0033998409593934    0.2509438624205268 Te
   0.5059566621482531    0.4906904748949972   -0.0008193033945857 Te
   0.8322161610989903    0.0016692764945524    0.5022164974523614 Te
   0.8379769115841459    0.2477109217290178   -0.0014041390286760 Te
   0.8385126061234959    0.2437548903233436    0.2450547118710642 Te
   0.8333870631801997    0.2449289316403573    0.4967016129646609 Te
   0.8326880919569141    0.2474766204413777    0.7502981323582749 Te
   0.8355183682110278    0.4965139976813929   -0.0006419592812359 Te
   0.8348575475195753    0.5033988607027652    0.2448469279627848 Te
   0.8260495004533893    0.5014035729839458    0.4999055318146085 Te
   0.8339575981392343    0.4934460645255137    0.7521635884509973 Te
   0.8380601853011885    0.7523001353641785    0.0032357270651000 Te
   0.8299220466249512   -0.0022774122326933    0.7533425339745303 Te
   0.5038383086168623    0.2548552766228718    0.7446083962736094 Te
   0.5084509296494090    0.2450762294587082    0.4948941887089469 Te
   0.4934259491361263    0.2393118355820504    0.2470707277665100 Te
   0.6713453779492358    0.8789567737908844    0.7570907329975437 Te
   0.1598182919786199    0.0048222957986869    0.0004281162776937 Te
   0.1578351347770207    0.0171132059482696    0.2401789464969622 Te
   0.1687510071117667   -0.0059112390771350    0.7539126228099486 Te
   0.1671644902667474    0.2525414386267502   -0.0061738479521161 Te
   0.1697866743522737    0.2607911022056985    0.2457635936199455 Te
   0.1821782191756201    0.2481256453133431    0.4917150993892112 Te
   0.1648027642070282    0.2522265796772845    0.7517536439997311 Te
   0.1689491791385065    0.4994364754944886   -0.0028255816519729 Te
   0.1794038028325117    0.5101979482277480    0.2407610567089078 Te
   0.1714350887434305    0.4991117556526165    0.5020975651959599 Te
   0.1689144410862732    0.4935183459293087    0.7493597266715674 Te
   0.1713373547479344    0.7583650617579188    0.0016081380033980 Te
   0.1642793609083017    0.7648552997474293    0.2457635691198481 Te
   0.1646067873459987    0.7480133296875698    0.5055495491189428 Te
   0.1727862016607733    0.7507162231475872    0.7520014481048206 Te
   0.5003776320495452   -0.0020112950768788    0.0011416034034678 Te
   0.4871156119897107   -0.0041085909387478    0.2524466394729777 Te
   0.4999716229821499   -0.0042790582566401    0.5019228445225113 Te
   0.5015132686420063    0.0063048404612896    0.7566140651714802 Te
   0.5036107663622471    0.2459156566641982   -0.0104013760270272 Te
   0.8264898540803970    0.7494610961450436    0.5018676937572042 Te
   0.8339593982487630    0.8739760449670251    0.8814475661102122 Te
