Cd39 Ag39 Sn38 Sb38 Te192 Pb38
1.0
  19.0414873560517570   -0.0024657195892052   -0.0003092936270092
  -0.0032861969787039   25.2798183418134599   -0.0060822682923471
  -0.0004097727463483   -0.0060705951701923   25.3951874050989233
Ag Cd Pb Sb Sn Te
39 39 38 38 38 192
direct
   0.0383686262666030    0.8704489997931134    0.6048726304257815 Ag
   0.3571897786091143    0.7627557337953006    0.2333255722784203 Ag
   0.6260714214657721    0.0106868440970434    0.0148975582398346 Ag
   0.6745986673589048   -0.0163727604233235    0.4922046417439860 Ag
   0.6428519499810303    0.5224863779953424   -0.0050945419300800 Ag
   0.6871642503967706    0.7932555724575810    0.0126730313089663 Ag
   0.1380385682032712    0.6361538461990071    0.0005664252764103 Ag
   0.5175971899478553    0.5200628338376567    0.8767808386724196 Ag
   0.4970055313909210    0.1083036997496932    0.0085771662666905 Ag
   0.4883532041433532    0.1193996243474672    0.2706219774341359 Ag
   0.6980464105268914    0.1284952855565058    0.6088270321523783 Ag
   0.4746109828615712    0.3672012970891190    0.5130084210204722 Ag
   0.5220441632650527    0.6483080945225727    0.2713184145529980 Ag
   0.5196260905450723    0.8698580539275205    0.2455908569901132 Ag
   0.3585422144011448    0.1330758780562033    0.1016932258894030 Ag
   0.8048915686097833    0.6047489058553863    0.5100440787074186 Ag
   0.7915030672331816    0.8804969252960286    0.0176478210520424 Ag
   0.8128129613854604    0.9042851530813897    0.2683205168099486 Ag
   0.1477617621019556    0.2455961006885753    0.6403746883426853 Ag
   0.1411132664131988    0.5123336011349734    0.6253624728474629 Ag
   0.1711825319160354    0.5002099418587206    0.8543930207275642 Ag
   0.3124210750281757    0.6226840965346602    0.8605881110092213 Ag
   0.5335290578086255   -0.0096936437758079    0.3952270543864559 Ag
   0.4678799228807349    0.7757769034938548    0.3685258664577904 Ag
   0.3731057459077869    0.0974172799425360    0.3556040462521528 Ag
   0.0247329027269008    0.6414549845482275    0.1318496754706389 Ag
   0.1376858543465764    0.8676085183929716    0.4993003371791922 Ag
   0.5029390309544634    0.7812305488191523    0.1499300199015141 Ag
   0.0279220980565982    0.7198984942018848    0.0261062739238100 Ag
   0.3018670104747640    0.0183360855370321    0.4793477831549103 Ag
  -0.0172924812356631    0.6178792275295518    0.8637606118098163 Ag
  -0.0404956384165375    0.8708748507324726    0.1210771604590572 Ag
   0.3207259984666262   -0.0117561639505664    0.7537409251731729 Ag
   0.6285155956057445    0.6399245393426868    0.6429404050683526 Ag
   0.3572911640892874    0.2663818029178334   -0.0222293571326491 Ag
   0.0257680713967904    0.2299042478196374   -0.0206097508867637 Ag
  -0.0182634528221379    0.6079857532605409    0.3532006860560390 Ag
   0.6565073809909564    0.8766749591452186    0.1535388945145956 Ag
   0.6759715234210965    0.8597182628898214    0.3777692677625211 Ag
   0.3564989534837407    0.8789227519643051    0.3720729117850806 Cd
   0.3195290164424849    0.3649059434017425    0.6132518334711737 Cd
  -0.0078721943601947    0.7460902795091118    0.5137183303081611 Cd
   0.4945760837172237    0.4897490025896166    0.6143425342659833 Cd
   0.3266078895823764    0.3942498405595763    0.8675808656823798 Cd
   0.0206914834408981    0.5166740555629167    0.4998757190865388 Cd
   0.4811292926810048    0.2451326244271098    0.8891217825782246 Cd
   0.8502095099484061    0.1290150312485981    0.2441708655558762 Cd
   0.8410003575020287    0.2556707397777827    0.3582592907734084 Cd
   0.8072965540409662    0.2489230251078246    0.1263014291416573 Cd
   0.8444461460822994    0.3641873231942591    0.2470247348673331 Cd
   0.6580537507371801    0.1247160431542957    0.1138736573493442 Cd
   0.8458263094352253    0.3758544850640558    0.7530604990018603 Cd
   0.8107564052875316    0.6029646431532341    0.7328546771257776 Cd
   0.5015616673845812    0.2344256938361954    0.6217500888745834 Cd
   0.4881155028069925    0.2522001874630028    0.3956897132058517 Cd
   0.3354802075851856    0.8777521746660335    0.6090279860332005 Cd
   0.5107998498652838    0.1138671535121071    0.7464258846305165 Cd
   0.4949791790766095   -0.0025702822596762    0.6212038325039458 Cd
   0.1728638105554536   -0.0020256952714927    0.8869792144836111 Cd
   0.1840616654226469    0.2353952291558131    0.3793275235257448 Cd
   0.4934531123246291    0.0119295293514233    0.1426346858401439 Cd
   0.1825348601023510    0.5149515936351733    0.1221885677505852 Cd
   0.3321523667757947    0.8837139398801752    0.1464952258912737 Cd
   0.8242448056862535   -0.0088111748377091    0.3743423348170530 Cd
   0.6583564503985170    0.1316926214612157    0.3651184699919230 Cd
   0.1932516262892977    0.1258397780325849    0.0072336197067328 Cd
   0.0124695058263547    0.1314128470331512    0.1083905895940329 Cd
   0.3131246456159522    0.7614519468071269    0.4996987750141933 Cd
   0.6673739147804236    0.2521481814938874    0.5111999653292463 Cd
   0.3334451152724303    0.3544941449093209    0.1073079348817292 Cd
   0.0040235492581884    0.1424992479862213    0.3733345245027635 Cd
   0.1397943379295137    0.6134051852168315    0.7764732069723347 Cd
   0.0018375958214247    0.3846066608324347    0.3653594580750224 Cd
   0.6530720518502351    0.7448356033567627    0.4990306438910953 Cd
   0.3319878982570519    0.0090045646097024    0.0238434703531489 Cd
   0.3476057258593613    0.0115764301283322    0.2575048221611140 Cd
   0.3150555523510235    0.2395291177643905    0.5062669881081936 Cd
   0.1555149257355390    0.3608889273042114    0.5062924361489612 Cd
   0.1615708050140916   -0.0058911338188553    0.3752141794363012 Pb
   0.6641107430722512    0.7581020028422411    0.2511945226163314 Pb
   0.3373547016437166    0.2406906799359508    0.7475564794166808 Pb
   0.1536562704134071    0.0000677550669197    0.1246812982563711 Pb
   0.3280137514361138    0.5076056049184299   -0.0037071671526697 Pb
   0.1621979828182157    0.2436375949741342    0.8750150929001946 Pb
   0.6615720808179034    0.7504453223767596    0.7514613795849345 Pb
   0.6698826895217391    0.6282007785831465    0.8778456446958920 Pb
   0.1746386434168069    0.7535760791657733    0.1261933287698628 Pb
   0.0115837569709935    0.1127653327564942    0.6174706885158859 Pb
   0.0098581141575001    0.3790584331672802    0.1259600779038188 Pb
   0.3342406409358301    0.2512872239219680    0.2529267831601571 Pb
   0.6610151484095927    0.0074024279119209    0.2554708005215291 Pb
   0.6610332327847491    0.4978764668689812    0.4997553882095777 Pb
   0.6660143526128296    0.2494876170508639    0.7508814408287451 Pb
   0.0034035656134911    0.5081232004848981    0.2517946963790924 Pb
   0.8420580834746791    0.0030327926976961    0.8711742496636063 Pb
   0.5159444172215436    0.1193430242188681    0.5025958148367661 Pb
   0.1616913136569813    0.8724215041242168    0.2555565420119537 Pb
   0.8289712459024521    0.7639267165609605    0.1232921692327339 Pb
   0.0011550230464129    0.6239196218498280    0.6242091610930312 Pb
   0.8304963324441555    0.5016977802885965    0.3717212591872123 Pb
   0.5023363355787394    0.6321076034098995   -0.0000223617623983 Pb
   0.3447837025458867    0.5091041097709831    0.2514209091035515 Pb
   0.3417183167784669    0.1159300678814493    0.6230116188048836 Pb
  -0.0070003598023106    0.4956410666494731    0.7442326041420617 Pb
   0.3438176611982756    0.6379311101864098    0.1257332845223023 Pb
   0.6718668812064638    0.3713839723484675    0.3735458613464599 Pb
   0.8211522342321247    0.1224781997175531    0.0008764414543411 Pb
   0.1671791349120215    0.3756301176279374    0.7455330300432478 Pb
   0.8301162862857995    0.7397248859537503    0.6241193801279020 Pb
   0.8269030970752699    0.3802965417807863    0.0005125372496240 Pb
   0.1621677103456995    0.3715751293159538   -0.0014407755673992 Pb
   0.1735822757301541    0.1154940886993173    0.7481789529991489 Pb
   0.6618030773724358    0.8743766270379943    0.6159951166097329 Pb
   0.3359340400513435    0.8657720187477893    0.8766354162561548 Pb
   0.1711401665071099    0.1266354219986377    0.2482314241524836 Pb
   0.5019914378670507    0.0002792343015669    0.8677436250342846 Pb
   0.3479718539192924    0.3733191982065034    0.3825683679271703 Sb
   0.3519644858120360    0.1143243398158029    0.8695080999482512 Sb
   0.5011715777340625    0.7500183543587324    0.8828277079893406 Sb
   0.8169347407090264    0.0063070422850707    0.1179729001005804 Sb
   0.8352875306771147    0.7529123173313721    0.8789567779118738 Sb
   0.8170982756973912    0.2109798695908559    0.6419603146747317 Sb
   0.8372201942548174    0.2586605446755593    0.8926385987371899 Sb
   0.4918630020174000    0.7460299104374128    0.6179892582338371 Sb
   0.8299773566982175   -0.0210630310227215    0.6184781133476991 Sb
   0.6777931785034719    0.8810760404446832    0.8722768818837973 Sb
   0.6712240718949261    0.3900992185887082    0.6252132895544839 Sb
   0.0030706849039077    0.4994102278730144    0.0012661351620976 Sb
   0.0011945515487237    0.7589638750783833    0.2483203071850089 Sb
  -0.0045689495699814    0.7497060781612868    0.7620334539490605 Sb
   0.3331267707044515    0.5016900009089020    0.5040405393246762 Sb
   0.3334712544711212    0.4981272742555322    0.7470918763642855 Sb
   0.3389684841057595    0.7522060084364973    0.0018680836185017 Sb
   0.3290023502716390    0.7461565318323112    0.7386566968505464 Sb
   0.6785739852107612   -0.0032928771965987    0.7376547735604598 Sb
   0.6575946927949646    0.2513601338615468    0.0000148343585778 Sb
   0.6567441427638187    0.2511054392065796    0.2540180172825911 Sb
   0.1853671342029177    0.0985784238513540    0.4977439644808205 Sb
   0.3308451636433828    0.6360239945436694    0.3718981684631907 Sb
   0.1700419872445456    0.6301064326740830    0.5002780114873815 Sb
   0.4965804081553158    0.8733654070702895    0.7461803309092775 Sb
   0.8361262870677457    0.1434341023982146    0.4770775428783954 Sb
   0.4975235820471614    0.3816523298120402   -0.0036394792487822 Sb
   0.4978256060074643    0.3719249701100396    0.7416204925299767 Sb
   0.1752741021187945    0.4995198386069753    0.3855200043429227 Sb
   0.5000497463279109    0.6282025018748910    0.4949202465881647 Sb
   0.4934538611358348    0.8813720956897393    0.0195082157822342 Sb
   0.5013288996965003    0.8766003828050650    0.4876401659424038 Sb
   0.6789146373451411    0.3980281664360504    0.1291536944815480 Sb
   0.8330243434728525    0.1280122694998009    0.7317655428458528 Sb
   0.8343209212942204    0.6333621203351386    0.2467823601718942 Sb
   0.8324760860579615    0.8672017789313669    0.4971884264115582 Sb
   0.1774289935880027   -0.0020210113728586    0.6279025199005622 Sb
   0.1663466010187538    0.2515883994901680    0.1220996547406241 Sb
   0.6725925930159766    0.6299171386825114    0.3730283333250038 Sn
   0.6800358639103701    0.1289042677181511    0.8729409378119523 Sn
   0.6489576409387598    0.3792296023824041    0.8838971076128376 Sn
   0.6589610047689302    0.6521632769654969    0.1199480146656011 Sn
   0.3299448524418416    0.6140055587849732    0.6244009285367762 Sn
  -0.0173227885756238   -0.0042032101887580    0.0077316756531642 Sn
  -0.0020636378703019    0.8725640372531424    0.3690103235009708 Sn
   0.0111732659517176    0.8580452286933322    0.8924519233755916 Sn
  -0.0089883621683288   -0.0063427661525379    0.2517459484842851 Sn
  -0.0124235070820365   -0.0052748140008589    0.5019569096780033 Sn
   0.0113909730090041   -0.0112322974820892    0.7499052388879197 Sn
   0.0110810380939701    0.2472880417253768    0.2453777404062946 Sn
  -0.0029154115023808    0.2398142118824199    0.7462870039737691 Sn
   0.6711438761381641    0.5097822961185741    0.2399446260843522 Sn
   0.6479541117955596    0.4959072153474031    0.7554690866608823 Sn
   0.1802851453795574    0.3827106417131689    0.2617948855835791 Sn
   0.1744493202440024    0.6248110201481231    0.2481721509270026 Sn
   0.1657610366074022    0.8724761153493467    0.0042035294626158 Sn
   0.1699277649148562    0.8583034495602708    0.7485231459795528 Sn
   0.5065413899625993    0.3771344139309287    0.2421923669331973 Sn
   0.4888577956804492    0.6225500097168832    0.7462397718683309 Sn
   0.8433067258112128    0.3725993847540603    0.5061069811050635 Sn
   0.0055913622249093    0.2433556382335934    0.4958794008118464 Sn
   0.8385838999989655    0.8725134918623003    0.7563575872865251 Sn
   0.0012552854759557    0.3812329741001429    0.8801325458730704 Sn
   0.8376081032076568    0.6462116529667747   -0.0010774061590167 Sn
  -0.0024088981340858    0.3608843779023383    0.6223898901949758 Sn
   0.0030688356832079    0.1156514909909618    0.8751502153496240 Sn
   0.8411538843034445    0.5067226299781821    0.8806192262346803 Sn
   0.8297852847298719    0.4920529531370821    0.6191458774396557 Sn
   0.8330760302709146    0.7495552386186757    0.3721405611059534 Sn
   0.5020151644885702    0.4956180936779971    0.3783248087869651 Sn
   0.4974309003999607    0.4989835579449871    0.1181631996760664 Sn
   0.5005643241127240    0.2449929010719875    0.1288159529061872 Sn
   0.1789235864588062    0.7336336622973280    0.8806150631779111 Sn
   0.1581353512441792    0.7438283303909575    0.6311977487069000 Sn
   0.1599226729918720    0.7470136407882770    0.3741058394018096 Sn
   0.8435480703608470    0.5151442205473596    0.1192926023180315 Sn
   0.3315339343122243    0.4964338393927252    0.3798887338772827 Te
   0.6611501455033192    0.0101643434472344    0.1230598827554314 Te
   0.3407044168133010    0.4817615458161149    0.6274385792136620 Te
   0.3211850898528653    0.5067289145979094    0.8671044554148121 Te
   0.3532727909357014    0.7668561580425468    0.1217070661986918 Te
   0.3266793476520419    0.7512653435093920    0.3859305072616567 Te
   0.3345990989962228    0.7461484989633286    0.6176586979169610 Te
   0.3404600934973906    0.7376582011978082    0.8744326857526279 Te
   0.6740077010827040    0.0194283250608148    0.3839754550610346 Te
   0.6676687163326998    0.5089447471645708    0.1109877650022278 Te
   0.6719718964431747    0.0018199763049150    0.8618548463189433 Te
   0.6578024282368657    0.2583309882134424    0.1251646518485265 Te
   0.6906483629866169    0.2467375440387814    0.3709049313385177 Te
   0.6684985230834249    0.2390141553008943    0.6251396146616401 Te
   0.6715382423836670    0.2539896767224582    0.8809339127885286 Te
   0.6634660741733908    0.4992220866391089    0.3731778421433342 Te
   0.6505586834601985    0.5039706415686120    0.6275027956201756 Te
   0.6659276658141052    0.4972710923278815    0.8828301404079150 Te
   0.6520853464151728    0.7692693396217803    0.1179150967665287 Te
   0.3345712858488982    0.5062913642889324    0.1246359762519350 Te
   0.6744805066852491    0.0021186339770485    0.6163491721763117 Te
   0.3314231900603470    0.2371136560416606    0.8738468540098496 Te
   0.0009081965048274    0.5080608911405373    0.1239935288540367 Te
   0.3350953316748518    0.2514391271767951    0.3856414942936537 Te
  -0.0104813256385078   -0.0090151091923128    0.3750615301291449 Te
   0.0187306638181644   -0.0170871433248327    0.6253867100810009 Te
   0.0113887165801396   -0.0052810581642866    0.8750224967637436 Te
   0.0086297891684432    0.2461333807869639    0.1262380911409635 Te
  -0.0068268163377855    0.2579175769548402    0.3755306612479082 Te
   0.0016815064256900    0.2422754049820167    0.6253937967003924 Te
  -0.0080438712634233    0.2533857651971020    0.8745227897901502 Te
   0.6681144127918912    0.7464562979215152    0.3837510704918833 Te
   0.0074508586710970    0.5015912833074204    0.3846790931194126 Te
   0.3498260445349298    0.2511278260421422    0.6171113115164032 Te
  -0.0038755821325662    0.4941342953403187    0.6145949488594934 Te
   0.0000748084938089    0.7541872936939065    0.1280361092503956 Te
  -0.0007596501693138    0.7505374446619938    0.3648272432060508 Te
   0.0017091261449660    0.7556795606244784    0.6290450714957403 Te
   0.0009978678259303    0.7379859357425881    0.8770256477716152 Te
   0.3372216440198659    0.0007008729296607    0.1367033141641509 Te
   0.3286289798539247   -0.0065888285525459    0.3719406629806022 Te
   0.3379880618889247   -0.0102987131723378    0.6301475768535865 Te
   0.3284602152157704   -0.0032614656453516    0.8656240617740794 Te
   0.3270470459304617    0.2424866930178110    0.1271420345942173 Te
   0.0023709526998022    0.5004124986482825    0.8751158679851195 Te
   0.6595457829730267    0.7451817456424547    0.6176588479065680 Te
   0.1542120104045790    0.8682694405327513    0.3863706929909964 Te
   0.1642531962819195    0.1276862916943914    0.1201963519558601 Te
   0.4898487030849704    0.6190818984897316    0.6171957073166624 Te
   0.5008283905733106    0.6315124883910307    0.8689691619807153 Te
   0.5049626121756089    0.8935641244180328    0.1350282971979266 Te
   0.5071339962959308    0.8835367793597029    0.3708701584715170 Te
   0.4931481375330085    0.8717149119024498    0.6283922516439777 Te
   0.5066145704818023    0.8714049353807586    0.8637482076497094 Te
   0.8109156933538014    0.1316037246692650    0.1314656517417819 Te
   0.8486321997979501    0.1356655691373667    0.3633210194835447 Te
   0.8435151180081423    0.0989400612005576    0.6132537779219530 Te
   0.4938529341287204    0.6187234813129403    0.3774873911791291 Te
   0.8364813963073652    0.1335507983342707    0.8728656244718904 Te
   0.8455662405469491    0.3745548715995585    0.3661226553251433 Te
   0.8239375121479280    0.3734414227751828    0.6358462651679924 Te
   0.8292991728103832    0.3742294091965763    0.8709368237944947 Te
   0.8263389796574188    0.6360383402759874    0.1291034360606703 Te
   0.8379716796739830    0.6271412411641906    0.3697787657998555 Te
   0.8308882772775283    0.6142524811311876    0.6221680523539509 Te
   0.8365321984095869    0.6280765244892909    0.8761151943739031 Te
   0.8125532964990347    0.8915761985053746    0.1280455806062331 Te
   0.8294179683026518    0.8761455270677507    0.3759551643842390 Te
   0.8365873255919286    0.3789280910671805    0.1308417313828561 Te
   0.5069821313896941    0.6180369490064304    0.1257867447965243 Te
   0.4925716690856611    0.3612697778155569    0.8780395451351396 Te
   0.5127310698901898    0.3758862962754072    0.6236222551989281 Te
   0.1585502617417490    0.1227703884268512    0.3834057621636985 Te
   0.1756362722110072    0.1289290860506015    0.6167123679823359 Te
   0.1577321640889474    0.1144392520641315    0.8722902284404542 Te
   0.1817239128126266    0.3668917224025396    0.1324872105947097 Te
   0.1554055974977287    0.3852907952517143    0.3806820352403892 Te
   0.1693102029367486    0.3581177072319758    0.6202883341843084 Te
   0.1729804999373804    0.3804184650548293    0.8719952595614326 Te
   0.1690529993471326    0.6282933778192453    0.1178561431638631 Te
   0.1690540009720732    0.6181489337129120    0.3776606696059276 Te
   0.1717135919766916    0.6222504790715231    0.6208923138180226 Te
   0.1655200592216099    0.6155484915228177    0.8868902427939512 Te
   0.1809725139596556    0.8781162942973825    0.1258451569519210 Te
  -0.0171473661262044    0.0182129945243522    0.1265631806233862 Te
   0.1825529618723628    0.8652330283906855    0.6297621455192637 Te
   0.1664786187171578    0.8754078015242333    0.8767182108469709 Te
   0.5028512287628760    0.1236533972082581    0.1195392652503849 Te
   0.5056740738802508    0.1396720678407697    0.3804142526217517 Te
   0.5082648073616365    0.1168220741555581    0.6291611474898765 Te
   0.5066163981272155    0.1326065361577373    0.8607223805119117 Te
   0.4835489733480641    0.3773026375815585    0.1201519098932700 Te
   0.5036147876037101    0.3672611361910900    0.3758700767387352 Te
   0.6675527030082098    0.7583640022077429    0.8768492366553806 Te
   0.8340999430158131    0.7478525977492796    0.7537843499152117 Te
   0.4915410519495557    0.7485016327507437    0.7407517631714964 Te
   0.8317736547581692    0.7531261627146348    0.2494636310963955 Te
   0.3385398379800291    0.3713666880055321    0.7559345497725696 Te
   0.3364390535432435    0.6348190125490641   -0.0009636259505683 Te
   0.3380750295030850    0.6372607776722506    0.2541745633564875 Te
   0.3388288020134329    0.6212311364430699    0.4964620352063866 Te
   0.3311680076685969    0.6229838754631729    0.7475092446674806 Te
   0.3337250816508088    0.8718972202524317    0.0009140153399672 Te
   0.3270448054736911    0.8708274975707124    0.2588615596644847 Te
   0.3439026780456371    0.8722507372855669    0.4950406029360270 Te
   0.3340746077225887    0.8690194273517944    0.7495281849569276 Te
   0.3258945963692927    0.3673798763233643    0.4980084270730731 Te
   0.6513464809695202    0.1239881915204331   -0.0036166172501357 Te
   0.6845829127452588    0.1366750531350141    0.4974611195212490 Te
   0.6746315155990321    0.1208605116348669    0.7481012899097894 Te
   0.6588449340795060    0.3752156621106025    0.0110760406940696 Te
   0.6772262187588347    0.3778064771520409    0.2449386381609345 Te
   0.6815549382789559    0.3681832858499827    0.5024216318030202 Te
   0.6550226220302783    0.3761685222904478    0.7515655095253985 Te
   0.6731687135136416    0.6322124763481415    0.0021941810592455 Te
   0.6638984967147762    0.6283087650821780    0.2495257831882794 Te
   0.6627154835160164    0.6270672437285083    0.4961416452080127 Te
   0.6464072065600424    0.1373172840978639    0.2511535297526542 Te
   0.6651081109803932    0.6230168365968819    0.7483208279931373 Te
   0.3371611777486518    0.3797782200105750    0.2587118565744333 Te
   0.3449457784108673    0.1102473592830952    0.7518286569310253 Te
   0.8335923688120231    0.8659803576911451    0.6274588700946571 Te
  -0.0114708860419916    0.1236260645145468   -0.0026294382830113 Te
   0.0016905422077183    0.1294120323619457    0.2564545417804717 Te
  -0.0041760265674602    0.1201362886821282    0.4904471151838137 Te
  -0.0066061885968356    0.1187083077293049    0.7461116210103359 Te
  -0.0044838180178064    0.3727103517589406   -0.0001609300526567 Te
  -0.0011331867220919    0.3798913532726462    0.2508880266890590 Te
   0.0038174587993547    0.3728604816046047    0.5055015534062679 Te
  -0.0014416196987516    0.3698127955504284    0.7504458605392281 Te
   0.3311726044389011    0.3741785903907146   -0.0047802705219431 Te
  -0.0103752871269291    0.6173379738660714    0.0018784923885840 Te
   0.0104949339654771    0.6309994319914414    0.4990272431021486 Te
  -0.0059869902408015    0.6251085781664012    0.7515625245748291 Te
   0.0056871857122191    0.8805643720182229    0.0134083433736363 Te
  -0.0097656529365848    0.8771099080305721    0.2328191826558222 Te
  -0.0111101241575085    0.8651987450765063    0.4997301894747055 Te
   0.0039967351361802    0.8651438045141849    0.7576712445254663 Te
   0.3425118787303629    0.1196001385127944   -0.0068249005109074 Te
   0.3356315567227700    0.1254156064204813    0.2532203314245939 Te
   0.3371207293198322    0.1242370592514670    0.4956017719098241 Te
  -0.0010819503102346    0.6327605767780551    0.2452436048358825 Te
   0.6475072335973759    0.8966565516579481   -0.0122410617721199 Te
   0.6667794183233908    0.8822848398883567    0.2646039904064550 Te
   0.6632290861078344    0.8693930157300077    0.4909190131176263 Te
   0.4967505817383763    0.5002753522344051   -0.0128143347427169 Te
   0.5099786556159900    0.4957142184224661    0.2481352608175701 Te
   0.4894388042012840    0.4821943883113932    0.4993771458283085 Te
   0.4912584865629657    0.4970972264423198    0.7652374359483951 Te
   0.5039604372570481    0.7608411344828815   -0.0022176191144028 Te
   0.4994244081329532    0.7565306214741626    0.2601157738716749 Te
   0.4995238985000746    0.7503893491968393    0.4979607127124261 Te
   0.8249995544458912   -0.0065555778732567   -0.0025459134519530 Te
   0.8331130110692778    0.0132125138556528    0.2601701579487445 Te
   0.5018226515999512    0.2506830183505800    0.7391286812609070 Te
   0.8294146431089832   -0.0095754270046129    0.4940605959981866 Te
   0.8270667321371045    0.2515258459951698    0.0108934026240448 Te
   0.8389631192526144    0.2496055014161931    0.2399697527721631 Te
   0.8449156326288869    0.2515857866765016    0.5173670225551056 Te
   0.8347806086953818    0.2527588943567831    0.7519817289261400 Te
   0.8388386218999574    0.5051551550167529   -0.0011782839245465 Te
   0.8327525436136903    0.5110524023138314    0.2455732816929333 Te
   0.8308983741663321    0.4966732606392039    0.4998796317164584 Te
   0.8255079169936166    0.4934030924849828    0.7527075701923601 Te
   0.8321364417125606    0.7679310167644301   -0.0041329855911201 Te
   0.8409465618224121    0.0009064952178131    0.7426419108984926 Te
   0.5152999438543455    0.2552341953181024    0.5067052372523859 Te
   0.5026769963126767    0.2578672089134516    0.2530454985256242 Te
   0.5014195554258026    0.2524749162386000    0.0017301062398643 Te
   0.6703703793026607    0.8766785521535931    0.7460980482884249 Te
   0.1814812157192613    0.0073441374826380   -0.0001428530604757 Te
   0.1544902112829800    0.0004121410655672    0.2501086451879080 Te
   0.1653452784955943   -0.0166006171311670    0.5080162539473609 Te
   0.1715376426102977   -0.0104327002175545    0.7439970752985926 Te
   0.1683608965382108    0.2402892780900308    0.0021096659935761 Te
   0.1653486425256719    0.2552951338908696    0.2673835821780505 Te
   0.1657404924744001    0.2486146784273375    0.4922895210054368 Te
   0.1671447122089679    0.2426284966569702    0.7497837255402828 Te
   0.1606208094397530    0.4971545706340021    0.0100754332527573 Te
   0.1710118816775720    0.5050694098760922    0.2401193780152945 Te
   0.1723295048216097    0.5030081896381329    0.5112029745151095 Te
   0.1637338690344672    0.5047272360802589    0.7403650205651330 Te
   0.1672609506357464    0.7492977700206735   -0.0017852937074997 Te
   0.1654947639280880    0.7444600161820080    0.2525916404244801 Te
   0.1610109379354406    0.7518656700319030    0.5034991459367227 Te
   0.1745062378286253    0.7316326134231936    0.7554427617932168 Te
   0.4801659524575140   -0.0024225920529783   -0.0080498883986314 Te
   0.4969264170704705    0.0082670464827275    0.2546752135252098 Te
   0.5098753268754534   -0.0058888498531597    0.5048912946494569 Te
   0.5123290334573214   -0.0023116220303081    0.7393833609780212 Te
   0.8413448127274001    0.7474992457079070    0.4969872170264751 Te
   0.8412415577562753    0.8745654366515746    0.8761477837703958 Te
