Hf39 Zr38 Ti38 Nb38 Cr39 N192
1.0
  13.1980798717670780   -0.0004141665446963   -0.0005493339797767
  -0.0005522647530701   17.5883962257198547    0.0009297264311528
  -0.0007323800244483    0.0009297118114062   17.5849164982818600
Cr Hf N Nb Ti Zr
39 39 192 38 38 38
direct
   0.8311896755844780    0.2494312940669993    0.6215624152540177 Cr
   0.1595433119309571    0.3823454386362103    0.2507241110272815 Cr
   0.1713250449740862    0.8751611845166970    0.2513034323818661 Cr
   0.1666816042812050    0.8736453186060795    0.5013593042896068 Cr
   0.4978762579409659    0.1225778533976312    0.2499255903380322 Cr
   0.4947603471535795    0.1208472374354263    0.4985861864051053 Cr
   0.5047959840731779    0.3826628014069876    0.2511810891240756 Cr
   0.5041358556223233    0.8723762314303701    0.2535676020967977 Cr
   0.8360424765166801    0.1311912080000413    0.2495335570894278 Cr
   0.3382019081392966    0.6268333532857865    0.8705157333224648 Cr
   0.1715836662391117    0.2494587906100997    0.6237563891480816 Cr
   0.1612009023603581    0.4980754689783009    0.1277654310338982 Cr
   0.1700048740203995    0.5033149791299303    0.3756287271286183 Cr
   0.4981341227277645    0.0010287610724284    0.8768343368962991 Cr
   0.5031727037799071    0.4995887246245114    0.1251818578854723 Cr
   0.4975586713321991    0.5009793866416669    0.3742136054796015 Cr
   0.4967511195551051    0.5007763577583038    0.6261606831166409 Cr
   0.5058445332740467    0.7489861456339225    0.3731841245400215 Cr
   0.8364935129100110    0.2448204833408379    0.3708596970306087 Cr
   0.8335757478595035    0.5033386700605107    0.3730540391844641 Cr
   0.6644836802171888    0.8746037622877327    0.3724943246170695 Cr
   0.8280169586973876    0.5035783126522028    0.8690872416626368 Cr
  -0.0074081521009670    0.1296053292140594    0.1309236215012673 Cr
   0.6606831009736938    0.6235913906246549    0.3736331215932495 Cr
   0.0045114775112275    0.3765245230033857    0.1301091525218415 Cr
   0.0016155382572595    0.6201453536519604    0.1297433248816565 Cr
  -0.0004993650641416    0.6235803304286185    0.3756099197345740 Cr
   0.6577928272299727    0.3784964287163436    0.1303349621660006 Cr
   0.0016418641974902    0.8715017770086252    0.6175518417131073 Cr
   0.3404858815855886    0.1218270588731410    0.3746639467857298 Cr
   0.1702712757129074    0.3776533463831656    0.0051467878899872 Cr
   0.6642621887206622    0.5029601719372553    0.7482542865331675 Cr
   0.3382614418096697    0.6185770711987157    0.3808856309894371 Cr
  -0.0001655393724540    0.7493477668272713    0.4995741156110078 Cr
   0.3366127347444980    0.5048920726420317    0.4971777785353901 Cr
   0.3352777496517041    0.0018103544911232    0.4964905420029264 Cr
   0.0030346011671395    0.5029090727207203    0.7463107363528753 Cr
   0.0040705787726798    0.5000652280924391    0.2498232507782470 Cr
   0.3364035252765433    0.7428680911481127    0.7521265677339479 Cr
  -0.0007385787949316    0.3749143551977966    0.6218596099315710 Hf
   0.1585056963341349    0.2537899519842982    0.1275109207236333 Hf
   0.1674234776329150    0.0007858844946406    0.6189712954383126 Hf
   0.1700598457007934   -0.0016683185627618    0.3757184578552827 Hf
   0.0030465721996491    0.2516879959649080    0.7471320815010486 Hf
   0.4955784237023231    0.3786725161385669    0.0046833743901444 Hf
   0.4956725444900976    0.7482404597948614    0.6245156460481153 Hf
   0.4968526527281349   -0.0006124084372331    0.6250005412825954 Hf
   0.8311216511827938    0.3724723928346322    0.2520935806368780 Hf
   0.8339842115611125    0.8711377325518712    0.7419493676254665 Hf
   0.8330693354971797    0.8763559153347686    0.5006199591471766 Hf
   0.8321472376175475    0.8758006603374875    0.0029243383909127 Hf
   0.4967010608855690    0.8780596647345017    0.4937688217856633 Hf
   0.8331491630116534    0.4955771453126806    0.1301899184009430 Hf
   0.8355809844114810    0.1259172859833848    0.0080844891329316 Hf
   0.8326663003149563    0.0029293357852033    0.3750786868156363 Hf
   0.3316850994397593    0.2518110697503739    0.2525020291762661 Hf
   0.4974908314849548    0.3799883178287025    0.4967501227800101 Hf
   0.8356551523632801    0.7418719034953766    0.8692575854653951 Hf
   0.5029418367507084    0.5023491032080560    0.8741213311745964 Hf
   0.1715329623275013    0.6200693383029771    0.0002183875690952 Hf
   0.5021453987987009    0.2540307548016571    0.3713737090663997 Hf
   0.6661366907728412    0.2522460695858529    0.0063445089415629 Hf
   0.3373803701060441    0.8730774216828073    0.8732185410318920 Hf
   0.3365522176494233    0.1220665794620568    0.8760672133235226 Hf
   0.1661879078777072    0.7464729223793163    0.3759031978532988 Hf
  -0.0020294807568700    0.0057503426469445    0.2497734888294834 Hf
   0.1681502739521157    0.7467570482686967    0.1290950632643104 Hf
   0.1647275980267859    0.6212350299612587    0.2517031663670552 Hf
   0.4981578925345432    0.2492599576082087    0.8747224827394177 Hf
   0.6660243093668389    0.7493590235918113    0.4949392764702872 Hf
   0.6634580592926975    0.7470064948932666    0.0006117068491302 Hf
  -0.0023841415546158    0.8693436978513611    0.3757713246672281 Hf
  -0.0001789057324109    0.8759716528225909    0.1300161148659827 Hf
   0.3337616192948182    0.7479664633054041    0.4973506159895179 Hf
   0.3367917995648229    0.7505906838607156    0.2539147568442498 Hf
   0.1728100383911634    0.3789492960336385    0.4982289586251876 Hf
   0.6610227140550003    0.7449394646222008    0.7481888732814801 Hf
   0.8323770369497442    0.6210212328239809   -0.0022086335961600 Hf
   0.5012086440504252   -0.0014599889931356    0.2468747229055870 N
   0.0055544927778646    0.3733480503620731    0.0083475522046968 N
   0.4976062376391717    0.0024676823028726    0.7539084926999002 N
   0.0001424428772379    0.3770981408665791    0.4987612162881724 N
   0.4903286157315200    0.0052492681549070    0.4987819634698192 N
  -0.0005939414794693    0.1281322989929819    0.7478645423737273 N
   0.0025520165436865    0.3790133061622489    0.2451056866205234 N
  -0.0063634790587043    0.1253575138454045    0.5009035791627786 N
   0.0013010717390252    0.3814792661017659    0.7477220236617883 N
   0.1650565267742787    0.2517231457186119    0.5062238925465870 N
  -0.0013531842734845    0.1311530361327169    0.0116888689078834 N
   0.8305478740635194    0.7480425372651114   -0.0014831846229888 N
   0.8321573951976138    0.5051980515426588    0.7519499983418740 N
   0.8342960171749371    0.4983805321445567    0.4929272793866884 N
   0.8344587943292514    0.4968585272217931    0.2558469683338292 N
   0.8286449430304366    0.5003002925187833   -0.0002893966489536 N
   0.8342232346498566    0.2530357195741824    0.7425391813530816 N
   0.5067043636325974    0.5031115683913763    0.7455643445622318 N
   0.8364113581649072    0.2497926413604216    0.4955397019312766 N
   0.4926777730131169    0.5022208419607904    0.4969693168955254 N
   0.5020935102917478    0.4962886050736184    0.2538289864032078 N
   0.5000218338743037    0.5017328010666591    0.0021306209605407 N
  -0.0051633804227223    0.1301632037487926    0.2465754480812221 N
   0.8353621482127535    0.2462846432371672    0.2545306960877032 N
   0.4948747403723311    0.2476250365927974    0.7510454210194240 N
   0.8315355421424774   -0.0016753847710044    0.7446965301934796 N
   0.8322256328623966    0.0032053949521883    0.4991530557368932 N
   0.5013056868010382    0.2477054189836516    0.4975928087689258 N
   0.8334312581962754    0.0077693241080852    0.2507499463740820 N
   0.4961246098765194   -0.0027717358777807    0.0001895066520792 N
   0.4924123283002504    0.7455761904249195    0.7500892034285898 N
   0.4977529678752106    0.2488545347959147    0.2503068918251311 N
   0.4992867450029010    0.7496571349993016    0.4946456208251685 N
   0.8358928910991822    0.8755225304039180    0.6211252086223049 N
   0.5012651451916182    0.2528929404997641    0.0007453702700124 N
   0.8344887503374816    0.2496453181868740    0.0053508521185271 N
   0.8331241259014728    0.0011960033132632    0.0053365790234003 N
  -0.0010112975428167    0.8718560086760609    0.7387642341484099 N
   0.0019799836515944    0.6185282631905864    0.2504411159968872 N
   0.6597643965899881    0.1257045515067279    0.4979619003646072 N
   0.1772593713875727    0.5015530310263409    0.4974177613482054 N
   0.6597501442458745    0.1274908658122677    0.7480533554469431 N
   0.6617405436221790    0.3776329198534644    0.0066584818880237 N
   0.1596382096720926    0.4973946176186044    0.2511014040442944 N
   0.1714700409237152    0.4951503480976335    0.0055630056494736 N
   0.6601323663900990    0.3784201532109360    0.2451270551744461 N
   0.6680326713072610    0.3763996372059865    0.4998716312038956 N
   0.6650081445572221    0.3855329668475088    0.7455839448128643 N
   0.6636326464590189    0.6218319847584586   -0.0024712153851411 N
   0.6661280093107554    0.6234878836240170    0.2566155563178268 N
   0.6618505955726883    0.6261615321711532    0.4938434998299889 N
   0.6650499353599266    0.6191135176324426    0.7517799143473067 N
   0.6640765219503355    0.8723901276679572    0.0028890391074258 N
   0.6575530371120780    0.8695730509095619    0.2586406680272722 N
   0.6650792748809721    0.8737654074282966    0.4943147624883676 N
   0.6667679694581047    0.8706600901212114    0.7441072363235243 N
   0.1752859762147536    0.0019214987073414    0.0014563380244345 N
   0.1671642533434672   -0.0057026580837769    0.2526164359059565 N
   0.1754993466604731   -0.0071755947896225    0.4976836881084488 N
   0.1675453170312002   -0.0018003480236478    0.7459234507592313 N
   0.1629483056221087    0.2591080969694621    0.0036505380878122 N
   0.1629444384667889    0.2561504154571780    0.2504246193476716 N
   0.1618514545158668    0.5029268542276746    0.7460067434235306 N
   0.6624395001927660    0.1246603623049018    0.2482642844976859 N
   0.6681644843510521    0.1281960880424934    0.0065866762088432 N
   0.3338898589366892    0.8665682372575354    0.7472556089196074 N
   0.0031070042666010    0.6332339179492662    0.4945164632469812 N
   0.0013932169530170    0.6166494753799243    0.7505747924538450 N
  -0.0001710036465140    0.8750823840490068    0.0020226126432562 N
   0.0034255745566902    0.8767342166859327    0.2524444266917229 N
   0.1730769368718918    0.7438376376523380    0.7510298178072300 N
   0.0050523629083498    0.8698602533700037    0.5025597656526201 N
   0.1639021963473953    0.7539610356399807    0.4979847104651218 N
   0.1691234372191213    0.2519950925832133    0.7428276221774781 N
   0.3327654983959346    0.1197081134947965    0.0012764754591765 N
   0.3434524604139880    0.1258364817235674    0.2580308272174616 N
   0.3398715689261050    0.1178168097459768    0.4937108675925037 N
   0.0016566667711627    0.6220263972938380    0.0018990546711336 N
   0.3379197620480007    0.1271080136286028    0.7505981735041730 N
   0.3332078742210277    0.3754310169429045    0.2535128323040821 N
   0.3350897192375437    0.3790365680598751    0.4978350360025701 N
   0.3360168647794673    0.3742214326835632    0.7543240864277134 N
   0.3313295951792037    0.6255097160355979    0.2527489196892201 N
   0.3371599521952472    0.6214250880056317    0.4975125942793403 N
   0.1681654874874208    0.7521379675289562    0.2523407818696499 N
   0.3337822828546396    0.6287411879059529    0.7512387353442638 N
   0.1693497986965619    0.7449994514041113   -0.0002340484024697 N
   0.3394748999501508    0.8752385757349417    0.0017278527143652 N
   0.3375449997823935    0.8741796943824888    0.2481205295216112 N
   0.3273054245447833    0.8758200058149485    0.4989785521748223 N
   0.3253381657254464    0.3775790347876364    0.0001961939427549 N
   0.3369620400580664    0.6207374815900992   -0.0024275446115262 N
   0.8332818766666951    0.8702411666360131    0.8730656941596878 N
   0.8355713036613077    0.7522193059747485    0.4989870120617860 N
   0.5035644276830717    0.3808560782443084    0.1320928247557824 N
   0.4985686161683285    0.1196816756897647    0.8748481822662364 N
   0.4996853786289568    0.1243621533102435    0.6195732083420359 N
   0.4931000195134055    0.1255166019161540    0.3726172007511093 N
   0.5044739169444125    0.1214249432452494    0.1357238111764968 N
   0.1718258897181628    0.8695098539540953    0.8740685213824294 N
   0.1641588758703601    0.8748405503972654    0.6167553352559479 N
   0.1657569692915517    0.8722497901547678    0.3710361677524956 N
   0.1706607001801961    0.8734070627808644    0.1345881811284284 N
   0.1700472661009452    0.6263599976555349    0.8732059521170120 N
   0.1722587623744980    0.6204549802511964    0.6278785271046732 N
   0.1663253464905842    0.6189505712386119    0.3757725179598383 N
   0.1631875113218237    0.6180685878993868    0.1262962293445666 N
   0.1715909857276850    0.3779181851675371    0.8799718198704133 N
   0.1661176722007139    0.3725100801640619    0.6216174187582243 N
   0.1699245581903967    0.3838845603574800    0.3702387455073140 N
   0.1594905539039305    0.3818841044552961    0.1288093025133026 N
   0.1714537162015924    0.1261316225775682    0.8753613674538979 N
   0.1627931485098147    0.1309210045918549    0.6219243161607677 N
   0.1793855832820444    0.1242489209186984    0.3758550377159484 N
   0.1576217315371176    0.1301385657030413    0.1277667277756296 N
   0.4976126165221106    0.3827660897612258    0.3687826648796412 N
   0.6645511387629387    0.7441294557843855    0.8734574951679666 N
   0.5031009522648799    0.3833719676430776    0.6219275536617184 N
   0.4969169028965134    0.6174486008230750    0.1227925153357315 N
   0.8267671176377874    0.8740343182628829    0.3765601771591038 N
   0.8356738377727981    0.8812933353027621    0.1253797267006668 N
   0.8328610440950992    0.6178824292709730    0.8719027232361044 N
   0.8336232969709879    0.6269082515908234    0.6275650719661430 N
   0.8356093608479517    0.6215528997749723    0.3760672884908287 N
   0.8431550971633838    0.6218808019770687    0.1243253773220081 N
   0.8322113078159386    0.3853635593589209    0.8748868727225071 N
   0.8320556492299610    0.3703892316572216    0.6192252466940099 N
   0.8324665942383632    0.3779925562349887    0.3754291435873038 N
   0.8337754976365626    0.3733707680320388    0.1295452604803669 N
   0.8329755501345435    0.1274327071579391    0.8791432129964715 N
   0.8353745821707358    0.1301609722896320    0.6188725403141063 N
   0.8335104195536314    0.1302108853209454    0.3711142978568333 N
   0.8366256962740208    0.1278315413827628    0.1342367567602035 N
   0.4967886966088584    0.8746677467759779    0.8785546994526446 N
   0.4990190775594919    0.8734062543723631    0.6198880642537763 N
   0.5085074219294361    0.8678118528328652    0.3690846385844512 N
   0.4981965429235782    0.8769332902406656    0.1298423986921519 N
   0.4967918135804565    0.6253584696939838    0.8743806667844404 N
   0.4947414768065945    0.6201132834282965    0.6253372072077671 N
   0.4984685560022223    0.6226108911112336    0.3791910091355776 N
   0.4944717726297501    0.3758741061004944    0.8786846350242471 N
   0.8266115566491715    0.7492718841910421    0.2565816228654937 N
   0.6658919640317066    0.7512220908588303    0.6227777815940188 N
   0.6661652394702280    0.7471888033031535    0.1277245574638809 N
   0.3324698293140679   -0.0044553672480006    0.6170391210704380 N
   0.5022358452525076    0.7481096406371490   -0.0020812980373039 N
   0.3344453554903336    0.0058853375659238    0.3798697751617974 N
   0.3395090576135627   -0.0022940001478512    0.1248642895869178 N
   0.0032839527245521    0.7436561084354485    0.8724628703970349 N
  -0.0026866339032490    0.7546939255804616    0.6159873086236816 N
  -0.0021537910921171    0.7434433531727649    0.3810137174712534 N
   0.0024819527569719    0.7451263587103254    0.1278765259678322 N
  -0.0043448185661362    0.5035243580841758    0.8708238292891044 N
   0.0054337049503989    0.4997011288895771    0.6298099718601583 N
   0.0004769938601979    0.5080819977474331    0.3701732331002573 N
   0.0040895495701538    0.4992366501185375    0.1322352931526852 N
   0.0005930007750917    0.2519502485529224    0.8774945863655572 N
  -0.0038871704614930    0.2492446591538148    0.6234618707535169 N
  -0.0092980454431606    0.2522390495798695    0.3711917201084847 N
  -0.0047064424697505    0.2523020161550071    0.1278773507251132 N
   0.0007241374418956   -0.0014052690905744    0.8732854305638365 N
  -0.0028212228853498   -0.0018424428137608    0.6207790493411561 N
   0.0007460747491810   -0.0032466449663326    0.3733669752098248 N
  -0.0036912870396714    0.0058347239686483    0.1273170285768580 N
   0.8298769577556782    0.7464391274767835    0.7451514501598604 N
   0.3437441724364385   -0.0023060189833594    0.8776047312931213 N
   0.6623311195130784    0.7452075334456486    0.3729428271476937 N
   0.3272367214239707    0.2511026242773630    0.1296028429038531 N
   0.3264914922537117    0.2500724654158765    0.6273384602823802 N
   0.6720215120208421    0.5033564499243538    0.8714468779314058 N
   0.6613733949477313    0.4976437197364812    0.6292639186100223 N
   0.6655708699884588    0.5068306988744410    0.3723194585029989 N
   0.6607122181520493    0.4931077856513736    0.1259364649399713 N
   0.6629708296913981    0.2529625770082938    0.8790664685647267 N
   0.6755411703702051    0.2532632045663369    0.6249649421758791 N
   0.6732148990872345    0.2499654467590675    0.3722376732143535 N
   0.6693054659143224    0.2542654318603835    0.1280682404219367 N
   0.6534967400347602   -0.0002816238151586    0.8762733716118752 N
   0.6672795056132369   -0.0032727852151323    0.6230437597857237 N
   0.6671545952424345   -0.0086055046521066    0.3737364037095969 N
   0.6658418355067581    0.0047399337442890    0.1284401369385246 N
   0.3349469488646429    0.7434541697264448    0.8683736523260007 N
   0.3346398155414394    0.7477790191381695    0.6261426342943061 N
   0.3382113412962161    0.7449912610170659    0.3759490352562466 N
   0.3320897139044507    0.7484876810518738    0.1265486131795047 N
   0.3377136394754242    0.5036841099397071    0.8764845864683978 N
   0.3400044481920638    0.5028502890026328    0.6182452597827071 N
   0.3337010240845377    0.5035023450287698    0.3804640167886693 N
   0.3329623833957066    0.5032743008111845    0.1245182728330346 N
   0.3357953664352309    0.2512881068444163    0.8740574434394567 N
   0.3349208770191241    0.2506814101425308    0.3747124463798276 N
   0.5027218575964215    0.7532508191596649    0.2572240132868907 N
   0.0065231442701115    0.0052187794408085    0.0002800116615092 Nb
   0.6663148019201128    0.8763410603256989    0.1332426538655611 Nb
   0.8331821225620918    0.7527113846759919    0.1316193814611910 Nb
   0.8342256516489056    0.5003679239269908    0.6245280530591347 Nb
  -0.0067958440282041    0.7475818644372368    0.2533862850403217 Nb
   0.0014153091878841    0.7413420642435313    0.7439406866973899 Nb
   0.4998237612106377   -0.0038971261479304    0.3696669074065284 Nb
   0.3383635094388356   -0.0011897918922996    0.2515119779925655 Nb
   0.3354831420795581   -0.0022186799230069    0.7468184002496784 Nb
   0.3330745368059554    0.2463264546137958    0.0050155202802854 Nb
   0.1709500064046328   -0.0001585261335812    0.8759321908847820 Nb
   0.8267906620895907    0.8751059559401586    0.2504148993573079 Nb
   0.4958980752812798    0.8735411072819294    0.7483290036175483 Nb
   0.5025483590154762    0.3760139134023732    0.7486639008046089 Nb
   0.4977801923625514    0.1251166494636082    0.0087823572509601 Nb
   0.6654649776606418   -0.0043741822463305    0.2481432775907802 Nb
   0.6612341196617801    0.0014390672709692    0.5001744725349936 Nb
   0.1715015478777359    0.6238769809843069    0.5021492926224875 Nb
   0.1720758372836697    0.3777151330006195    0.7466529132030373 Nb
   0.1626800247420545    0.1232176034326943    0.4998052536903767 Nb
   0.1689449129581824    0.1251684496650354    0.2516556767184703 Nb
   0.1648648387771679    0.1291451265284871    0.0016618748045169 Nb
   0.6646709850406416    0.2518055869037635    0.2474451663200349 Nb
   0.0053461142398710    0.1262706116378796    0.3761438006920625 Nb
   0.0043774609369139    0.1246161796898344    0.8819485055559115 Nb
   0.4989655874280552    0.2469336050228359    0.1275666621893849 Nb
   0.6627224053135871    0.2559577941147422    0.7509315095078412 Nb
   0.3340103487116387    0.3779737973883433    0.6279421657807425 Nb
   0.0023075344229701    0.6256023201113415    0.6251183544085938 Nb
   0.6684976742806770    0.1243968877788458    0.6209250655274452 Nb
   0.6608381548227287    0.1266923319225732    0.8761906298219856 Nb
   0.6668043124672537    0.3796633928026740    0.3702651495803562 Nb
   0.3325235029366506    0.1222663513897249    0.6229922008741238 Nb
   0.3379783690000362    0.8781008396871754    0.3714422028223066 Nb
   0.6621483757454441    0.3795141014659251    0.8728538236602902 Nb
   0.0029128066357657    0.0015840820824958    0.4988235259375734 Nb
  -0.0043902258387149    0.2472023694621185    0.4974877267483854 Nb
   0.3357420335181153    0.1242773520505394    0.1287808558958766 Nb
   0.3362808322984331    0.5014788140058016    0.0019976023047224 Ti
   0.6658046903833381    0.8748956837699631    0.6203633230226528 Ti
   0.8329696766518324    0.3756282236717466    0.4975170499778939 Ti
   0.8322341049670038    0.1252921000415566    0.4982948686001772 Ti
   0.3338133523879944    0.8738492458039315    0.6237459923203807 Ti
   0.4993632140520303    0.8758305184687701    0.0044239868561609 Ti
   0.4965933783219780    0.6242996680053815    0.7505947271297629 Ti
   0.6645622296879170    0.4990740031817621    0.2536127667264523 Ti
   0.4987876840214417    0.6215933454243620   -0.0021978003504724 Ti
   0.6672245159098708    0.1278418661294673    0.1313553899120494 Ti
   0.4983738142196864    0.1255282989872188    0.7464720151940057 Ti
   0.6630444722183108    0.6219036433949738    0.8730063153318915 Ti
   0.6674654113035454    0.7490463053053179    0.2533116634141051 Ti
   0.1674055919718581    0.6244140783105772    0.7492766175023549 Ti
   0.6678877142559377    0.3781581301879640    0.6243315010034077 Ti
   0.4963641362447133    0.6225791004567967    0.4983321329182777 Ti
  -0.0002796550128127    0.2517990661571899    0.0056957646234163 Ti
   0.8365946355153300    0.6224928768444261    0.7474824977028962 Ti
   0.3384509579730905    0.8768274941609603    0.1272323857758787 Ti
   0.0021916558420429    0.6227184562504656    0.8699862809682147 Ti
  -0.0029661828171175    0.1267314401641180    0.6195514465214315 Ti
   0.8365349197730142    0.7490419348371238    0.6226362996450445 Ti
   0.8306446644676686    0.7474542038511265    0.3750252362088555 Ti
   0.8347944407198147    0.2501855687617808    0.1321315589526999 Ti
  -0.0014633013393440    0.2508606033917146    0.2492057269488887 Ti
   0.8315601216856050    0.0030081727911957    0.6185127693713812 Ti
   0.8299579766762283    0.0041711892178130    0.1304381891236521 Ti
   0.4980817586918309    0.7454877738137137    0.8722455004212125 Ti
   0.3325646762271640    0.2530198519749179    0.7477375035050134 Ti
   0.3387056142596450   -0.0010394593230424    0.0036817173665233 Ti
   0.3333977356731645    0.3800866506138560    0.3740696739508625 Ti
   0.5003313446727309   -0.0013219461938810    0.1266528972920941 Ti
   0.1685237683404085    0.7441146215028368    0.8709976740355123 Ti
   0.3325832627133777    0.3762588020433892    0.8769947690088941 Ti
   0.3346886786053495    0.6205271611864533    0.1237395676754634 Ti
   0.1731277738086643    0.5007906960701967    0.6238149506566661 Ti
   0.6631107755429194    0.4992813987451510   -0.0013240908592319 Ti
   0.3350004769116494    0.6228007176821255    0.6233270720014199 Ti
   0.6604435135832651    0.0014674823042165    0.0045322889070204 Zr
   0.0045045425960282    0.5056418521361868    0.4989975296563945 Zr
   0.3330786555758281    0.2462185318539781    0.5005068738399510 Zr
   0.3312584119763892    0.4994305143861467    0.2532863501045122 Zr
   0.6623712943575697   -0.0001708607434306    0.7484737910586317 Zr
   0.3351921213727906    0.5019790561628348    0.7463942488309319 Zr
   0.0004986076188071    0.7459663141575288    0.0007686058022024 Zr
   0.3381041485274873    0.7463790080826191   -0.0030116170348892 Zr
  -0.0006863894214380    0.0014657195861512    0.7457077545405726 Zr
   0.0019787092521038    0.4980330298181000    0.0038413962313265 Zr
   0.8347300002224337    0.6229879660490544    0.2535159528212217 Zr
   0.6641914578174927    0.5003659309984111    0.4976000101232328 Zr
   0.6634819231435821    0.6214913258346461    0.6254178599211579 Zr
   0.6660230797656251    0.6193741850858908    0.1268347310710203 Zr
   0.6621108181116488    0.1214044548418616    0.3717030239344102 Zr
   0.3309072846990647    0.3794477185398843    0.1271937069864192 Zr
   0.0042297902965891    0.8713699675486329    0.8717181676124742 Zr
   0.0024536415593206    0.3790918247867368    0.8764896841556604 Zr
  -0.0004798758937554    0.3812311923678675    0.3713577263368060 Zr
   0.8313057252604505    0.2533658844545452    0.8748450594329639 Zr
   0.8311115872495186    0.0013278101716004    0.8764085455499527 Zr
   0.4997729717867294    0.7502615808078041    0.1280188210195733 Zr
   0.5010342020124234    0.2519572548010166    0.6262275022785315 Zr
   0.6725146182368748    0.2515605702856901    0.4984694476012872 Zr
   0.1667434432857079    0.7463252585899544    0.6240047119882109 Zr
   0.1699240190762170    0.2538120029704469    0.8769444305525128 Zr
   0.1632599934045469    0.2513235574745044    0.3753777794397491 Zr
   0.1706101618335401    0.0040352908449906    0.1273317077238570 Zr
   0.8346247779091425    0.6262606909759746    0.4996915427408853 Zr
   0.8299382711397203    0.3812164312533145    0.7461067945805541 Zr
   0.8315254909055340    0.3754988137349445    0.0040942000041260 Zr
   0.8289622287638981    0.1275811520778442    0.7461166628413570 Zr
   0.5001088198903886    0.6224641392408909    0.2544074267905881 Zr
   0.1687330057800262    0.8701045735082292    0.7453399091103491 Zr
   0.1713656227511192    0.8754737962121711    0.0024886509018536 Zr
   0.1704555937591473    0.1255539757409067    0.7473500196977187 Zr
   0.1696954267476418    0.5021893879156497    0.8736284773882337 Zr
   0.6596991984919177    0.8720208334184663    0.8738670406036632 Zr
