Mg37 Zn36 Co37 Cu46 Ni36 O192
1.0
  12.8752178144783791   -0.0012728564782453   -0.0004618655933645
  -0.0016970202478665   17.1917306996137356    0.0027442072028109
  -0.0006158691158616    0.0027440966638632   17.1719635612745769
Co Cu Mg Ni O Zn
37 46 37 36 192 36
direct
   0.8324326863458008    0.0037839099684242    0.6281104069577499 Co
   0.1687824757345433    0.2469400838128393    0.8759591293487026 Co
   0.5096027800951198    0.8788690762185654    0.7543341103931631 Co
   0.3335720702044264    0.5021235456689626    0.2499173572529698 Co
   0.8312261752669095    0.7451439130870335    0.1224433065768943 Co
   0.8350021837858439    0.4991265712634956    0.8699785074332754 Co
   0.8308824019571270    0.1211970898800560    0.4952161758470314 Co
   0.3341985914727603    0.7442327775584353    0.2570795259824799 Co
   0.8305966890662873    0.2532835665614984    0.1252467651459415 Co
   0.4997809695781975    0.1291859849728662    0.2475952566198825 Co
   0.1710368611979274    0.1169861369453473    0.7526777292021152 Co
   0.4989433131600656    0.7476443527437876    0.3763337756874572 Co
   0.4973466511609175    0.4970596993053719    0.6280813245865282 Co
   0.4981343446265613    0.2551049003959489    0.1262165508276190 Co
   0.6678796627851219    0.2530498584898505    0.2491733922618250 Co
   0.6653787576650468    0.2457557235341549    0.4943742302306242 Co
   0.4939161871375150   -0.0016406777357105    0.1285531220304482 Co
   0.8328010934552946    0.6261703591371403    0.2524605874625688 Co
   0.3327521618201498    0.2551507821395961    0.2473148829942177 Co
  -0.0001643473884980    0.3750694014455397    0.3759466468223890 Co
  -0.0017467285675127    0.1196301814671622    0.6243195265746927 Co
   0.0005071077458220    0.6262726134183504    0.3786575848047108 Co
   0.5033964867205166    0.1244765235849761    0.4932020347094633 Co
   0.6681296128587452    0.8732223542836309    0.3680939302354099 Co
   0.6665466253963347    0.6226290242008772    0.8663560293874608 Co
   0.6670102853091776    0.1264362483202129    0.3689283654022625 Co
   0.6599208590259256    0.1290295715438529    0.1249088024407852 Co
  -0.0028896001908968    0.6251220920549124    0.1226327543505528 Co
   0.3393374805563061    0.8768602463074328    0.6239638496919743 Co
   0.5010395409016728    0.6214253359350197    0.2558520442132435 Co
   0.3352021915294778    0.8725947715994933    0.8704776908546983 Co
   0.0007486935351027    0.7472920234999764    0.0004009781222211 Co
   0.3360201474632200    0.1240919575878048    0.3674778863351429 Co
  -0.0052863665627507    0.7586227450996775    0.7493431938409755 Co
   0.0001559177406489    0.8693483019455710    0.1250618019706884 Co
   0.3305505936170695    0.6296970907585707    0.6272131105879114 Co
   0.8367264658084848    0.6279026687792120    0.5031487369942339 Co
   0.5043181842219987    0.6258195008482137    0.7443593258496194 Cu
   0.8353919007086362    0.1191666431250649    0.7587232915268414 Cu
   0.5050046759893060    0.6236422227997600   -0.0070079929020125 Cu
   0.4959775670090132    0.1265555197225866    0.7516502214061220 Cu
   0.8355889080908785    0.1301423723036499    0.0044742920420661 Cu
   0.5002816946353641    0.8698308669799595    0.2502929687446029 Cu
   0.8327470196404605    0.3782164589098176    0.2504754048543722 Cu
   0.8361320250634879    0.3655861176275577    0.7500629699851126 Cu
   0.0070230795417688   -0.0025095566462562    0.0020236747647973 Cu
   0.1706366953532801    0.2541655079441854    0.1253100575266760 Cu
   0.6678026953750797    0.8832308408892091    0.6250142698411262 Cu
   0.6676428878355319    0.6293371414275316    0.6246601699456308 Cu
   0.6651100133546587    0.6211205117984877    0.1222887456480950 Cu
   0.3353788296798234    0.8653359160830411    0.1351760147643664 Cu
   0.3348191400169065    0.3657912461501813    0.6297728192887089 Cu
   0.3341115096615311    0.1253827152156990    0.1282258072989424 Cu
   0.1679094371780512    0.0009711407598589    0.3714403663979079 Cu
   0.0083077987808533    0.1279352936925721    0.1233664664201347 Cu
   0.8332272547500935    0.2478295162091594    0.3711786531099098 Cu
   0.8262903393104486   -0.0005970647196469    0.3658279527542145 Cu
   0.5017177301316268    0.2427463887919395    0.6205978448449671 Cu
   0.1682364842008549    0.7471534463743291    0.1315011763340053 Cu
   0.1646540041633800    0.5007664534308398    0.6299287651508069 Cu
   0.1661693558352086    0.5040786884298838    0.1217629753009662 Cu
   0.8340834888290076    0.7502215222950558    0.3768368846687588 Cu
   0.1643354443957789    0.8761748612038620    0.7474832039643092 Cu
   0.6635218842109384    0.8775211335387364    0.8844230471227290 Cu
   0.6637791731577625    0.7434060020736899   -0.0025825772997419 Cu
   0.3349557449382153    0.7492798709791373   -0.0030979291554633 Cu
   0.3363149059697095    0.7526114080921824    0.7447609998566211 Cu
   0.3350513196754119    0.2453723833298122    0.7521651795324085 Cu
   0.6671193798798153   -0.0010923388119159    0.4945808374176732 Cu
   0.3370062295713286   -0.0089780990384369    0.2558153024426036 Cu
   0.6599486791931758    0.2441986087514506    0.7514544524029801 Cu
   0.3336963362623079   -0.0052333765434344    0.0016185078650348 Cu
   0.6667447966385223    0.5015532080251147    0.2552973550788094 Cu
   0.6667666191865216    0.4957254669423849    0.5083862665983451 Cu
  -0.0052979252582837    0.5066934043051770    0.7476788442903772 Cu
   0.1632897786314282    0.3789648425253582   -0.0013600563652729 Cu
   0.1688166123376322    0.3717154534052970    0.7485408098850016 Cu
   0.3319282708486525    0.5044391539208366    0.7490932018193115 Cu
   0.1656676561558675    0.6300263267740658    0.5048283156329988 Cu
   0.1662924061025896    0.8707748987725652    0.2537166874366689 Cu
   0.1679119376866514    0.6307067749408644   -0.0032103912343088 Cu
  -0.0068878395663874   -0.0006147977619053    0.4924692263128181 Cu
   0.1580944539799763    0.6348493553141816    0.7450887165761352 Cu
   0.5045455464764299    0.8752732855368759    0.4962958213321959 Mg
   0.4964886937737515    0.8733252764857079    0.0030962879396067 Mg
   0.1667102729952177    0.7517818497714953    0.8690921895141540 Mg
   0.4967174549936909    0.3721818893779518    0.5008827020739151 Mg
   0.5073428683907205   -0.0014967011876955    0.3688789934210316 Mg
  -0.0023113933699504    0.8764665564274321    0.3711133115401720 Mg
   0.4995899342133675    0.3797386193242432    0.2509091281993442 Mg
  -0.0015641924993682    0.6284910454721608    0.8705082024341987 Mg
   0.5039832741290470    0.5029954054023339    0.1223826082150439 Mg
   0.1660223254338656    0.6225188660428970    0.2511995623514697 Mg
   0.4980538147538535    0.4997955724411550    0.3816952640364031 Mg
   0.3385139974737099    0.0012753849749029    0.4958823039269067 Mg
   0.0040719993458787    0.3740250931792658    0.8714951479531403 Mg
  -0.0012096726371183    0.3791034963868574    0.1240228092287354 Mg
   0.3358815970554742    0.2448987580979014    0.4970255678393135 Mg
   0.1659731036360575    0.8817143421323121    0.4980522390961654 Mg
   0.8337961802710226    0.0029933914127944    0.8830140965832443 Mg
   0.8303622318201804    0.7574853699140707    0.6256533266840290 Mg
   0.6652709301127487    0.0052763668149589    0.7593412020219474 Mg
   0.3295948933732907    0.3782921365914549    0.8736146170750915 Mg
   0.1645335012007316    0.5050202764691444    0.8685544984555081 Mg
   0.3341221420918020    0.6268262040660845    0.8689789915371603 Mg
   0.4983817706081541    0.6255646372261104    0.5048148418604500 Mg
   0.8333758001418923    0.3759982497516451   -0.0033979394477270 Mg
   0.8298890412023083    0.6324070463001144    0.7474433128120398 Mg
   0.0002161207581406    0.5037929969175403   -0.0017994317751403 Mg
   0.8332689258801399    0.8730145584160980    0.2460212473582326 Mg
   0.8303194849088268    0.8780572360871480    0.4971988165431808 Mg
   0.6680669627203687    0.3792586976327155    0.1246112318231451 Mg
   0.8263924427333473    0.8789976415889411    0.7554662994026774 Mg
   0.6654183005138049    0.3655865505629163    0.6256527297467533 Mg
   0.1661004161214152    0.0000928034596765    0.6253361707537712 Mg
   0.1673600475456530    0.3779845914111882    0.2503146216872337 Mg
   0.1689533186916957    0.3670653420894853    0.5031322971897845 Mg
   0.1704907906737188   -0.0043670536707190    0.8764794349676607 Mg
   0.8285837336712281    0.5021247793272970    0.1227319394916953 Mg
  -0.0000891208809744   -0.0008905174588004    0.7564830354425379 Mg
   0.8330460805559323    0.7516953505935907    0.8748281498184677 Ni
   0.3321765944231692    0.5048985908847696   -0.0032268951666518 Ni
   0.6663301790504607    0.3707155952486347    0.8714527754281971 Ni
   0.0050193717018687    0.1239570818564100    0.8825547118318733 Ni
   0.6652665007203804    0.6233872957452872    0.3848976847650125 Ni
   0.6667152235749110    0.1221895858290143    0.6241113877840387 Ni
   0.3372244697651292   -0.0053401638742060    0.7489230124267295 Ni
  -0.0017523924402188   -0.0013924092641079    0.2437366427579365 Ni
   0.6614769159763165    0.1309329715639267    0.8811833604051045 Ni
  -0.0018169748860191    0.6325875564400593    0.6261846052706489 Ni
  -0.0006492068936470    0.8738679590699826    0.8776845383329741 Ni
   0.3338562817924118    0.8740210010749951    0.3775454544888506 Ni
   0.0046690165421468    0.4983773241906809    0.5047942635204030 Ni
   0.0008964612459887    0.7549557793029408    0.5001073114750855 Ni
   0.3315945292145497    0.3839359002023370    0.1240053658735107 Ni
   0.3328427368323986    0.3745593755415209    0.3753194029062234 Ni
   0.6652235009245601    0.3757329649523397    0.3774299181972379 Ni
   0.4923208966918859    0.1268128953935153    0.0045825045087177 Ni
   0.0001371079313995    0.7477130531619469    0.2515496945098982 Ni
   0.1627322968284959    0.7589082485615217    0.6234392210159085 Ni
   0.6677975610795893    0.7564676343280815    0.7517929988937180 Ni
   0.1676500088129646    0.1269051082591242    0.2477792885296652 Ni
   0.8327646242725890    0.1239298708623782    0.2437353245617990 Ni
   0.4975253720701339    0.3704298744791940    0.7493716828689421 Ni
   0.1687103863066514    0.2488682058082987    0.3726207517482108 Ni
   0.6674641797471114    0.4970011138254607   -0.0075391723823234 Ni
   0.1657842525090327    0.7504807291085598    0.3791922477965617 Ni
   0.6645864345360399    0.2519747547314112    0.0024162043726892 Ni
   0.4981817559211693    0.2518809122161476    0.3706039674301084 Ni
   0.4967591472676965    0.2511494260224345    0.8794851184971756 Ni
   0.5017163916941488    0.7447294442160967    0.1268755946760187 Ni
   0.1733251161944918    0.1223747170921831    0.0033243119967070 Ni
   0.8332172465536122    0.2470405993303287    0.8778738487709107 Ni
   0.5043887904631340    0.7557666627226065    0.6255222983315133 Ni
   0.3315342929071946    0.7540765035451990    0.5032287560899749 Ni
   0.6679354565945688    0.0013863828303550    0.2419297433257066 Ni
   0.3269153452387861    0.5038583318372127    0.8709748164717694 O
   0.6697896481559620    0.0007477741605419    0.6403530294681727 O
  -0.0030433984842460    0.7454982890350060    0.1260142523735452 O
   0.0056448440544265    0.7521493234884401    0.3771425815393350 O
  -0.0048544960622660    0.7589750268757265    0.6223727166069456 O
   0.6725733416504396    0.0001238022668272    0.3592452442544609 O
  -0.0005331241936644    0.7514472387229914    0.8753309343007606 O
   0.6568901839021616    0.0027988926686213    0.1236643475923514 O
   0.3328481334808369   -0.0211102075823137    0.1439330606194135 O
   0.3475246459434606   -0.0015894910754087    0.3702252957507449 O
   0.3346337594403908   -0.0013707286824896    0.6215100732687551 O
   0.3384858055586387    0.2673676572126079    0.1251643776406075 O
   0.3325524165438523    0.2514035102596320    0.3717478936102313 O
   0.3323319453551079    0.7484574106913824    0.8589282393196588 O
   0.3457552001554110    0.2376880114420151    0.6207786392101301 O
   0.3320250421842368    0.2535691174890063    0.8786858568572264 O
   0.3367616714029923    0.7543371144169424    0.6278992654743614 O
   0.0015703394775395    0.5011349113579708    0.8713766888600805 O
   0.3412362639423710    0.5039998072704708    0.1225191104615466 O
   0.3302743921441593    0.4976365174399892    0.3775159334224915 O
   0.8336708417937617    0.8693125627759994    0.3711957642772392 O
   0.3309196558860074    0.7504684332984718    0.3801691069361471 O
   0.3412778003395163    0.7496757792951355    0.1380290818710464 O
   0.3247230257847481    0.5111039990354310    0.6317581601926335 O
   0.3318858003370377   -0.0047573285238368    0.8682289608079662 O
   0.5058536206701554    0.6292890197939807    0.6271761804778357 O
  -0.0000023377928370    0.2408520283512528    0.6208748603869882 O
   0.0043238500886978    0.5010171404663828    0.3805458866147817 O
   0.5128152141144759    0.7694948779662185    0.7476312612375209 O
   0.8312059031991758   -0.0005227459141873    0.0026450742395801 O
   0.8333204787066085   -0.0009614847319268    0.2342190683892288 O
   0.8233185280003484   -0.0015110754869233    0.5069428253939309 O
   0.8315727923434554    0.0046097149267490    0.7602400093745924 O
   0.8307312430012552    0.2548669210463317   -0.0002085012870556 O
   0.8320767572479847    0.2444445967273878    0.2523616698895035 O
   0.8315595394083796    0.2464546395074100    0.4892274329060034 O
   0.8327455358970739    0.2315302982714132    0.7554416822558802 O
   0.8349082544188375    0.4965906078129076   -0.0048737287643405 O
   0.8291627298163623    0.5068375578643871    0.2508600735585810 O
   0.8465281492643586    0.5005606064768845    0.5057290753979721 O
   0.0032177238326023    0.4996784717766271    0.6273267340951637 O
   0.8352108156352753    0.5105692762057443    0.7459173920518687 O
   0.8326137105026996    0.7478880665691162    0.2463979046831739 O
   0.8366543038489582    0.7553100940551625    0.5041479121452620 O
   0.8265412117249114    0.7568687457514903    0.7503206073726669 O
   0.0094127762456554   -0.0080786330056394    0.1206576080775957 O
  -0.0217521282871026   -0.0019270822868549    0.3623591074697681 O
   0.0001096017027327    0.0009065049449747    0.6364970246271432 O
   0.0028561686744604   -0.0001964705196335    0.8822126591694268 O
  -0.0080483377783779    0.2587313652042370    0.1240621161759146 O
   0.0088151813494819    0.2484086495944691    0.3736393188439087 O
   0.6668786613077057    0.0134660266157295    0.8793089401433642 O
   0.0019898665010371    0.2481515095691265    0.8797966260245844 O
  -0.0086677082441627    0.5016415296630635    0.1210354483476858 O
   0.8333462212023749    0.7491779155862344   -0.0029401404726085 O
   0.6647069009796609    0.2572637148614672    0.1258093819237453 O
   0.6607935258358577    0.7467408225418213    0.3782186537238287 O
   0.6582291942672395    0.2441826153121615    0.6166321937208598 O
   0.8374829969885071    0.3714545754315202    0.8682653084125737 O
   0.1650688747891748    0.8738456433151188    0.8660788441994440 O
   0.8330256285054690    0.3634717435076472    0.6310378140815515 O
   0.8323968771761274    0.3783696668598563    0.3752145209739418 O
   0.8314856009375157    0.3790282717874039    0.1228301260210534 O
   0.4910711026248780    0.1290272583316113    0.1258034449111650 O
   0.5021588679597689    0.1263116071208877    0.3694657633456133 O
   0.8371000513148491    0.1260295242382040    0.8896860897325255 O
   0.4961468050143648    0.7514191389791416    0.5027282330593428 O
   0.8296083721746860    0.1244942669251922    0.6164224276497734 O
   0.5068576617972381    0.1192033409027341    0.6147970592589357 O
   0.1688201292881786    0.8796816798274013    0.6270179472423820 O
   0.4943607519488818    0.1281744640849092    0.8855689165407636 O
   0.5028985840798899    0.3820930703689021    0.1265845575831605 O
   0.8220107866842865    0.1310962220948972    0.1201989943075183 O
   0.5002401727183774    0.8741282560778405    0.8813770993143463 O
   0.4988940142128578    0.3780954257831477    0.3758396101193241 O
   0.4930071182885644    0.3710994569657579    0.6248426556226683 O
   0.5076497201895446    0.8790272182209113    0.6183043380869164 O
   0.5009504444335473    0.8733879824904778    0.3701914011851575 O
   0.4966452671182580    0.3741668817072290    0.8736865614085857 O
   0.5034405154655046    0.8683247807286756    0.1289615574976599 O
   0.4998386395933478    0.6238110685144989    0.8603067822450241 O
   0.5065068977088129    0.6229063849099520    0.1344972217551971 O
   0.8306669773935482    0.1227555125842651    0.3682351153373462 O
   0.1651475927291878    0.8799412296799777    0.3734097976133138 O
   0.8254196730408070    0.6231006746108483    0.1239483720468711 O
   0.8351124449389857    0.6293871916137699    0.3818399198838408 O
   0.6657723951861353    0.2502682731759856    0.8832237764073303 O
   0.6665948449821555    0.5021409184027013    0.1126972791253586 O
   0.6638065084203685    0.5002256737850490    0.3946314016199833 O
   0.6697659764052696    0.4847180624026058    0.6228674539022082 O
   0.6731965757524074    0.4936955594921161    0.8693289999162915 O
   0.6633974495923364    0.7390316315747416    0.1151597383662548 O
   0.4983881516606075    0.6212163164181923    0.3833111652576294 O
   0.6675063708806551    0.7673103920191915    0.6254778002239484 O
   0.6680191793575301    0.7425207571833689    0.8785924777056539 O
   0.1796806891153422    0.1323240628371600    0.1268821095618244 O
   0.1675171287188152    0.1219288234028680    0.3693420293779887 O
   0.1672676163657101    0.1196005494423627    0.6240123407530943 O
   0.1703048397228402    0.1189487334060254    0.8792287409589734 O
   0.1647352916746312    0.3738999452198798    0.1264853922491130 O
   0.1673258587632587    0.3740309661852843    0.3751217100792350 O
   0.1775071024069003    0.3583234122907690    0.6299755342032362 O
   0.1660783770180596    0.3792833677752120    0.8671329651086819 O
   0.1681580738248294    0.6327643312589001    0.1237838135563656 O
   0.1645921248599384    0.6238422404580207    0.3820920875337392 O
   0.8311539309106036    0.8679272721460763    0.1226990985021754 O
   0.1613247696142052    0.6423031429714785    0.6232832184497631 O
   0.1664297790553124    0.6281543412526208    0.8696952464337412 O
   0.8333971856343394    0.6270138982658252    0.8690106251590964 O
   0.1642386059428105    0.8627639874513914    0.1335338776959183 O
   0.8303439970826564    0.6329022196354742    0.6249807722755477 O
   0.6585772353337137    0.2529932930233188    0.3703500408878192 O
   0.5049781599535622    0.7397834947719093    0.2523185345284955 O
   0.3613362179401588    0.8768363695299334    0.7459599648179432 O
   0.5155798139507404    0.4863933859161016    0.7457450226967560 O
   0.3422915649254846    0.1128723647927943    0.7497221536460350 O
   0.3193056379398949    0.3840643040285695   -0.0024056888122336 O
   0.3330518712683586    0.3803641887953798    0.2504907883497212 O
   0.3329840869497572    0.3681778851150564    0.4989361893597634 O
   0.3269807867893583    0.3888833033783979    0.7500295122554237 O
   0.3511607637571169    0.6258237581542495   -0.0054190307710434 O
   0.3299698429336550    0.6220748797713749    0.2554340227437843 O
   0.3277404383840352    0.6314186156554935    0.5059759921966328 O
   0.3493572729310904    0.6215900376147651    0.7468472186813979 O
   0.3319838806795916    0.8710810076151272   -0.0075167638779001 O
   0.3332834318767992    0.8641676876992714    0.2607831728718516 O
   0.3366649380453993    0.8778178860281002    0.4984634172730746 O
   0.6493087411464304    0.1302521148189438    0.0038356719806771 O
   0.6691892494957459    0.1270700984894636    0.2456723588948838 O
   0.6671535203496409    0.1186639161360080    0.4942717866068912 O
   0.4908805646234402    0.7503511570266057    0.0021451512221006 O
   0.3324844231933375    0.1365141476735739    0.2455404676995856 O
   0.3333394380374671    0.1167187773588911    0.0101277124107608 O
  -0.0156592853848860    0.8790464975517001    0.7555067555497703 O
   0.8266135771216127    0.8798087433080241    0.6279259440138483 O
   0.0150135225321168    0.1239322482069547    0.0069693309449214 O
  -0.0009670878146817    0.1237765925681902    0.2399909764181572 O
  -0.0018184282063607    0.1149557659929270    0.4960501248564826 O
   0.0077955485539760    0.1206926596242969    0.7565741548845044 O
   0.0049086744953338    0.3805360395912001   -0.0031262364015125 O
  -0.0009355929802615    0.3790640688410931    0.2498091997398975 O
   0.6490571489598446    0.1294377515852971    0.7526745684790700 O
   0.0028079592666931    0.3721753783802684    0.5033211314279689 O
  -0.0092901624748305    0.6246297553788699   -0.0037929636047240 O
   0.0003564077603041    0.6251166951690936    0.2508917891105380 O
   0.0052723446093017    0.6284722305203797    0.5051373919694475 O
  -0.0125161091012952    0.6413801533415593    0.7474945117440380 O
   0.0110348149276499    0.8675201330307827    0.0003683156080881 O
  -0.0050372841206673    0.8718307090309415    0.2491597106659530 O
  -0.0030984195772211    0.8826343677468339    0.4951188061156968 O
   0.0112787447388080    0.3591025149689306    0.7487695415952190 O
   0.6707111415887039    0.3755992893576025   -0.0024581361741027 O
   0.3373537424332944    0.1221845059552139    0.4916134705955583 O
   0.6640648881617049    0.3691190607166702    0.5012784651761302 O
   0.1777827293991498    0.7449940469842818   -0.0103849732759101 O
   0.1638147437702035    0.7422998100601444    0.2605871272745651 O
   0.1654245690409848    0.7642898248749725    0.5007394978675235 O
   0.1568094965849516    0.7536427755175095    0.7461209217337823 O
   0.4877435201621979   -0.0026215051719043    0.0053682578604840 O
   0.5076211162468711    0.0097832339312000    0.2480650104411851 O
   0.5055150322325158   -0.0021072338843674    0.4915629055599982 O
   0.1458849594713415    0.5202770786638566    0.7451135893166956 O
   0.5036908230237557   -0.0091432808246220    0.7539797673341406 O
   0.5023473619726245    0.2562992511191945    0.2490746672167424 O
   0.4987312416929796    0.2490830285947536    0.4893993879750947 O
   0.4870022769610120    0.2525152136938812    0.7605620424105961 O
   0.4980940324247188    0.4983818853666561   -0.0047310531711868 O
   0.5040079179437379    0.4996170786790614    0.2545659356661936 O
   0.4864193323841154    0.4993838460287092    0.5063951811671137 O
   0.6681831213882427    0.3824398909746580    0.2513479520615735 O
   0.4967589387008486    0.2549068580879536    0.0023608166632052 O
   0.1667431313492460    0.4866657499489629    0.5111185162493778 O
   0.8341055413651758    0.8776461693301773    0.8796445943999732 O
   0.1670191046638184    0.5157779989866963    0.0003168120492129 O
   0.1662125509486878    0.5012026383517137    0.2419343355475763 O
   0.6593618031259024    0.6140088756710044   -0.0157346596687737 O
   0.6692879655700955    0.6176666729414613    0.2673888668788730 O
   0.6652379278767951    0.6286364633461362    0.5067395018188537 O
   0.6641845922782711    0.6334833398580356    0.7432688721590162 O
   0.6593226741024424    0.8821348303123989    0.0002953634528708 O
   0.6712130710460946    0.8724468695909628    0.2466428614985760 O
   0.6673222576308866    0.8797394586876456    0.4860471073775563 O
   0.6637759498719591    0.3591776809980532    0.7489313108054578 O
   0.1799126546060005   -0.0036901606448077    0.0037671726652436 O
   0.1572967020807255    0.0068338606910504    0.2519408195053407 O
   0.1750318397103819    0.0001000925366813    0.4962798295902343 O
   0.1683455620131876   -0.0037310175117836    0.7504683702455746 O
   0.1703884973372635    0.2421553320121378   -0.0021463403958573 O
   0.1658538777992704    0.2532145848731430    0.2516465323776486 O
   0.1709490220522485    0.2453337022605853    0.4956119628878334 O
   0.6627924105888705    0.8804281488108471    0.7691229779963236 O
   0.1817159268493589    0.2336928206788801    0.7536285517944356 O
   0.4976017076220727    0.4990023477427147    0.8689872790314705 Zn
   0.4963792541515473    0.0021550983475355    0.8796484326376709 Zn
   0.5053289285437669   -0.0002710861543488    0.6227844011891440 Zn
   0.1669931786501826    0.4986254212973054    0.3831612023372272 Zn
   0.6725088587949142    0.4941137831812650    0.7462184995703006 Zn
   0.1690258465499615    0.2398376813405113    0.6280933878149110 Zn
   0.6681702596560474    0.7446936773737346    0.2538588412810776 Zn
   0.8284614545341337    0.6226564946040370   -0.0063337425581231 Zn
   0.8284735846017625    0.8733989271638439    0.0012123674562416 Zn
   0.6680511262395858    0.7533099983799905    0.5014546830949622 Zn
   0.8328160347931892    0.3722688766418336    0.5000942281645948 Zn
   0.1686417068754767    0.1213968516559569    0.4961123982412872 Zn
   0.5036758908258923    0.3779038205828854   -0.0000208620646149 Zn
   0.1721763545911109    0.8697568453450959    0.0046405096939880 Zn
   0.4991525070853920    0.7495232903142742    0.8736840349689333 Zn
   0.1732896696601328   -0.0042909118972486    0.1283938213424592 Zn
   0.8385903273612656    0.0038370865118193    0.1186379272436743 Zn
  -0.0047304968391388    0.8814263636123346    0.6262934650212814 Zn
   0.8328154124845799    0.2426803669531795    0.6299410625553510 Zn
   0.0043997293797317    0.2515206658124139    0.0030035847045899 Zn
  -0.0000906424555526    0.2518078149942796    0.2477162164212707 Zn
   0.0001982361678121    0.2467474645743327    0.4970913418643247 Zn
   0.0001999233751416    0.2402577143217841    0.7539300685661285 Zn
  -0.0006257589706444    0.5015876231733987    0.2483176733405797 Zn
   0.3308536145725500    0.6237296780883732    0.3811811148315197 Zn
   0.3364801767522850    0.6260732464261218    0.1210959739249322 Zn
   0.3331607815096224    0.1237536299252554    0.8752447732735308 Zn
   0.3385953133167446    0.1195652122019895    0.6249699664763460 Zn
   0.0002715445024769    0.3696368484477044    0.6280391011368291 Zn
   0.3298542255309517    0.2579823401529267    0.0029141405664739 Zn
  -0.0014132305151002    0.1207158816968110    0.3700375799445255 Zn
   0.3276584493884906    0.4937308365328437    0.5077583236543197 Zn
   0.8326813482476683    0.5023495157784313    0.6257149431579930 Zn
   0.8312411816378998    0.5014889831564245    0.3792164655262406 Zn
   0.6645313566510483    0.0055325144708466    0.0011985419724501 Zn
   0.6657699217895402    0.8748156453276290    0.1237797309317956 Zn
