Hf39 Zr38 Ta38 Ti38 Nb39 C96 N96
1.0
  13.4869578101422931   -0.0013014096018240   -0.0009826527361639
  -0.0017353209366495   17.9736117462360347   -0.0029188359145365
  -0.0013102260656617   -0.0029185118377559   17.9875708037362294
C Hf N Nb Ta Ti Zr
96 39 96 39 38 38 38
direct
   0.0028502114387732    0.4978287601238352    0.3751254517426615 C
  -0.0029437858052223   -0.0007605689164020    0.1239345430452403 C
   0.8366307071433170    0.7508776662463855    0.7531721437256277 C
   0.8312541991226596    0.7474719440272142    0.4992418708717830 C
   0.8312872417042169    0.7464740038736005    0.2465819804113240 C
   0.8385053246756587    0.4988190744391630    0.7464310195382282 C
   0.8319129090855988    0.4978337964512563    0.5038825968785779 C
   0.8351490274071280    0.5006703926471237    0.0035897016155003 C
   0.8284821719155713    0.2540593818362869    0.5018677168612193 C
   0.8337788850134856    0.2502133590823922    0.2497652630930776 C
   0.8330939727305808    0.0015888993980777    0.7511252484448067 C
   0.8356505562523097    0.0035650080425926    0.2472539779758033 C
   0.8332048913171443    0.0003660080551025    0.0017992235200506 C
   0.4961415665010781    0.7457501745952245    0.4979412101675958 C
   0.4982275221183007    0.7457835816349516    0.2483731832018006 C
   0.5003333905551199    0.7481369286180289   -0.0005011838144947 C
  -0.0040337537869751    0.2514073358030064    0.3741432801345312 C
   0.4932936247470962    0.5027905286725444    0.7476160841671324 C
  -0.0010954304967109    0.2505625864349279    0.6280129206280757 C
  -0.0010969147874737    0.7469246672202142    0.3741111534707240 C
   0.6732875075355200    0.2514464996970077    0.6266358362003464 C
   0.6699773104010417    0.2552003171427474    0.1225752395542981 C
   0.6638880990103279   -0.0019233410793813    0.8756527313194018 C
   0.6683990387022010   -0.0004504741999409    0.3746748105674026 C
   0.6679590947251117   -0.0013120918419401    0.1217113842515104 C
   0.3324879215975906    0.7522506214379685    0.6233063922334072 C
   0.3331192859053210    0.7468861612318737    0.1213841424684181 C
   0.3279643704836533    0.4998851928048494    0.8755599956387757 C
   0.3358165672142560    0.5006600896635245    0.3747235179360297 C
   0.3284883028876564    0.2493429591599578    0.6257787640973358 C
   0.3307045779610938    0.2535471665199980    0.1243029558967939 C
   0.3378957417411567   -0.0020974221880283    0.8761804322032236 C
   0.3318070400465462   -0.0025136050874679    0.6271444617238662 C
   0.3294690541030755    0.0004672609464448    0.3728833239723832 C
   0.0036529034905280    0.7493047740065887    0.8755035147881951 C
   0.0007955566340632    0.4994727950645655    0.1237761903948213 C
   0.5060848361270793    0.2450699429797926    0.7513877714451673 C
   0.5034566126161334    0.2506479854552560    0.4998911494521898 C
   0.4985026346225543    0.2485148855150951    0.2498903241565458 C
   0.8384573736133376    0.8753136826493088    0.6291166437020466 C
   0.0003218469935286    0.1245939808338833   -0.0013450721326481 C
   0.0007543902834398    0.3725453143512749   -0.0003407693704145 C
  -0.0044259077851081    0.3749687892915898    0.7460956919922848 C
  -0.0003391309299409    0.6252291699545892   -0.0021254161386293 C
  -0.0007693076640761    0.6226827398466388    0.4990407940556627 C
   0.0010239430383044    0.8795094368153762    0.2457058413887451 C
   0.0053786081920729    0.8784024133013920    0.5043794522017110 C
   0.3348401747902295    0.1234917394830069   -0.0000919615577347 C
   0.3335483979124175    0.6227767034530575   -0.0013209283738823 C
   0.3378507021822796    0.6245486226868224    0.2491848947780462 C
   0.3366477640868135    0.6269432702785275    0.4978516070593701 C
   0.3307179035134518    0.8769310592930208    0.7496022657935032 C
   0.6634133575539113    0.1249282468189630   -0.0010252861781430 C
   0.6641279708783404    0.1275167564014334    0.4993446592743949 C
   0.6720154682739042    0.3703177851947297    0.7526479893155104 C
   0.6676907355724174    0.6252051516860111    0.0005028417880884 C
   0.6649355803178181    0.6236454923673270    0.2492730558267737 C
   0.6654323917008855    0.6252066900975262    0.7540062735457235 C
   0.5031032838370264    0.2482634676513320    0.0009127214323383 C
   0.5012007754629859    0.0037739856863648    0.7506729462845875 C
   0.4989653888758303    0.0029730443850035    0.5020997120512031 C
   0.1650166566823463    0.7496241614494045    0.7521408224620002 C
   0.1722346875879674    0.7522714809931609    0.4991752401378313 C
   0.1681223519324971    0.7500151862147837    0.2473267574336329 C
   0.1671376201074191    0.7512100990318020   -0.0007313209806732 C
   0.6727055679997958    0.2542831049471215    0.8761023172486692 C
   0.1677884808409731    0.4972200112322495    0.4998625853956881 C
   0.1675262794526231    0.2510224627642098    0.5027473200016015 C
   0.1640124516340750    0.2494386521162048    0.0018788391672849 C
   0.1680724470026378   -0.0006979431205911    0.7462778658155554 C
   0.1653303544765503    0.0019548088215815    0.5007483391188348 C
   0.1675428082009379   -0.0019442209437129    0.0016460297608055 C
   0.6725424290946758    0.8783208533768138    0.7517515735967762 C
   0.6638739997232552    0.8751935261288453    0.2495649788451872 C
   0.1699339848269952    0.5012193870342462   -0.0007216004683467 C
   0.6663532699520727    0.4989237918832090    0.1240980220243327 C
   0.6695089322451917    0.3737392075410922    0.4976372987488016 C
   0.1676782988403588    0.6259356367403821    0.6239405204594827 C
   0.8372837685388083    0.3757967957957598    0.6249359553989630 C
   0.8318191348571058    0.6257991410668371    0.3731950315175479 C
   0.1653847633296470    0.8764068532390783    0.3765403784350406 C
   0.8334212236696488    0.3729575828083036    0.3769459942151769 C
   0.4982903552088779    0.1216310984715137    0.6263714348884365 C
   0.1727932988808638    0.3767712097588214    0.1263277260997772 C
   0.4995392815615901    0.3786933243977449    0.1247866871936237 C
   0.1642179098910239    0.1250227858004977    0.6226977536714656 C
   0.5013438559885564    0.3790539920326295    0.6228524483833725 C
   0.6619117445132603    0.4998708552342540    0.3764184335860246 C
   0.4978919002220664    0.6270120086786757    0.8743869202613223 C
   0.6685807206192101    0.4989808556456305    0.6230041872897203 C
   0.6670839669175613    0.4984644052161703    0.8769009588322788 C
   0.4978558289942961    0.8718766046001869    0.1235930379782436 C
   0.5023696115155848    0.8715524625099944    0.3743720350270994 C
   0.6653672900346755    0.7475419386503236    0.3740716534220516 C
   0.1707458853995603    0.6239876047307495    0.1240948642706806 C
   0.4979167662213700    0.8738230706385851    0.8735056529963384 C
   0.0027043707542659    0.6242749472244442    0.8750076768507606 Hf
   0.4967132534435812    0.7497904164813204    0.6232282173398861 Hf
   0.6662156962376876    0.0000829565262219    0.5000703803349577 Hf
   0.1695841385236381    0.3785644703650431    0.0002590894471242 Hf
   0.1680508716590682    0.1237217193694358    0.7470748992079844 Hf
   0.3338581893685801    0.2518509017148216   -0.0009723257268475 Hf
   0.8363534123021105   -0.0006827896348706    0.6279102308577693 Hf
   0.8327398476856208    0.0000336343458888    0.8751035876126972 Hf
   0.0019516864660114    0.8721394251053098    0.8739328078517082 Hf
   0.3334015597237577    0.2510632300021926    0.5011840100281242 Hf
   0.6656032533649358    0.7479600964877378    0.4980520390566059 Hf
   0.8337921921956110    0.7505365469582568    0.6276614003121807 Hf
   0.6661486191150605    0.8742956053689784    0.1224473419166642 Hf
   0.3310432860990090    0.2509826245185082    0.2482773996163204 Hf
   0.3290830698685066   -0.0000536652295608    0.5030094237775545 Hf
   0.3338475549876380    0.7482559983421704    0.2492098332842625 Hf
   0.6661268519653842    0.4982823080370406    0.0011993415923959 Hf
   0.6676389046605057    0.2514996692094670    0.2509141315029715 Hf
  -0.0009099243668665    0.4967899730510914    0.5012863262128174 Hf
  -0.0003732654421143    0.6253586728207647    0.6250190482016745 Hf
   0.6636010331905319    0.7469185850593866    0.2475222135219258 Hf
   0.6679503002815914    0.0018052897261304    0.2486021590917911 Hf
   0.4978304947616162    0.8736191849877730    0.2487408611755498 Hf
   0.1692489098058444    0.6245067928471028    0.2499712033902320 Hf
   0.8318315762506930    0.1273441411107942   -0.0004585034276733 Hf
   0.4998107698743472    0.6229051710961162    0.0018306382957328 Hf
   0.5006958274178931    0.3761134968634468    0.2487174338540321 Hf
   0.0013202898931346    0.0002994610040278    0.7494613552112526 Hf
   0.1668795712042077    0.0016549779032867    0.1244619318982517 Hf
  -0.0001980158750953    0.2502542452118194    0.2515521740683964 Hf
   0.1654102329852536    0.8751596431450916    0.2478962873381600 Hf
   0.0003870488474791    0.4974479551964133    0.2496617745803278 Hf
   0.1673416254269428    0.5005232080278273    0.6245097889792135 Hf
   0.1714616221914790    0.6239852594559475    0.7499444406120036 Hf
   0.1648753614273591    0.2489716578025705    0.8766303217297471 Hf
   0.3342297996100299    0.5016935819184544    0.5004979319423493 Hf
   0.4967767435509771   -0.0006791442097749    0.1230352603448835 Hf
   0.4993168648098268    0.0002376389357140    0.3754721251173603 Hf
   0.5007652447255431    0.2515260247482395    0.1235518761059283 Hf
   0.6689925862135949    0.8706819885272888   -0.0000412717152547 N
   0.3361190831307872    0.6212249267403356    0.7522250924763992 N
   0.3281281630708363    0.8745850384060410   -0.0052978619924999 N
   0.3309491254645386    0.8783597612643949    0.2487196756957467 N
   0.3276118800000462    0.8740019941966531    0.5050217263113961 N
  -0.0012236799695557    0.6208638768196033    0.2521016307569432 N
   0.8309351618041313    0.8715613114454277    0.1212244542537538 N
   0.6658906367870825    0.8744741100766948    0.5007977329281550 N
   0.6609536836458000    0.1264127716455575    0.2511398849835668 N
   0.1670092928164009   -0.0000534090445376    0.2500675307982202 N
   0.8296071284710174    0.8756781258223496    0.3751602328465293 N
   0.0037869419902624    0.6207425315087391    0.7493530808759332 N
   0.4983192749627688    0.8751655217626499    0.6250738612325103 N
   0.6671727980193478    0.1262735693640059    0.7499480581960558 N
   0.6637844071474607    0.3727596509323905   -0.0008994605275179 N
   0.0057550429295526    0.8767734664388006   -0.0041227653631905 N
   0.8335477531029110    0.6255336205767683    0.8756721341753981 N
   0.8307816933684810    0.3711289557359958    0.8735643045801632 N
   0.3323538820079938    0.1258399186659653    0.4995856439210280 N
   0.3345195190201434    0.1235482734851805    0.2495878306405243 N
   0.0016754097203166    0.3762621725726027    0.5008160355874107 N
   0.0018630442511027    0.3739819731180176    0.2544584768694041 N
   0.3354132032818081    0.1241632670250369    0.7515510902787336 N
   0.0034484573821626    0.1245413563839186    0.7477019828822480 N
   0.0025510289796701    0.1254316224783965    0.5026884566340608 N
   0.0013824318267144    0.1237370767044898    0.2516690433294714 N
   0.8277216594841842    0.3751435829982362    0.1264114567898880 N
   0.3359214960341629    0.3781621406273428   -0.0022962348398400 N
   0.1656599172704133    0.2495543747825419    0.2482398478492021 N
   0.3348963531161124    0.3738852221830359    0.2516440712569752 N
   0.8406859690399604    0.1257101576263041    0.6266202706795018 N
   0.8335669086299751    0.1283202389759225    0.3755436170117233 N
  -0.0005365616694941    0.8763764443441660    0.7487956640560927 N
   0.8284328147645420    0.6255769292343641    0.1265856845348947 N
   0.3314184883125195    0.3762628609796598    0.4961527838191489 N
   0.3311562519398671    0.3778363458769113    0.7536430708186015 N
   0.8359105726639975    0.6237805383567139    0.6265802342901617 N
   0.6588276556956236    0.6250685035013824    0.4971001761292329 N
   0.8348062910966075    0.1288353317528259    0.8754815514078949 N
   0.8340888791231247    0.1284880632431769    0.1244001015026929 N
   0.4965508420889369    0.4985505752816966    0.0051800640376861 N
   0.1659616039500194    0.5002489338246502    0.2470106547987814 N
  -0.0044576616704104    0.2491999969614900    0.8765072669924484 N
   0.6654956197205341    0.3737540765840812    0.2515668076569680 N
  -0.0002670497049269    0.4996980624911848    0.6274421203238705 N
   0.0072228104101325    0.5007037533835095    0.8695597221956325 N
  -0.0051385128439631    0.7510560729120680    0.1214336709593099 N
   0.1709118422735851    0.3759512220587915    0.8746814668996253 N
  -0.0005012181275632    0.7528869973161538    0.6277933753856787 N
   0.3320612873577263   -0.0000309367079412    0.1273918116654729 N
   0.1612457406778275    0.3754081948659590    0.6224802731769642 N
   0.1679497411981961    0.3744777844888764    0.3771135323430470 N
   0.3331775542136912    0.2553535708674462    0.3748006063595271 N
   0.1704489342821501    0.6237928751824345    0.3726505584014531 N
   0.1669950370036324    0.1270344253295939    0.8714480830843295 N
   0.3362645143612689    0.4988857825818042    0.1195445900143121 N
   0.3310394358348864    0.5014272072768003    0.6279476157870664 N
   0.1644579305286331    0.1232137362161520    0.3792480039792763 N
   0.1655804628771770    0.1269836794545632    0.1279806114975483 N
   0.3353115145771124    0.7448003472648577    0.3759907672909554 N
   0.6656503607955869    0.7464077032325234    0.8805280893464627 N
   0.3339068483593404    0.7490880691209106    0.8772330083694215 N
   0.6655235642762748    0.7506374859019368    0.6251045934714515 N
   0.6676543171660184   -0.0011450732192004    0.6260212239817384 N
   0.6701568074707449    0.2529586060349430    0.3757520221526518 N
   0.6696157343829117    0.7460999881373243    0.1202501142954252 N
   0.3290429689080419    0.2539026830365183    0.8762390218904913 N
   0.1646937576359492    0.2488246485084695    0.7523289657894445 N
  -0.0017971101928811    0.2490450475944803    0.1247165324344894 N
   0.0012853913883583    0.0004123891230845    0.6266544843948475 N
   0.1661605986203095    0.5006270091680769    0.7510095789744221 N
   0.5006159583688096    0.6273204053020900    0.6254344733476925 N
   0.4992484679706014    0.6222423472354687    0.3743556335500785 N
   0.5017343783051309    0.6220629029174999    0.1269466826328893 N
   0.4987539833980945    0.0028696213115371   -0.0007358123561564 N
   0.4942440624552307    0.0030042707945256    0.2481026602434132 N
   0.4980477067616245    0.3746988713723625    0.8782970932060856 N
   0.4986911449078212    0.3808827453372065    0.3736103119192583 N
   0.4993413035193966    0.5002543519119208    0.2502613529672805 N
   0.4985484946269450    0.5038558717852998    0.4957981905512117 N
   0.4991146445582783    0.1210554871612383    0.8749558036477428 N
  -0.0012008083598733   -0.0019153459785394    0.8748456783316682 N
   0.4999248150332299    0.7463935016884972    0.7499894238434779 N
   0.4971958751981587    0.1229351718274127    0.1266718025017796 N
   0.8337418236433243    0.0021536335213541    0.5013415143845401 N
   0.8339040061744226    0.2488611817581177   -0.0003994400776502 N
   0.1699826744802415    0.8719780374569789    0.8775674810185183 N
   0.8299636943879177    0.2519587463857201    0.7526321901883332 N
   0.1648483856981689    0.8783196309804060    0.6229947602379747 N
   0.8363610812326953    0.5006511459763084    0.2451357174518188 N
   0.1657175262564870    0.8759157273908565    0.1212991279288017 N
   0.8280215870576092    0.7515724571896304    0.0034615295560427 N
   0.1698958784250425    0.6235393385423459    0.8722171002135185 N
   0.0029333955852361    0.0033404390492575    0.3710642863041662 N
   0.4982456510338979    0.1252356164511245    0.3726565800932786 N
   0.8378056697971498    0.8759854082685273    0.8741636768534023 N
   0.6640288565473866    0.8769715793616758    0.8741322322254631 Nb
   0.1697957686792093    0.8740344577617768    0.7469252704102517 Nb
   0.3318095664810511    0.1238169849859652    0.6248121793947222 Nb
   0.3293726261405330    0.1296836276277582    0.1203024464676719 Nb
  -0.0052740725405226    0.8792712262731809    0.1227910220036524 Nb
   0.5007024231688636    0.3735327860573315    0.0030440566658114 Nb
   0.5088826044103492    0.3750225631814552    0.5017090363535686 Nb
   0.8337463341120162    0.1257077496107110    0.2531925868818037 Nb
  -0.0016152927247863    0.1270458797806378    0.8780066994366970 Nb
   0.8380226745686544    0.1255517819187099    0.7522660047335203 Nb
   0.0000179492656342    0.1260662012490689    0.3742654022438787 Nb
   0.3374600226795980    0.1191732278809371    0.8792993223093754 Nb
   0.8311277048911948    0.3713517434039992    0.2539413932455721 Nb
   0.8326496843878997    0.6223544849563752    0.0001144407792148 Nb
   0.8332374772772003    0.6226128522055916    0.4968463391426572 Nb
   0.8312982947699281    0.6260602835066263    0.7525799761211420 Nb
   0.8367459831289673    0.8793948441737339   -0.0015000501693923 Nb
   0.6727822875128563    0.8765109694234134    0.6311293151888996 Nb
   0.1661656125444711    0.4965200013482219    0.3787302894024406 Nb
   0.8322140226132598    0.0046230591898254    0.3699994564686168 Nb
   0.1639259848671914    0.7518677690522327    0.3761493527233658 Nb
   0.1719555233090369    0.7494219754412007    0.6242546899647082 Nb
   0.8394302611297887    0.7501062849307846    0.8742728011761641 Nb
   0.1705833941340833    0.6269772280082446    0.4999088182940557 Nb
   0.5033517850523355    0.4999518878777610    0.6240888474983570 Nb
   0.1702780770207314    0.3781221634638842    0.2473086180168847 Nb
   0.0073975339883120    0.0004077322259837    0.4998656917520859 Nb
  -0.0077465501621044    0.2520259142311198    0.7475759327863379 Nb
   0.0013079866053358    0.5005853968218725    0.0021828125512022 Nb
   0.6710282849132090    0.3746391598383424    0.6240115995806168 Nb
   0.0018510585961293    0.7464329938518437   -0.0033969039368434 Nb
   0.0019019985426451    0.7503000428464909    0.7533464291272438 Nb
   0.1682865844678203    0.6225893487959319    0.0010150190273298 Nb
   0.3369992789155274    0.8693152629501797    0.1206809895983926 Nb
   0.6693641217009173    0.4971780967520369    0.5009299023234393 Nb
   0.6669549175309458    0.1226857834695314    0.3782819844715785 Nb
   0.1658954660859589    0.1217711790711270    0.2538803074980547 Nb
   0.1669103775516948    0.1248473719515120   -0.0017427448047186 Nb
   0.3315296785188368    0.6285306529202859    0.6205061708774887 Nb
   0.4980546024305029    0.1290591653660297    0.2502202541367702 Ta
   0.1663360436157424    0.7505768157324445    0.8757743016444749 Ta
   0.0020728232184306    0.2492727557105788    0.0003504313616078 Ta
   0.1701881049467950    0.7467184205252099    0.1216530675908608 Ta
   0.1706294466986040    0.8730298399677735    0.0025014255419693 Ta
   0.1652550615659407    0.2492401681985358    0.6230421630235672 Ta
  -0.0048795721568309    0.4961029631787865    0.7463128131959079 Ta
   0.1718292115043144    0.2540035367638823    0.1238330914677184 Ta
   0.1653595578788557   -0.0002601204148725    0.3796194693228929 Ta
   0.6656644909086545    0.7435103024094321   -0.0026208562080670 Ta
   0.4946896047397399    0.0017419481770238    0.6270371661111035 Ta
   0.5002504748171881    0.1256046936367616   -0.0016849789424765 Ta
   0.8266552801114732    0.6261816393794932    0.2514250182377123 Ta
   0.3297173093100190    0.0029627957655295   -0.0020247920883287 Ta
   0.3287059637134601    0.0026996748489048    0.2524130778053239 Ta
   0.3327289638600813   -0.0011534821733639    0.7489616295251220 Ta
   0.3308943983664272    0.7439810967834856   -0.0000757590941962 Ta
   0.6696038549012279    0.0011773827692986   -0.0009441640270674 Ta
   0.6678882900394695   -0.0004153515058562    0.7534915079475876 Ta
   0.4987101227029540    0.6222727706313060    0.7533437556697420 Ta
   0.5030545195189602    0.1261103730158721    0.5035142435610225 Ta
   0.6649852912570499    0.8741926974407840    0.3708422883456338 Ta
  -0.0007278519866085    0.0022002143835534    0.0025720468270913 Ta
  -0.0011631600661379    0.6230627418968742    0.3779665609822115 Ta
   0.3318711944914637    0.6224670423768467    0.1226164763177429 Ta
   0.8333206896008003    0.7457740310113717    0.1224742864420314 Ta
   0.8311174469488045    0.7451852051105152    0.3751574972577893 Ta
   0.8328573648428018    0.2555600802955962    0.6258406191735695 Ta
   0.8330741119269645    0.2545533274834588    0.3770953665164172 Ta
   0.8275372231134234    0.2537200467416485    0.1278254130534779 Ta
   0.3369486219503652    0.6235440810479154    0.3751725124164719 Ta
   0.0037211166377226    0.1297483154167579    0.6250010353265804 Ta
   0.3301028729813814    0.3811317693332043    0.3766823301580489 Ta
   0.5030357096563343    0.7478142113182410    0.3746865711382256 Ta
   0.4953753100333191    0.7488500567904540    0.1232863322626438 Ta
   0.0049800070337674    0.8762682279525429    0.6242562437960688 Ta
   0.5034705790532512    0.5016126994383814    0.3768474821368568 Ta
   0.4968904376603603    0.7486329595912653    0.8786195497670505 Ta
   0.1621890630834785    0.3753121518744665    0.5008622481821036 Ti
   0.3360171432967925    0.3774078122244212    0.1224808361484478 Ti
   0.1667776204327259    0.8737332046461411    0.5004801106505689 Ti
   0.1632686589035461    0.1259522066194575    0.5043470290935728 Ti
   0.3323127423598270    0.3810470348544917    0.8756131442513666 Ti
   0.4993627665199975    0.1250911850543657    0.7488952867068017 Ti
   0.3336349377199855    0.6196800664766355    0.8785345053211774 Ti
   0.6657273729196724    0.2523344372910045   -0.0014122040776019 Ti
   0.6685233156867256    0.2522109958042726    0.5015082644550316 Ti
  -0.0054127995306670    0.3728261893596329    0.6268022313399660 Ti
   0.3267597293416880    0.8744809983449889    0.6266369411390648 Ti
   0.3310487489979820    0.7487972754690756    0.5015215368493440 Ti
   0.3376922987252981    0.8785139885618680    0.8709856291669033 Ti
   0.3344667971401455    0.5018417628430307    0.7533736287074507 Ti
   0.3305969020002867    0.5001785932073896    0.0006441646321583 Ti
   0.6643308444508441    0.3763675642274815    0.1242648543803708 Ti
   0.6702570805829716    0.3776160026491783    0.3792812170827766 Ti
   0.6695219679984610    0.3738166973510769    0.8736949083430978 Ti
   0.6663130706269591    0.6188008785805705    0.1250820666472555 Ti
   0.6642553989729726    0.6225264952260741    0.3736836131314117 Ti
   0.6654668017488480    0.6206953618114480    0.8760916787021852 Ti
  -0.0051108583831192   -0.0007306501673658    0.2457858468367944 Ti
   0.6694862034960983    0.2523422264173498    0.7518376507193260 Ti
   0.5016419947104228    0.6247338120156601    0.2458727637875620 Ti
   0.5031745783055881    0.4968999900622090    0.1234161264058301 Ti
   0.8328535224638277    0.8743748229829851    0.7506072240857143 Ti
   0.4964049673811541    0.6279866300151207    0.4994255387319380 Ti
   0.1685204060443541    0.0008184976288937    0.6240517291688580 Ti
   0.8283844813466810    0.2524431058796143    0.8719147303783905 Ti
   0.1662441672411606    0.4993486475811050    0.1213331088114633 Ti
   0.8314658028526555    0.4959211465617875    0.6245948326007055 Ti
   0.8318008748440892    0.3740374492064949    0.7478394747081843 Ti
   0.8311113095036282    0.3757905413431447    0.5007952841380831 Ti
   0.1728863291472117    0.5010492515352067    0.8779175624122040 Ti
   0.8313944938493487    0.4996086826441419    0.1232622695841710 Ti
  -0.0023841114278024    0.3753480966149960    0.3757274298657182 Ti
   0.5003037003888333   -0.0011146385516864    0.8717760311945343 Ti
   0.8323643179738084    0.0011378528557209    0.1245326298044160 Ti
   0.0000049715202075    0.7501205156548895    0.2483904208113100 Zr
   0.5024857065901206    0.2505417976632965    0.8761626431204981 Zr
   0.1690270111732157   -0.0008026303354093    0.8747786072516697 Zr
   0.5040535850061572    0.2500900853295254    0.6257543543004287 Zr
   0.3339693208479343    0.5001102591374673    0.2459594986273616 Zr
   0.6677361439180582    0.6229993000534373    0.6244601561739168 Zr
   0.3355176897954460    0.2484583400404150    0.7515459605775754 Zr
   0.6676131291470870    0.1263262895773669    0.1236645572529922 Zr
   0.5040763115266610    0.2529459794263347    0.3766690430439014 Zr
   0.6688793413004099    0.1268090966862276    0.6276231452058119 Zr
   0.3316056077561787    0.7497170205042432    0.7515431076792459 Zr
   0.4969016810780165    0.4989778339228572    0.8776362128780213 Zr
   0.0024431404400399    0.7498601226548045    0.5000240709933444 Zr
  -0.0013664673139719    0.2537711709914515    0.5008270060701626 Zr
   0.6663017033655487    0.1270589858159281    0.8731670653635537 Zr
   0.5015213421307086    0.3752792472954051    0.7516023671944964 Zr
   0.8345212176124134    0.8759685279342918    0.5006832319727267 Zr
  -0.0011937777328262    0.3745996659583324    0.8734985460627227 Zr
   0.4968921178294239    0.8750675746430706   -0.0030486526950777 Zr
   0.0000338623609592    0.6234534506029986    0.1227215827736588 Zr
   0.4977644345464959    0.8741802133552583    0.5016912671158897 Zr
  -0.0010648422131878    0.8780275791824759    0.3750088001427681 Zr
   0.5000297419492454    0.8767851016648976    0.7495182547594834 Zr
   0.0001333724867874    0.3752989637485100    0.1256370147140791 Zr
   0.3303588903165502    0.1255210052704660    0.3756232645676159 Zr
   0.8335674433573415    0.1276166756486030    0.4994550248292794 Zr
   0.8314929205067529    0.3730703184525194    0.0006713687206853 Zr
   0.1647552915778503    0.3762346525985589    0.7496944450713858 Zr
  -0.0005728037870769    0.1241963321293022    0.1256917325642952 Zr
   0.3328542360450404    0.3764825943204956    0.6242967806596595 Zr
   0.8339703912084644    0.4993208991894363    0.8746679392942499 Zr
   0.6686207842326676    0.7502553317825750    0.7552713369461841 Zr
   0.6691449879415647    0.4978698666587367    0.7502059587024987 Zr
   0.8314471919228008    0.4984155683124856    0.3754630463963529 Zr
   0.6670189375152744    0.4990847644736351    0.2484421457028098 Zr
   0.8328917294549310    0.8752740117567439    0.2478401578055540 Zr
   0.3312574684266437    0.8722485002158641    0.3781868555460330 Zr
   0.1631208762899827    0.2511026948933760    0.3766293882104423 Zr
