Ag64 Bi64 Te64 Pb64 Se64 S64
1.0
  18.2929924072878229    0.0047713688662314    0.0032849754403709
   0.0063420275725972   24.3263424158251134   -0.0017937624668138
   0.0043734778065633   -0.0017932382164151   24.3530629806901331
Ag Bi Pb S Se Te
64 64 64 64 64 64
direct
  -0.0003123340065844   -0.0040800896369178   -0.0098203311267820 Ag
   0.8409679663113421    0.8470261404625998    0.7430366646913275 Ag
   0.8267678792930603    0.8646868777549414    0.2491563755705453 Ag
   0.8579293292642296    0.6142325982496896    0.7404541477839353 Ag
   0.8531215875656070    0.3860012568106261    0.5178953254994518 Ag
   0.8469341100619086    0.3600207422446045    0.2834609319174837 Ag
   0.8358331529089246    0.1328818455028613    0.5086337639277789 Ag
   0.5094648288285543    0.8787398970220487    0.7647939695316586 Ag
   0.4984826796922051    0.8795710047801885    0.4956236334615710 Ag
   0.4830933541344591    0.6167697586681694    0.7472162560472640 Ag
   0.5112710364207638    0.3707674849679381    0.4895486005346826 Ag
   0.5285450991072708    0.3640269467058104    0.2627571794291902 Ag
   0.5125560306914110    0.3819024309478495    0.0301315131115560 Ag
   0.5088073560178366    0.1262595751692654    0.5043833810919869 Ag
   0.1882395461591068    0.8748382398650228    0.2534441903502609 Ag
   0.1503493014048498    0.8634922370698208   -0.0037562235588104 Ag
   0.1604347443004343    0.6211484945647878    0.4988708403499327 Ag
   0.1641727106590949    0.6298505942816929   -0.0246850147358959 Ag
   0.1952500433079977    0.3643283771402259   -0.0009927265045662 Ag
   0.1760063078707650    0.1200457327098416    0.4828254993576671 Ag
   0.1689978432170033   -0.0015016974044792    0.3794324182529045 Ag
   0.1661626460839621   -0.0180759604557747    0.6279424362637255 Ag
   0.1576853852017712   -0.0024458139519922    0.8631463248804456 Ag
   0.1691442459492261    0.2444117681781505    0.6348485398789581 Ag
   0.6541635831417935    0.6107322438061280    0.3764044256276812 Ag
   0.6464984611931517    0.6297325286808301    0.1492961450142430 Ag
   0.6587024720805704    0.3755984651651403    0.3781239951050360 Ag
   0.6807745336288517    0.1229991726963583    0.8893783931332193 Ag
   0.6514706807301439    0.1188785134605048    0.1476553204894975 Ag
   0.3174356141060528    0.8825232475492685    0.8685765629026562 Ag
   0.3180469820943306    0.6486848097323384    0.8634592083920046 Ag
   0.3214302069504311    0.0800081139027776    0.8321445661228486 Ag
   0.3289690378297500    0.1279930177781963    0.3789774756446828 Ag
   0.1660577892628871    0.1105798276842256    0.2656591103662661 Ag
   0.0289652272806597    0.6468580375094890    0.8742985052954598 Ag
  -0.0419149984995886    0.3903860958186149    0.3723613212981566 Ag
  -0.0209589343746118    0.1394876964502328    0.6227771446230648 Ag
   0.8533792780301120    0.4856810870654752    0.6176198639612074 Ag
   0.8519181477794756    0.2731240938952451    0.3766082633023627 Ag
   0.5220109107026727    0.2520826935559869    0.6225022021355073 Ag
   0.4881540957054225   -0.0169943126994725    0.3932951963844303 Ag
   0.1406471104588258    0.7448072187825676    0.8847581376998465 Ag
   0.1593351000458833    0.7722318589944078    0.3657392844462307 Ag
   0.1539551730866674    0.7627193926205067    0.1122513534166805 Ag
   0.0049007355945738    0.3961735045833180    0.6073502861895048 Ag
   0.6740388350522294    0.7424229213486377    0.5140049611261822 Ag
   0.6720717777812635    0.8661222724249024    0.8817362484605571 Ag
   0.3365821629979642    0.4896305880644535    0.4966311424645737 Ag
   0.3159673565272856   -0.0224292405726017    0.7566041983371827 Ag
   0.6563113903044993   -0.0148845898959728   -0.0026916888010172 Ag
   0.3433293452302012    0.7460477053542656    0.7468711585554093 Ag
   0.0050876638602656    0.2343558317635947   -0.0066936301306292 Ag
   0.6302900045674111    0.2263227149312844    0.7258981997578795 Ag
   0.0054803899050946   -0.0066951979343468    0.7525136592904885 Ag
   0.2995101371478404    0.7669017153329610    0.2331636200435639 Ag
   0.3313233951969451    0.7553088158328679   -0.0223394352901674 Ag
  -0.0303515739871909    0.4966607705172004    0.5343700447500332 Ag
  -0.0097999587081991    0.7527749088984866    0.2546997435728877 Ag
   0.3301086517709355    0.5126405711309504    0.2550579490473230 Ag
  -0.0260443173096239    0.5230738114180552    0.7514328644815228 Ag
   0.6617694247807357    0.7401891856174326   -0.0153556824226523 Ag
   0.0218996411033343    0.7483556234051173   -0.0143918178768218 Ag
   0.0070589574221676    0.7536823987545880    0.7468906960694760 Ag
   0.3400318923053620   -0.0031676894662273    0.2574395593394759 Ag
   0.1766940251594725    0.2443581099137725    0.1272754959680421 Bi
   0.3326488929407533    0.6235923700097797    0.3768277680257216 Bi
   0.3104433797381638    0.2426988196325814    0.7556904238590120 Bi
   0.1716518954321180    0.5021417229700452    0.1339615272591102 Bi
   0.1614820785842543    0.5003141056291549    0.3785920231058487 Bi
   0.3341571723276703    0.3780536230128589    0.6200003996537563 Bi
   0.3478216954190307    0.3782882193497972    0.1343580053648533 Bi
   0.1654877196086705    0.7443033059720712    0.6230922544868422 Bi
   0.3390171237437211    0.0001901667897127    0.5025989099977919 Bi
   0.3289862989832457    0.3781064271889306    0.8784012030318066 Bi
   0.5107034474361178   -0.0005088465029476    0.8801267775689904 Bi
   0.8258115547744325    0.5024641828698921    0.8657680451988935 Bi
   0.8276877901861209    0.4985655702996353    0.3803612132415410 Bi
   0.8484862567710666    0.4885260863852478    0.1223738078450073 Bi
   0.8311642779886212    0.2511845577978862    0.6196700272330870 Bi
   0.8264419939769213   -0.0071562234662527    0.8755097004791357 Bi
   0.8346890989941661    0.0001231155340476    0.6333831532537483 Bi
   0.8481233162519576    0.0031443453506453    0.1341482861802879 Bi
   0.3072940806389832    0.1263895746753958    0.6167099308177840 Bi
   0.5113567342463701    0.7560165213406554    0.3748610807042959 Bi
   0.4987168411205118    0.5053286140552959    0.8640855947009554 Bi
   0.4960072065716440    0.4994466859813287    0.6281063699347842 Bi
   0.4971457322692080    0.4936445421240012    0.3710644075252956 Bi
   0.5103049832767573    0.2519546274660447    0.8703427767752291 Bi
   0.0081896192984639    0.8655485880408077    0.8756369629654018 Bi
   0.3320023138289560    0.1265891456036518    0.1286749064761741 Bi
   0.3238712562505348    0.8811425209305156    0.3732266585484584 Bi
   0.0134663608102081    0.8716182224478194    0.3715979849605558 Bi
   0.0051138485556637    0.5014500384776508    0.2470969278724242 Bi
   0.1727919716700805    0.0051631474711092    0.1238862133316384 Bi
   0.0069889961394681   -0.0019564804351156    0.2564875578880609 Bi
   0.6831729025463078    0.2615710740111696    0.0063530557540996 Bi
   0.0115879520141573    0.0043651146500991    0.5144166229892044 Bi
   0.8224565527546818    0.8744688502099698   -0.0078524164123714 Bi
   0.5012242028879975    0.1283701652530524    0.2726818037745949 Bi
   0.5162126412818145    0.1308521128150067   -0.0136886974785580 Bi
   0.6605812661474494    0.6287887861141873    0.8663875649676271 Bi
   0.6637711678862264    0.2554843446406218    0.5060983024591013 Bi
   0.1656546439536603    0.6389241952229897    0.7506397024116375 Bi
   0.6871674395777524    0.4970842491792692    0.0092634083762821 Bi
   0.1602383524522467    0.6347302851982376    0.2562821682006494 Bi
   0.6657532726384121    0.8772544429686017    0.3815726836197598 Bi
   0.1776627631659596    0.3714404119276521    0.5037638745210407 Bi
   0.1681454827306006    0.3780604354558998    0.2506252983069212 Bi
   0.6601129117742691    0.8796771623518413    0.6222109920544078 Bi
   0.1582002840568497    0.1133865904332088    0.7376674223436120 Bi
   0.6577390813896975    0.4969406376031864    0.7470229171046886 Bi
   0.6721133504818588    0.7526019957760682    0.2585926861572117 Bi
   0.6653579389320167    0.3773537181832486    0.8836492185487176 Bi
   0.6524681125233016    0.0010504460825897    0.5035813924720567 Bi
   0.0037990160631130    0.1223909593681152    0.3745751668297348 Bi
   0.4924364688064818    0.6326550269363812   -0.0181464674157581 Bi
   0.0125653998476069    0.2404262655176338    0.2506262651618905 Bi
   0.6805495876269791    0.1276641385894615    0.3797403946119173 Bi
   0.8292155957808645    0.3780703064778192    0.7386326737931342 Bi
   0.6636876657241167    0.3746357504525824    0.6220006739252757 Bi
   0.8245643977493914    0.1170803079603268    0.7465431745835129 Bi
   0.3409153184672116    0.7564729396242447    0.4931398303933409 Bi
   0.6653935548933830    0.1229392936942812    0.6246251809727887 Bi
   0.8470502909914945    0.3727271135312126   -0.0084767785458403 Bi
   0.6764593649740748    0.0041765212330536    0.2579380198613833 Bi
   0.6826284566543203    0.3760143930182852    0.1326995315725423 Bi
   0.5122532328302321    0.8817865225702626   -0.0010352514425957 Bi
   0.4933487646395829    0.6256109897956373    0.5022021393577535 Bi
  -0.0031845973637360    0.1243033811031323    0.8601670644389401 Pb
   0.0050103811063822    0.3675950395189616    0.1084585160271530 Pb
   0.0155857020638781    0.2579950006965668    0.4974832281455458 Pb
  -0.0017222345568923    0.5001201958790853   -0.0076639917221470 Pb
   0.3422854122825731    0.8880442454183888    0.1194666287018656 Pb
  -0.0092737174900379    0.3842127264545279    0.8675896916413507 Pb
   0.0011249279097797    0.2405893058465916    0.7311134010175077 Pb
   0.3500220857405912    0.3750261133457441    0.3876059897346403 Pb
   0.6594072078758270    0.6185110818693164    0.6277563212258036 Pb
   0.3244296079113722    0.6269078524183813    0.6220123277599107 Pb
  -0.0016482585072082    0.6275475768567650    0.3774305974039827 Pb
   0.6604127596332042    0.8745487863786776    0.1240749633653174 Pb
   0.0040326744566776    0.6124121629049116    0.6398240084338058 Pb
   0.3117073875577972    0.6334528369064949    0.0938233326112587 Pb
   0.0054048016345047    0.8803709208239597    0.6239366764176283 Pb
   0.0057994007858612    0.8728038987446085    0.1428235695069436 Pb
   0.0018735963068185    0.6177143537688522    0.1082765211902932 Pb
   0.3345677022510367    0.8738022139383297    0.6179631020705734 Pb
   0.6501742273111657    0.7484991524857867    0.7503325831472788 Pb
   0.8347693140449736    0.7506271045315581    0.8730871322414011 Pb
   0.3433787548128268    0.5190194093977077    0.0060911915720628 Pb
   0.8308187458208377    0.8739655586719354    0.5042704590479634 Pb
   0.3198433325581909    0.5180056928479440    0.7459473886746679 Pb
   0.8356553490753513    0.6202623661604117    0.4945511669762790 Pb
   0.8186261497087763    0.6215613877961899    0.2552172322704028 Pb
   0.8468035959341097    0.6294190320782538   -0.0198265806253624 Pb
   0.8422794174151627    0.1234052908117615    0.2539562769889250 Pb
   0.8406856535726157    0.1021216095668986    0.0001968963511228 Pb
   0.5022146587112228    0.8724101614538665    0.2586358516126444 Pb
   0.3392976463564523    0.2440970050693227    0.4961270541878663 Pb
   0.4994451505181848    0.6316681194147388    0.2550704671569680 Pb
   0.6700603223284134   -0.0074746951529287    0.7568932300075856 Pb
   0.4785045191370090    0.1254130085362797    0.7604593981912230 Pb
   0.6841699219715945    0.2453682278972386    0.2470443640257876 Pb
   0.1771183319777259    0.8679106604186023    0.7584430972255234 Pb
   0.6544221627827925    0.4929952825651475    0.2552145557007434 Pb
   0.1406195910758517    0.3835417143658207    0.7599849487398259 Pb
   0.6758576623663646    0.4885013923544587    0.5031884392263151 Pb
   0.1786494286724998    0.1249311748431144   -0.0004970061586039 Pb
   0.0094070531624750    0.1172546684971380    0.1321704701845753 Pb
   0.4869371872053433    0.3746750830886185    0.7473654271121830 Pb
   0.1763437196822168    0.2299549766950577    0.3669208058700204 Pb
   0.1689867864926523    0.8825136755396782    0.4971956540985469 Pb
   0.1689426996934477    0.2565204262375594    0.8785984002735888 Pb
   0.8368478556434161    0.7422697436059269    0.3709879678600462 Pb
   0.3414295157724873    0.2555644617337441    0.2480925090774657 Pb
   0.8190269232535784    0.7486514656278654    0.6198740879221314 Pb
   0.8305564783875679    0.7417668268297082    0.1188748815669676 Pb
   0.8196695614561745    0.2484266702082470    0.8752147064954346 Pb
   0.8417546525743744    0.2368556532054093    0.1240402127578493 Pb
   0.8429783382225485    0.0060523812964694    0.3734075869341745 Pb
   0.4828223020164076    0.7611305605188027    0.8584854393409407 Pb
   0.4919357264960786    0.7579138642993324    0.6447649492632025 Pb
   0.4828803666213451    0.7590896389584240    0.1345000573781987 Pb
  -0.0000828267657599    0.7515927747630727    0.4934518193054930 Pb
   0.3320798295183057   -0.0101410528956277   -0.0137021659397602 Pb
   0.5088739733872408    0.2550064117833745    0.3854836712516589 Pb
   0.5183249871662207    0.2581031974982761    0.1330652374398867 Pb
   0.5001885021561057    0.0011267418786717    0.6213739138254631 Pb
   0.4907541090899302   -0.0020273576360443    0.1279935799500631 Pb
   0.3335023651451394    0.2548998805290048    0.0040511360056149 Pb
   0.5051493606553743    0.5017303535769554    0.1393799930853074 Pb
   0.1494515477056052    0.4998268209991498    0.6373736390268913 Pb
   0.1483084574825524    0.5176881158300650    0.8691781738400784 Pb
   0.6780835941320300    0.2550939976771113    0.1247691300735031 S
   0.6690269216287931    0.2511340204168764    0.6219906975765217 S
   0.1643874018736764    0.4978638135644569    0.7526267779677189 S
   0.6606681080119091    0.2664914509300833    0.8868074595007942 S
   0.6736778743199953    0.8822554509733855    0.0054957903734095 S
   0.1549442096846942    0.4993066497938969    0.2510100686554035 S
   0.1706656147047207    0.2627373644126194    0.2399387366400454 S
   0.1619253010920010    0.2348331815986467    0.7517149736316723 S
   0.6470996362842756    0.4914306324826002    0.6277355974101526 S
   0.6663181907912448    0.7639602550848457    0.3684386166230594 S
   0.1798484185801610    0.1270012554099997    0.1211756992759849 S
   0.6735083841354482    0.8926699289753544    0.4999988441054081 S
   0.1526477394350927    0.7496146972097137    0.7344861971646031 S
   0.1518026348671139    0.1187491576853841    0.3763626768442616 S
   0.6714199739061978    0.4830121792465874    0.1267139530403772 S
   0.6643900999610152    0.0005262405251793    0.6197506616448978 S
   0.8492930384338796    0.0045105216012584    0.2481860429026625 S
   0.5009516975913325    0.5106926997984599    0.2608300405714480 S
  -0.0260268645298498    0.2464015587060646    0.6176016860352451 S
   0.1703052862581950    0.6258066121366721    0.6311600743024570 S
   0.8081831685733190    0.4915148583213479    0.7529816959788149 S
   0.8288772864908709    0.4959786225004161    0.4915431204148624 S
   0.0005133053480051    0.4928968905802711    0.1276053586796889 S
   0.8357452908209307    0.4891281474911449    0.0016541151576643 S
  -0.0041073250079314    0.4920899102114602    0.6495279337661047 S
   0.0048654232513956    0.7558663219621868    0.3783091854574467 S
   0.8231636430911645    0.0049234680945471    0.7484345552981160 S
  -0.0026591913261610    0.7552730214513274    0.8745799864456155 S
   0.8501301960315829   -0.0107092684697338   -0.0071976130487280 S
   0.4911487418532503    0.7209003878866230    0.7514282156627883 S
   0.3292255812041280    0.0130993025784320    0.1154041525183023 S
   0.5173105842227416    0.7559681849506419    0.2590237411268168 S
   0.3645218214080943   -0.0089357470251053    0.8743321213730294 S
   0.4954194422879823    0.5115726933591986    0.7474090493315256 S
   0.3328638555029089    0.2524932641227173    0.1279016187842620 S
   0.4922580983787987   -0.0013563481359210    0.4992095532349210 S
   0.6513946035730035    0.3694199323149427    0.5113313051345434 S
   0.5129583084080623    0.3802340188417394    0.3690815668695657 S
   0.6863729678991961    0.3777014514791119    0.0005654400449113 S
   0.3216217503790955    0.1320508052928480    0.7413964193306524 S
   0.5055463697171666    0.6165715463661801    0.8687107048002561 S
   0.1694106312699271    0.6305741074892217    0.8644895791359515 S
   0.5004464205231317    0.8802256544742496    0.1230798639667228 S
   0.5158078531893149    0.8743106486180219    0.3850955228790073 S
   0.0094752490015364    0.8857379751025941    0.2637050717542718 S
   0.8492460957713531    0.1147922939066101    0.1298069291146812 S
   0.3340209164175365    0.3716459402124794    0.5082990252530046 S
   0.8321861286292430    0.1199804491105623    0.3675158194059007 S
  -0.0083140061528914    0.3827900220009336   -0.0074568524110802 S
   0.8153363006359605    0.3802929706333735    0.6230522121337289 S
   0.8196084846603955    0.3796604050306067    0.8738144117347576 S
   0.0154594202938092    0.1262790468256554    0.2573757259215609 S
   0.8353382420362370    0.6200133568020234    0.3724474654754484 S
   0.8182715225072040    0.6118376090208876    0.8677693481226447 S
  -0.0162369158501262   -0.0029161738260462    0.6241623158884156 S
   0.8160593146428856    0.1208973043855224    0.6312425690602248 S
   0.3467869949263210    0.6355689010180917   -0.0256892352645459 S
   0.0054236446612862   -0.0018061930885335    0.1430576878908953 S
   0.3127982119530117    0.6379509009361496    0.7518504451650647 S
   0.3315037799805461    0.8795064349880730    0.4878212501781754 S
   0.6643734152531675    0.1159774967070433    0.2603138759758277 S
   0.5370104187251210    0.1399315563699710    0.8771000672975007 S
   0.1735362742590059    0.8795710708574960    0.3768542575195505 S
   0.3480359277916826    0.6408392731127817    0.4921831938517795 S
   0.1692296800464353    0.6187091787234019    0.3780143485878160 Se
   0.1621843152611139    0.6181607097427991    0.1359027545583766 Se
   0.1695910703524680    0.3824410752258844    0.8886173804199213 Se
   0.1533833909956191    0.1347017120402382    0.6236316603257187 Se
  -0.0040264138098195    0.5013915142201881    0.3674386157985636 Se
   0.5195173527305400    0.1322389440770436    0.3923225598080971 Se
   0.1695396750051111    0.8695697312140696    0.6248351880186591 Se
  -0.0183601435951263    0.5038119589952695    0.8603018474397738 Se
   0.0015715441305512    0.2404152751334439    0.3686680427092792 Se
   0.8071200447248811    0.3850624006742137    0.3877773608824350 Se
   0.8413911011809100    0.3659748921948294    0.1160514182850557 Se
   0.8276291685244633    0.1211679299025591    0.8705378417425282 Se
   0.0136595899939692    0.2437430891335695    0.1257450109731875 Se
   0.1676327917764471    0.8879711206644522    0.8761245929206680 Se
   0.5304086786518477    0.8810843209296733    0.8781297189961181 Se
   0.5027744852326019    0.8794183450457660    0.6082379577755125 Se
   0.4984009337373749    0.3738433082363074    0.6250905119081078 Se
   0.4989401032518881    0.3795226683121807    0.8709490941230272 Se
   0.6545674798026717    0.4981168259606592    0.3785567701366913 Se
   0.6726673944108695    0.0097095947991177    0.8868677554237460 Se
   0.4984912264639337    0.6288922836162857    0.3791163801252225 Se
   0.4923076365978126    0.6210363850270940    0.6251995299859887 Se
   0.6689628080718156    0.0011450497058705    0.3804413826445812 Se
   0.5089777079147960    0.3778798434014380    0.1495773039144290 Se
   0.3325972768691963    0.4990393229626751    0.6246675912151751 Se
   0.3298712408685084    0.5036194924667861    0.3757999810482173 Se
   0.3361112266295539    0.5020994026690760    0.1331636405028440 Se
   0.3387340118222328    0.2558674597048167    0.8766016077610070 Se
   0.3421190859132843    0.2478627202456952    0.3718812259670444 Se
   0.6638853423933789    0.4994374241703444    0.8755212834056437 Se
   0.6566947601921879    0.7536868883793093    0.6229997582762201 Se
   0.6573161064158929    0.7489804089535721    0.8720484072323479 Se
   0.3309331193364313    0.7502307829937972    0.6162530107569558 Se
   0.8134342664852132    0.8753560419547022    0.8670354501206524 Se
   0.6537204013740469    0.8721868594964026    0.7360113467537933 Se
   0.5078572666331352    0.2579164064275160    0.5079844846614359 Se
   0.5124125431322114    0.2476620703057442    0.2576581774469406 Se
  -0.0001000344949519    0.8803225620954758    0.4958919561485230 Se
   0.3263354178485595    0.1186578423994201    0.4942321159676710 Se
   0.5113949780008956    0.0069833115494488    0.0043680429216640 Se
   0.3575104766720807    0.8737022854131504   -0.0075780504560234 Se
   0.3388918905434841    0.8787981603069308    0.2513423017654207 Se
   0.1755355649409540    0.2478206627900747    0.4881516430174837 Se
   0.1661670466394998    0.2522048891865726    0.0044563198529379 Se
   0.1651159018459314   -0.0046538821035183    0.7437055590451298 Se
   0.1715027932268176    0.0059059902444459    0.5106062557531672 Se
   0.6689040543616327    0.1241659562267859    0.5022564788139732 Se
   0.0144758680636682   -0.0011117246922233    0.3799814136140308 Se
   0.6720182559018776    0.8816573448342050    0.2562195504160293 Se
   0.6587491653959537    0.6125035015094481    0.7497430275034116 Se
   0.6542900652669947    0.1188083801732324    0.7402185132717006 Se
   0.6767107962333607    0.3691310123003918    0.2489935909701434 Se
   0.4904367320474695    0.2482307508368442    0.7524867676890605 Se
   0.0038763013171689    0.6318632793147678    0.7622059951092057 Se
   0.6628654396239927    0.6241277971836072    0.2611537712311397 Se
   0.8115372487968590    0.7525116392857634   -0.0050135864768867 Se
   0.8471799761978021    0.2489201292234761   -0.0010947566232359 Se
  -0.0127272128382222    0.1150247755163656    0.7365405883998332 Se
   0.8246705914185130    0.8785975607530582    0.6306174238144326 Se
   0.8378720019502633    0.7511654601738650    0.2473574322639581 Se
   0.8280771394508447    0.7489334809496430    0.4958968276894083 Se
   0.8501469122717513    0.2493759545511351    0.2480819041980465 Se
  -0.0189904294211972    0.3638992344097747    0.7465262061636251 Se
   0.0061944223113266    0.6243790898819684   -0.0162986620278131 Se
   0.8384177270486082    0.8749318841645176    0.3669820264992787 Te
   0.0077827470489822    0.1188654118002924   -0.0011259788126144 Te
   0.8350456540901089    0.8779750170994755    0.1308239199987881 Te
   0.6613900607868083    0.3679044388350884    0.7528355020345465 Te
   0.6781945705705967    0.1360020569172943    0.0073967816932631 Te
   0.8291813633464468    0.5987111431726357    0.6274151589070034 Te
   0.5012369863199876    0.1290063068360953    0.1347906926785355 Te
   0.1714731540354332    0.8795201391053131    0.1138521291401535 Te
  -0.0062412718724003    0.6337014486044678    0.2453653620747540 Te
   0.4965312111739482    0.1353630515579993    0.6181650998181660 Te
   0.3573412128226776    0.8617951199955847    0.7519504305806791 Te
   0.0068708004698385    0.6071875667426624    0.5049094171961024 Te
  -0.0055482273459189    0.1269107189455479    0.5040881429589796 Te
   0.3252570425952894    0.6300074183767679    0.2491319040414501 Te
   0.3363054050884390    0.3937451983875823    0.2570154732183424 Te
   0.3526967794194226    0.3843059853455342    0.0073350050540088 Te
   0.4944010801813665    0.6287766645694530    0.1173390906985212 Te
  -0.0008651190894659    0.3698633223436118    0.2560707107656036 Te
   0.3253933037420846    0.1249761363573099    0.2587885592830841 Te
   0.6672773925794055    0.6215326500081920   -0.0063218806343120 Te
  -0.0102321527266325    0.8744918101902865    0.7516189425983276 Te
   0.0006435051577703    0.3895330558685150    0.4918951395875432 Te
  -0.0081206267718120    0.8684816013627682    0.0001297266090793 Te
   0.8123146723127482    0.6085827143730168    0.1170962760468963 Te
   0.3521664684021875    0.1258138387230470   -0.0035051142336873 Te
   0.8272114802791063    0.7328519405452316    0.7472849852377036 Te
   0.1514157289379383    0.3590785582182524    0.6267432908609649 Te
   0.3272639314631770    0.2517014796684428    0.6290914962418449 Te
   0.5216516962156861    0.4944223215689503   -0.0009093421777502 Te
   0.4901395301895500    0.4930562978045790    0.5001831853293949 Te
   0.5080271859138957    0.7573160331862578   -0.0056373862370951 Te
   0.3190905915032961    0.0033952010660171    0.6344534296374369 Te
   0.3313650991491753    0.0075798536450493    0.3760987781862423 Te
   0.5129658190340053    0.7590410875794088    0.4995097114729657 Te
   0.8329229528341537    0.0130082774452524    0.5089137640354213 Te
  -0.0033873192130802    0.7461657339676593    0.6277547606539158 Te
   0.0005813306901554    0.7458238414816843    0.1047679208511727 Te
   0.8356368290242071    0.2530473495887564    0.4950945383800657 Te
   0.8132655944021795    0.2460364609133689    0.7448671845124603 Te
   0.8374235539695960    0.4822247403352497    0.2491211074765268 Te
  -0.0023741205981108    0.2523348732105175    0.8775141266549528 Te
  -0.0058662305634384   -0.0057692165369695    0.8689052408730102 Te
   0.5146247941916743    0.2670805508641826   -0.0013272997537435 Te
   0.3325747952588789    0.5060551094720723    0.8748639947555013 Te
   0.3124553902837243    0.7569186194480824    0.1193557159723790 Te
   0.3387847051457978    0.7559260490662826    0.3648510188054785 Te
   0.1693179917561738    0.3732369591375637    0.3764283062546109 Te
   0.1794426249074559    0.3743170087119950    0.1154755884288185 Te
   0.1787499797785483    0.1106391624572467    0.8640032726778318 Te
   0.1538753300813993   -0.0104095663993652    0.0019662618282114 Te
   0.1761398275289611   -0.0031455417386559    0.2500243238081776 Te
   0.6568494831866434    0.7441861459008395    0.1344181498786891 Te
   0.1700568819087915    0.5176731807519492    0.0082569653604577 Te
   0.6608512248720440    0.6292375922703479    0.4911272089010517 Te
   0.1849956600681626    0.5042276731473138    0.5030932539000275 Te
   0.6915823293872799    0.2550186944103245    0.3787030495479321 Te
   0.1454442126826665    0.7614307252383770    0.2521715011501067 Te
   0.1750062445494028    0.7401632750444591    0.4941815212464527 Te
   0.5018950537731293    0.0041055411549332    0.2672577920433138 Te
   0.6781935347068908    0.0079737655647517    0.1314954770785620 Te
   0.3095774113962644    0.7645502440075584    0.8637378509673761 Te
   0.4892078840193393   -0.0039158730585624    0.7548620396041698 Te
   0.1789681409533015    0.7430759536429843   -0.0049228283115700 Te
   0.3143490648658286    0.3751100465187940    0.7511039422546041 Te
