Mg35 Zn35 Co35 Cu52 Ni35 O192
1.0
  12.8878838660176740   -0.0006414655793955   -0.0001469835684000
  -0.0008551801996876   17.2090814558479828    0.0023334526818436
  -0.0001959591135343    0.0023332171332590   17.1874035074515099
Co Cu Mg Ni O Zn
35 52 35 35 192 35
direct
   0.0092732293378424   -0.0004078801334731   -0.0030075135130973 Co
   0.1632900825581938    0.7440727543279347    0.8705506948622815 Co
   0.3357018786341279    0.5030109954288139    0.0008315712975942 Co
   0.3391090038441009    0.4981656511312039    0.2485855878921513 Co
   0.3350891751104679    0.4975434553127850    0.4989923266569031 Co
   0.1655776083204068    0.6246063657337987    0.2510564333320361 Co
   0.1625633838560693    0.6236104705971838    0.0020538592593376 Co
   0.3358621617755967    0.7524938827159388    0.4995233216955092 Co
   0.8324327679270274    0.4914309850654709    0.6245855310972008 Co
   0.8270242856642768    0.4961580198124139    0.3738743716821997 Co
   0.8303833520003818    0.4998373034764247    0.1239684563349324 Co
   0.4959529713233304    0.3726457421607599    0.5028257808811785 Co
   0.4992275157211986    0.7505101465002835    0.8789713062158944 Co
   0.5010831728372221    0.7544820646424036    0.3733143526940898 Co
   0.4966374252751795    0.7501803173353156    0.1219471532756714 Co
   0.6656939943179285    0.4972007839294461    0.4986739232461486 Co
   0.3289718123750225    0.2500491829293324   -0.0009982233288506 Co
   0.0008123140683533    0.3770364382445416    0.8805393601940030 Co
   0.3308079092337998    0.2530359984784986    0.7553780621851597 Co
   0.1679950375167302    0.8791574625253108    0.2542021151606672 Co
  -0.0012609637583262   -0.0012686908074670    0.2523202195619389 Co
  -0.0009839260677321    0.0032006889008150    0.5023880181331535 Co
   0.0017141251599206    0.0085089839740197    0.7486988485693095 Co
   0.5041342334184881    0.6264141181820873    0.2500490422067215 Co
  -0.0014377881702053    0.6278348636268226    0.1247005666811774 Co
   0.3316848356534240    0.8792518281895891    0.3782323159056972 Co
   0.3356881340202764    0.6261274550522190    0.6221289496104068 Co
   0.8316561401451704    0.1277340511726865    0.5001113922458481 Co
   0.3230854706364231    0.8683034377988553    0.8730021493559529 Co
   0.8338979237170088    0.3759956935016839    0.7528234053339388 Co
   0.1644238461388111    0.8728439894920745    0.7428084382608979 Co
  -0.0055652447096943    0.7476260721353875    0.5052602513762614 Co
  -0.0040060830593280    0.8729271857968063    0.3733550340041633 Co
   0.1577591792317160    0.8749902370522923    0.5023417916818014 Co
   0.8323236806499243    0.1285553908436227    0.7543663184718304 Co
   0.8397640587652113    0.8776760142448149   -0.0048163654998886 Cu
   0.1654693463491372    0.5003812911038894    0.6205791796310632 Cu
   0.1678379294421439    0.2507943403886844    0.6274130475480929 Cu
   0.1741496604332095    0.0017833133127941    0.8685757829556167 Cu
   0.1665544475155231    0.0024338536779611    0.6246266835811719 Cu
   0.1730611061499703    0.0027451892701247    0.1296790681861515 Cu
   0.8316876227739368    0.6188595705019317    0.5011805611638801 Cu
   0.8387959090335180    0.8797138574286525    0.7592532550213112 Cu
   0.5086410230454140    0.8760093176332077    0.4999946953804065 Cu
   0.8345674540879441    0.8790431796392870    0.5043156440730762 Cu
   0.8350801564916775    0.1235881725519630   -0.0020111054106445 Cu
   0.8367034153035381    0.6278744762982938   -0.0037016364512829 Cu
   0.1639571554285805    0.5014028144787628    0.8805423255542877 Cu
   0.8362334042172604    0.0001404866771461    0.8757269189586336 Cu
   0.4969305796648836    0.0034292792052575    0.1210821808459687 Cu
   0.6795390314013529    0.8793690362413263    0.6331163506269287 Cu
   0.6682780284604853    0.6257077150699684    0.1145791463466360 Cu
   0.3307671332570475    0.6249838549575492    0.8752229791589450 Cu
   0.3362728169620331    0.6231468053882494    0.3750672442851584 Cu
   0.3321352987139931    0.6223371688878928    0.1285760018782451 Cu
   0.3327387912609209    0.1255762855008050    0.8737295247199640 Cu
   0.3409826254871945    0.1201024356340835    0.6284232468347640 Cu
  -0.0083784180466281    0.8782235567714548    0.6306307690357801 Cu
   0.0067925437389226    0.8765285255244315    0.1229947993728562 Cu
   0.1575775611468998    0.7431182094371469    0.6214948472053131 Cu
  -0.0007909965510766    0.3757086157904698    0.3728897109805207 Cu
  -0.0006182098316617    0.1351913154878376    0.6245025943662538 Cu
  -0.0014635041479256    0.1295232809045579    0.3761437167000496 Cu
   0.8304730283545818    0.7479843489217413    0.6279123796107731 Cu
   0.8258299395680171    0.2510208179526377    0.3727711499472882 Cu
   0.8338657592059792   -0.0005086651116062    0.1202685291316008 Cu
   0.5103960453423594    0.7523323801359446    0.6238073625422788 Cu
   0.5021555255202836    0.4969724927360865    0.3733728309844461 Cu
   0.4974862074285064    0.2464447057569423    0.3727668712241644 Cu
   0.4976775740873000    0.2497805443794641    0.1185502864216468 Cu
  -0.0036903230583084    0.3768914155517949    0.1248930920548982 Cu
   0.5006934931174105    0.6275173489294643    0.0000466756151987 Cu
   0.6647938981613141    0.8789618668745808    0.8781813019059799 Cu
   0.6661385435633881    0.4990303811343066    0.0032434364007389 Cu
   0.1632703026889590    0.3735760095361267    0.0035912549882434 Cu
   0.3350472320464705    0.0034865353094104    0.2511506549371539 Cu
   0.0101886192893742    0.7525589911550754   -0.0016109272395287 Cu
   0.4957117462849951    0.3772699132003072    0.7540525893508500 Cu
   0.6678631879598687    0.7591500213889909   -0.0031616428254384 Cu
   0.3341364427044659    0.2481032111420711    0.5066149414445729 Cu
   0.1759181430606881    0.8842533874531865    0.0063930577084022 Cu
  -0.0017034861407822    0.7444875712867063    0.7442219830054773 Cu
   0.0023662007886876    0.4933629324517256    0.7516078446173544 Cu
   0.0042490921458286    0.2501541071116129    0.0011677594029201 Cu
   0.4959521550261275    0.1223193747082959   -0.0021325863032966 Cu
   0.6654076506464318    0.2479174120746046    0.2454242571525843 Cu
   0.3222029445461601    0.7470527645451227    0.0026262201883029 Cu
   0.3367350769241200    0.5044627457960011    0.7531872308073629 Mg
   0.6672386244340213    0.0025471313268401    0.2480830545559045 Mg
   0.1668562716100370    0.1236542337703742    0.2527320698253452 Mg
   0.3343369437942388    0.7469980383692737    0.7443684118764617 Mg
   0.8318995440251148    0.2508880351256003    0.6275221005463703 Mg
   0.6583650292048222    0.3692933479594603    0.3729120290543769 Mg
  -0.0044728600352612    0.6241008366818812    0.3754447508631109 Mg
   0.8403973652773709    0.7520379839607737    0.8742690886039580 Mg
   0.5064913344437493    0.5049276002777384    0.8781536177175644 Mg
   0.6592341764823417    0.8792332599682304    0.1207867226054111 Mg
   0.5023707132676397    0.4984781133022139    0.1221523247168533 Mg
   0.6643789603706470    0.4986706512171099    0.2486465112037123 Mg
   0.6622997990171318    0.2483189100679357    0.5047499836723002 Mg
   0.6644697069932638    0.2491260525303824    0.7520581646004755 Mg
   0.6694421673870327    0.7542124408582865    0.5003579314576407 Mg
   0.0126598218731825    0.8765952551222386    0.8726250672689784 Mg
  -0.0013481976998233    0.2493108645290313    0.2516592835372081 Mg
   0.1716508436420192    0.2506723751284336    0.3740466326723728 Mg
   0.4996850941753921    0.6270740225714415    0.4998598936484717 Mg
   0.5039522815453737    0.6299617496866039    0.7492742460833021 Mg
   0.0024221822601600    0.2517727256744661    0.7526675976799743 Mg
   0.5000094710721966    0.8788478341932693    0.2485316223704887 Mg
   0.5003278575065313    0.8726802738815521    0.7525178879317134 Mg
   0.4987472599275723    0.1208349876436934    0.7515152888967730 Mg
   0.4985743802481260    0.1250239694770345    0.5032163163740763 Mg
   0.8315602944900068    0.3715302542515415    0.0017404321177470 Mg
   0.0002074331735666    0.4951557336548167    0.4951365190971504 Mg
   0.3335657838019652    0.3809554244143479    0.8798177920521054 Mg
   0.3338272060054440    0.1257909328323266    0.1232608805222575 Mg
   0.8347220425154753    0.6190729410857961    0.7496157459559250 Mg
   0.1628799059520492    0.6196079673854382    0.7457972672710781 Mg
   0.1674424851515434    0.6216143803438426    0.4990880021839210 Mg
   0.1605323077405346    0.2474497671856335    0.1254303700362001 Mg
   0.3404535176345067    0.3689598973639686    0.3711061038229974 Mg
   0.3339638405177740    0.3708167640557694    0.1220689880347892 Mg
   0.3297387631493361    0.3793639060105067    0.6276416199223904 Ni
   0.3353167910694718   -0.0020165963460435    0.5044636734148218 Ni
   0.6643225020854209    0.1267676972608817    0.3754947288063180 Ni
   0.0025491317586968    0.3751877009948222    0.6230060959048730 Ni
  -0.0059014826930535    0.5011834536266997    0.0040013591518829 Ni
   0.3338462753366973    0.2472068276225171    0.2433055763338808 Ni
  -0.0049747993743702    0.6143600237823645    0.6221563819790522 Ni
   0.3373526046408623    0.8804825068365880    0.1279580492201430 Ni
   0.6617867508265028    0.1215964585591548    0.8749454648992941 Ni
  -0.0016622492506489    0.6211840641029840    0.8745676993139061 Ni
   0.6686033039936050    0.3694907473665587    0.1232183609028879 Ni
   0.6630783201407988    0.1263121388198307    0.6279478928432702 Ni
   0.3362479464284805    0.1260031909296499    0.3746196777725279 Ni
   0.0061209424122415    0.1250644663687129    0.8754974315655337 Ni
   0.3356852534283377   -0.0052203590485242    0.7475540371718022 Ni
   0.3331905141842864   -0.0001895004991872   -0.0045494892881988 Ni
   0.5001824944345920    0.3707090700564178    0.2449300610654269 Ni
   0.0028263540501571    0.2525723379280063    0.4971897524846157 Ni
   0.1670614142465540    0.2534646746020577    0.8785701530563769 Ni
   0.6644231626338968    0.6254349121411287    0.3776465451812490 Ni
   0.1705038221044536    0.1232306678080870   -0.0027942148666777 Ni
   0.8305955532488888    0.8771574707771576    0.2413269990181789 Ni
   0.8292566973314817    0.3712344798290262    0.2471234193306405 Ni
   0.5056604967915758   -0.0051480165021526    0.6269978758894226 Ni
   0.1708106504378933    0.3751620604283036    0.4980222657994820 Ni
   0.5007498267186006    0.1256828422741024    0.2473910969523720 Ni
   0.4920051492233002   -0.0049681612714159    0.8741090844966941 Ni
   0.5011192115965547    0.3752822228092097   -0.0001475224704867 Ni
   0.6659201515467031    0.1249704913815403    0.1228271129431490 Ni
   0.6708798896555460    0.8759145043560325    0.3697237386900987 Ni
   0.6707057607472285    0.6304174790967079    0.8760361860757792 Ni
   0.6659913796598872    0.0021417743092612    0.7537703385661203 Ni
   0.8407550425053326    0.2467088671893569    0.1231806251287722 Ni
   0.6695530608904496    0.6232645470047525    0.6238249916138996 Ni
   0.4879242671389761    0.8729406215972128   -0.0010606173022726 Ni
   0.6664262688106063    0.0049965677813733    0.6300750475745380 O
   0.6686098822239388    0.0027846856459551    0.3718615035371102 O
   0.6536898660581698    0.0021331684394100    0.1230152246430889 O
   0.6518924115368205   -0.0023585968073432    0.8750730248414272 O
   0.3125693763162600    0.7396358538648394    0.8629934811139016 O
   0.3485869174886073   -0.0129552415980686    0.6248487812605207 O
   0.3340600722555511    0.7587107582614588    0.3746198115472504 O
   0.3326654850776052    0.7599765016536246    0.1362870826987271 O
   0.3459487120557172    0.5079562459491448    0.8788923682675823 O
   0.3471866837709466    0.4930312207420690    0.3735625347981762 O
   0.3369187319533097    0.4929015662146306    0.1233734561622020 O
   0.3322926784001697    0.2618418805174036    0.8772080718747086 O
   0.3205427475965188    0.2624095804045503    0.6391095269171355 O
   0.3399441606500117    0.2469619394716372    0.3613996930887663 O
   0.3175628479605806    0.2483645549237241    0.1219015573117867 O
   0.3283352146169323   -0.0113297411800292    0.8704227136158490 O
   0.3362562499278441    0.0023524573008282    0.3864415204675006 O
   0.3519672946290534    0.7524991194243313    0.6226777501612584 O
   0.3334659878575665    0.5006528200027027    0.6255306915785376 O
  -0.0110420239320407    0.4988327543436407    0.8853108835542427 O
   0.0104332891901138    0.7475546452547684    0.8742123259578647 O
   0.8360752094826366   -0.0083317163139299   -0.0101465666652576 O
   0.8317460526058440    0.0020765478597395    0.2505667006815975 O
   0.8339424439725879    0.0002542690155163    0.4992126917261822 O
   0.8307987044315521    0.0130118543122072    0.7619557612291490 O
   0.8486819345486875    0.2507921722380688    0.0025891506183383 O
   0.8390905380566841    0.2478779481128727    0.2433063554850477 O
   0.8324145929169428    0.2516647926012710    0.5067068454378735 O
   0.8362265191511441    0.2496923509699169    0.7497049941636631 O
   0.8241560563278854    0.4911605151845237    0.0041153323015573 O
   0.8260081881524451    0.4973117308437467    0.2498412953167774 O
   0.8321098129238316    0.4866063205800431    0.4944593062960956 O
   0.8239564077529510    0.4982341436483429    0.7513527297493261 O
   0.8590829884830072    0.7666045296297170   -0.0027184954715497 O
   0.8296975029352901    0.7514584200285405    0.2371700095527755 O
   0.8313952586903571    0.7623605880821944    0.5099407620361872 O
   0.8421330498428236    0.7396539302720320    0.7481560265169227 O
   0.0067764353280812    0.0004152738597579    0.1235848347455422 O
  -0.0175718711614343    0.7314210928015943    0.6247749950526159 O
  -0.0063447399050786    0.7477007004170186    0.3796259035086313 O
   0.0061226436212993    0.7520011472217650    0.1193473622931831 O
   0.6850702322163978    0.2457066342123755    0.1205242049498888 O
  -0.0012941095764892    0.4957355765916130    0.6153075523690117 O
  -0.0061502049745252    0.4951438346287876    0.3719916173702015 O
   0.3412895556083923    0.0036319677221362    0.1152271243887810 O
  -0.0053817703865283    0.5094028285458461    0.1271874049209954 O
   0.0085284269945681    0.2504059570773718    0.6244677029954591 O
   0.0077943864146854    0.2614552522855703    0.3748966258046965 O
   0.0012036379495382    0.2364189893214601    0.1267093527434157 O
   0.0194859434512512    0.0004677269817022    0.8726564553141231 O
  -0.0053076143291157    0.0237836336414894    0.6245446892783617 O
  -0.0051851105460404   -0.0098605873202260    0.3795828621114630 O
   0.0045783880005895    0.2502935918514844    0.8769713186918733 O
   0.6529532241883764    0.2471546472991377    0.3802503903659580 O
   0.1512184693100996    0.8882117656538341    0.6239729790643743 O
   0.6619570109758168    0.2443796536807317    0.8747796495822078 O
   0.4992838097900821    0.3622226559379235    0.3708959820894523 O
   0.4946903855951436    0.3774752012331699    0.6329859292398584 O
   0.4999457677747525    0.3798904015385874    0.8753507844887203 O
   0.5141169992218360    0.6245821375383996    0.1191551156773418 O
   0.4967766400308654    0.6339739728316244    0.3763805457720432 O
   0.5072229973998542    0.6308648624008866    0.6240886058882392 O
   0.5095052482268542    0.6285220154698694    0.8807924177129712 O
   0.4975838969234264    0.8727277810037566    0.1251903192975830 O
   0.5051793742572998    0.8761073242342060    0.3712968953253429 O
   0.5256798438149256    0.8724098309796164    0.6287440286092825 O
   0.4781861889786784    0.8704717795011514    0.8748117505069957 O
   0.8303750104933457    0.1160968038876232    0.1158076428700229 O
   0.8249040490725633    0.1353805836903000    0.3773624524672172 O
   0.8229442165493118    0.1300311807533003    0.6247699084702065 O
   0.8328787679296908    0.1269560760793255    0.8811118385543983 O
   0.8354050561431111    0.3728725104786489    0.1259148940263593 O
   0.8181229895699923    0.3675814413034240    0.3688570306192235 O
   0.8378609952621207    0.3716389465435965    0.6294723083932029 O
   0.8338239212588842    0.3708401081495974    0.8770243016613564 O
   0.8249576889376529    0.6254767027711911    0.1186802442380410 O
   0.8309801890227965    0.6240905945688264    0.3831254318808744 O
   0.8304395519713094    0.6089622075318734    0.6194980426435858 O
   0.8357778829029644    0.6299941157270953    0.8742840262112673 O
   0.8200693483324121    0.8842319041787772    0.1185840468833286 O
   0.8335479908081298    0.8712405411144264    0.3594763818310409 O
   0.5013517891333333    0.3712361236494888    0.1224433763645259 O
   0.6671289791773007    0.2495757374788025    0.6289602691714958 O
   0.4933774475152288    0.1198772397513873    0.8742474914505147 O
   0.5003738660579909    0.1287792791833420    0.3757659771739806 O
   0.6649283121056003    0.4918821081732465    0.1224862258619184 O
   0.6587100950779170    0.4968979847790260    0.3737782370256290 O
   0.6646825960474262    0.4986532815191234    0.6229476563351160 O
   0.6678169598265419    0.5045842240725010    0.8827377196474955 O
   0.6623783904898750    0.7579527820676902    0.1142080850844731 O
   0.6715812428715351    0.7502481940566226    0.3761596327114110 O
   0.6721045595759860    0.7471037038257901    0.6253340874564721 O
   0.6749877148782009    0.7573446218750531    0.8791158112944246 O
   0.1711620017935566    0.1189456372518154    0.1266201397507040 O
   0.1743238034967738    0.1301738894019440    0.3750907378606627 O
   0.1886909558350591    0.1155654483397115    0.6263139657219465 O
   0.1738626375831326    0.1364091643529376    0.8745774096879262 O
   0.1618285425992078    0.3741901067230259    0.1207728529950534 O
   0.1820438399743437    0.3708482495043903    0.3736050232293941 O
   0.1664061071501436    0.3873708889524826    0.6208647217358220 O
   0.1651275672926297    0.3734275423499798    0.8882378602511340 O
   0.1604846357902101    0.6220994350958329    0.1293892777726691 O
   0.1696614845305382    0.6275521413378488    0.3751534153708722 O
   0.1616718875656233    0.6143766980086831    0.6226193633592355 O
   0.1592610252644081    0.6330290291401471    0.8711954394282515 O
   0.1812882745350557    0.8874627647156728    0.1347369672379600 O
   0.1584909640597386    0.8702627332340861    0.3782973795107379 O
   0.5015680519210715    0.7499119536434651    0.7596851334183511 O
   0.1667587008527630    0.8536664950384399    0.8618841304791094 O
   0.4993281138420319    0.1307970594943454    0.1230876316280179 O
   0.4967580409378995    0.1189243697114698    0.6274331332476210 O
   0.5057963650621405    0.7569354796593797    0.4931407628810902 O
   0.6666816015321331    0.3638820659159974    0.0004303498107937 O
   0.4725889253648744    0.7511253329894029   -0.0014831374718974 O
   0.5045933298381011    0.7514722111460757    0.2490481663929532 O
   0.3361133175863029    0.3781188644609396    0.0011260318958271 O
   0.3364184198191507    0.3717219409117024    0.2446855352259300 O
   0.3353239125564491    0.3715762656154217    0.5005801723523119 O
   0.3326334260446702    0.3825102973027030    0.7550873765761560 O
   0.3212641216827385    0.6230045444562031    0.0147293749944012 O
   0.3381915658038644    0.6217840996962881    0.2444090371850757 O
   0.3380719416442165    0.1259498371387199    0.4982731605260513 O
   0.3341641736776743    0.6276159378465578    0.5045097260426372 O
   0.3246853823924021    0.8753944707403803    0.0011718041418620 O
   0.3371026531029226    0.8880865234691754    0.2543779153767545 O
   0.3191853074879717    0.8742790739354094    0.4997442712020237 O
   0.3325899589554999    0.8695011194506755    0.7452836137418656 O
   0.6542861921535285    0.1228023651657784   -0.0021013003288779 O
   0.6656604903466278    0.1270438941119453    0.2484129647813690 O
   0.6618786313267374    0.1262260997377734    0.5018879328107858 O
   0.3328881802027849    0.6259648167671580    0.7398666912599438 O
   0.6635783667688411    0.1259144772937393    0.7530329580174551 O
   0.3340470442690883    0.1211251795939378    0.2479251768400316 O
   0.0001316004440384    0.8892049537753476    0.7466726572780901 O
   0.8320768079550406    0.8909908948598214    0.6465033397019705 O
   0.0082946451029063    0.1089362586431459   -0.0046184787793112 O
   0.0005890126611397    0.1241939547606438    0.2591273753943608 O
  -0.0008780269138978    0.1313708239106498    0.4912163560410621 O
   0.0022240923259959    0.1303553183554524    0.7553650664621755 O
  -0.0038246086393056    0.3851494972328688    0.0072505369676834 O
  -0.0019482115473327    0.3728453056217906    0.2438620804176519 O
   0.3362976942987422    0.1252285896924860   -0.0029546288538905 O
   0.0066646617853781    0.3730730437043200    0.5001835675513072 O
  -0.0065656357992955    0.6177110683260167   -0.0015732086253190 O
  -0.0066109257287726    0.6274475363024974    0.2537326668702063 O
   0.0018643650015195    0.6194529390100840    0.4972141330372022 O
  -0.0014325723349635    0.6077657407513162    0.7488557095045026 O
   0.0267222008905584    0.8898399779832329    0.0018007026275432 O
  -0.0036018911779265    0.8747788441426471    0.2425447345986903 O
  -0.0095886705847966    0.8749195361031589    0.5134335159576999 O
   0.0027505958745719    0.3774994472492784    0.7501140906983206 O
   0.6635146933311435    0.3703742121356096    0.2471596567107403 O
   0.3363187402086836    0.1215108868423606    0.7536265295672054 O
   0.6661431285055843    0.3718101690620651    0.7537177605487404 O
   0.1670005541439768    0.7382722695338757    0.0016750346727381 O
   0.1624354314901212    0.7506727915130993    0.2506085691492406 O
   0.1617446338152464    0.7466747188073137    0.5079054143346320 O
   0.1558751150023244    0.7442711136235564    0.7350593928476867 O
   0.4922538260858645   -0.0076931641619848   -0.0055444478287064 O
   0.5038620715667795    0.0039116585578918    0.2515424130238431 O
   0.5024193532317799   -0.0040529569650809    0.5029392592332390 O
   0.1744321931270817    0.5002124821268721    0.7677397645994304 O
   0.4999407604416630   -0.0039560203116931    0.7506378757841250 O
   0.4960060828557395    0.2475352610052861    0.2319160577962480 O
   0.4937176580532427    0.2477831419561914    0.5151001750235149 O
   0.4980684438279144    0.2424299238299152    0.7514680052207560 O
   0.5066029347147877    0.4988614518889303    0.0009776827546403 O
   0.5031037841460754    0.4978854756723015    0.2445056679536877 O
   0.4977485086176092    0.4998461451125643    0.5007592859917984 O
   0.6576560371961175    0.3707040568195827    0.4999556882673740 O
   0.4923189478134684    0.2560181935489363    0.0027046232276512 O
   0.1693258146564905    0.4993228439761573    0.4886560312715744 O
   0.5021057589547456    0.5108118689246214    0.7538631704850696 O
   0.1635290925771854    0.5117594511809510   -0.0044504006532740 O
   0.1706409287502988    0.4995739802882846    0.2524001282485522 O
   0.6862094916799284    0.6458808346917756   -0.0063991681888080 O
   0.6669278931976385    0.6227975715097924    0.2583409481256411 O
   0.6634365224109722    0.6259923821473129    0.4995235896074023 O
   0.6694859728665074    0.6283729060346470    0.7517294980656858 O
   0.6469270387090699    0.8737706583526020   -0.0046923824565965 O
   0.6646583680347392    0.8790342629262082    0.2458809587496529 O
   0.6820705017414098    0.8770208533726848    0.4893818618165436 O
   0.8559365332889188    0.8726351819099494    0.8733340096539681 O
   0.1742065093751704    0.0055916613248146   -0.0171694859707583 O
   0.1609194062228065    0.0021962985001583    0.2615975193153036 O
   0.1641298722288276    0.0011660575667360    0.4991111833520219 O
   0.1732496779547371   -0.0014103771995998    0.7536104736412228 O
   0.1601111188404922    0.2411869250428577    0.0028759881344201 O
   0.1640039386733667    0.2468563345654552    0.2483439910604280 O
   0.1727738983974998    0.2519280794398959    0.4988710088912455 O
   0.6709562151234690    0.8767600145421017    0.7629963346622144 O
   0.1646193532980187    0.2559167644712458    0.7546552613991792 O
   0.6669483629051421    0.7508528367823168    0.2482934490162196 Zn
   0.6686328055975811    0.7521831926645316    0.7507269807827913 Zn
   0.1653873213217177    0.7491892435417166    0.3764045357699342 Zn
   0.1716173312573778    0.7508755861218913    0.1283242504912822 Zn
   0.1726167941285185    0.4946133091477337    0.3711233086115531 Zn
   0.1693530582866866    0.4986982937211610    0.1263918984784780 Zn
   0.1657883384216838    0.0052499669352774    0.3798165205643973 Zn
   0.1713616791042776    0.1274560076435879    0.7491907391818030 Zn
   0.4999375776940860   -0.0003499365815076    0.3745868691097318 Zn
   0.1675417619890394    0.3710535214034275    0.2504989678863490 Zn
   0.1687764384076126    0.3795638040896717    0.7508168571610934 Zn
   0.8286334307902041    0.6260999621848220    0.2465671878819749 Zn
   0.8325807699876822    0.3690620484137220    0.4954514203581693 Zn
   0.8343189262013986    0.1252369480712022    0.2521273935495582 Zn
   0.1720949308715198    0.1271370948030525    0.5008626762982246 Zn
   0.6632485088437789    0.4991602114983101    0.7511314581138032 Zn
   0.8326814652247050   -0.0035143268882989    0.3743642723982027 Zn
   0.4963497392815641    0.2494918828725081    0.8752509075476406 Zn
   0.6647942314586325    0.3729402696524880    0.8775238017870537 Zn
   0.6637868697078129    0.3734355604568618    0.6264373847742450 Zn
   0.3310458017408197    0.8704657727628989    0.6222617234786116 Zn
  -0.0055804744402440    0.4982668101521804    0.2492428317793393 Zn
  -0.0034946785975360    0.7511319412327239    0.2469267752368373 Zn
   0.0024081946728784    0.1196152908875214    0.1211881654223088 Zn
   0.3342882784790264    0.7486702517575285    0.2539673509009861 Zn
   0.8322394093626786    0.7515479942632447    0.3808142876528294 Zn
   0.8300210153144669    0.7540605784659201    0.1158358706529866 Zn
   0.6628403592450304   -0.0004679064689593   -0.0008201995673112 Zn
   0.8366709340897257    0.2493476381200941    0.8774348553308634 Zn
   0.6674912963689382    0.0001038132969897    0.4999553649420547 Zn
   0.8336444887916884    0.0095541428695570    0.6280673078180762 Zn
   0.6643196841306883    0.2447549925608447   -0.0006450990116757 Zn
   0.4998695495715577    0.5013825047867257    0.6270165197768898 Zn
   0.4929473789959432    0.2512998538057769    0.6329387051735772 Zn
   0.8281727004779192    0.5007504286506291    0.8783756701613282 Zn
