Mg36 Mn10 Zn36 Co37 Cu37 Ni36 O192
1.0
  12.9398063188232140   -0.0004773028256898   -0.0005089024295679
  -0.0006364098048310   17.2575725968606655   -0.0005517114411744
  -0.0006785557699021   -0.0005517374751101   17.2548066456340443
Co Cu Mg Mn Ni O Zn
37 37 36 10 36 192 36
direct
   0.6698421515281932    0.7481045638398897    0.0009104049531090 Co
   0.4969686545615578    0.3771388452996224    0.7488358504043539 Co
   0.8330471215044689    0.6257877543169295   -0.0015003265263722 Co
   0.8365375155372489    0.5016342607326126    0.3757666058279565 Co
   0.1637172821706003    0.6256659373545204    0.5032606762649972 Co
   0.1681634617260869    0.3744985176032132    0.2513443479599505 Co
   0.8353267176952711    0.0000747048223917    0.6240764601756774 Co
   0.6681962452042657    0.4981055574080189    0.2547058171000122 Co
   0.6748166202327951    0.5019849444453865   -0.0023443974744696 Co
   0.0056782697085953    0.8817916043526082    0.6194693894266655 Co
   0.6628641578612324    0.2510425049809048    0.7512349168244437 Co
   0.1674785768240055    0.8744560512488992    0.2503854953915651 Co
   0.6574512180273803   -0.0022540203687762    0.0021147412984278 Co
   0.6663132007799665    0.0014073743013693    0.2477689210208492 Co
   0.8284076162351355    0.0005670683473398    0.8809437370858750 Co
   0.0046195144491628    0.3771179378360293    0.8751539186506805 Co
   0.5000402030800943    0.5043509907966264    0.8747452599047715 Co
   0.3307689290796347    0.3757909067419353    0.8733297985556433 Co
   0.4978248241841203    0.5015276542766841    0.6230564704155270 Co
   0.4941255020236153    0.2536001640116037    0.8763777286699992 Co
   0.8306185906355115    0.8747938131724908    0.2465805097840518 Co
  -0.0009072319340567    0.0005666534142806    0.4975294523228723 Co
   0.1643238182333328    0.0005787284949974    0.3729778387363316 Co
   0.6672357144543549    0.6256823415310532    0.6235719856526718 Co
   0.6691085554285736    0.6237519906724415    0.1265662749416156 Co
   0.1671156857832868    0.0039697943546718    0.6196666718645539 Co
   0.6591052460658015    0.2538754123712118    0.0000625785341896 Co
  -0.0055828046430628    0.1207632113673831    0.3755511055664259 Co
   0.8391654652819074    0.4994215543439146    0.6248343728413852 Co
   0.1621286470085875    0.4967457201554641    0.6244353962633705 Co
   0.1651659573842058    0.6280899145525557   -0.0004009611755378 Co
   0.5017523657351415   -0.0073011617605112    0.8774618750755298 Co
  -0.0006089772243676    0.7524910823073088    0.5022026905815996 Co
   0.0053110596374457    0.7574188474563138    0.7482616860172949 Co
   0.5031426507594372    0.2504150573767568    0.3744060474869040 Co
  -0.0013949444589377    0.5002932209761188    0.2510746200767632 Co
   0.6719536934587220    0.2507936746514706    0.4970929378021309 Co
   0.1614290777566186    0.3718619589689266    0.4964546424155973 Cu
   0.4971930721289437    0.1236583086361760    0.7585523274895035 Cu
   0.1691317039171167    0.8773491554567986    0.4914841821886615 Cu
   0.1708164055159216    0.8783704249863243    0.7500680716180066 Cu
   0.5001822078579904    0.1268143154350070    0.0024863495810254 Cu
   0.4948575291694404    0.3851085798173352   -0.0055121402445802 Cu
   0.8279139893620805    0.0010579910940741    0.1243402456589025 Cu
   0.5029140127201532    0.7484295774209344    0.8754500051284752 Cu
   0.1692248043849445    0.7572636616657488    0.6247555613551208 Cu
   0.1709793233267662    0.2454596514902127    0.8790804628983467 Cu
   0.8329138096669519    0.1241721117977040    0.5011560399848822 Cu
   0.1664831071800795   -0.0043533810167320    0.8841808316693910 Cu
   0.8336106460060823    0.5000007831069905    0.1271046059600009 Cu
   0.1609639163794312    0.3731699749859096   -0.0043419945788587 Cu
   0.0000055784601704   -0.0014247933747157    0.0056300625849670 Cu
   0.8318052521850032    0.7517318825565169    0.3732215369291667 Cu
   0.6724153489614525    0.6282912440134505    0.8740700870708702 Cu
   0.3329239372029970    0.8743503459659838    0.8772085771840145 Cu
   0.0004494587531062    0.4988828105429250    0.7490111475041425 Cu
   0.3323342266850592    0.6283294953603915    0.3760401895881697 Cu
   0.3299138239272464   -0.0030016460090696    0.4973793893799159 Cu
   0.3307702034356629    0.2529885871339723    0.0012328985499864 Cu
   0.3320703977343049    0.2486725553574847    0.2534381733197356 Cu
   0.1716764394434949    0.1227596401693608    0.7550452743685283 Cu
   0.3280326312499986    0.3726036107783439    0.3781572962800139 Cu
   0.3266030011623994    0.4966767437309281   -0.0035057950175586 Cu
   0.3333939951347977    0.3741318806300555    0.1288463953580116 Cu
   0.3327508954125526    0.1249461480552263    0.3721271789349010 Cu
   0.3299534461416969    0.2512338691088561    0.4904090241084914 Cu
   0.8388023986867326    0.6270292127642431    0.7491555338098690 Cu
  -0.0088958876984922    0.8795455014588703    0.8808686322222827 Cu
   0.0026548289634378    0.6297922820763182    0.6251906604528895 Cu
   0.0010418413323419    0.3675945789731317    0.6280868552434850 Cu
   0.6681464645209213    0.5006416186875673    0.5005148732396221 Cu
  -0.0023222717635272    0.3752387711639545    0.3707621916649719 Cu
   0.6699588195123044    0.7505215231099345    0.2488783855288510 Cu
   0.0001604740189832    0.1206709772852783    0.1240625097325668 Cu
   0.6660450851713772    0.8742431105063834    0.3737231115312794 Mg
   0.1731539649265156   -0.0007055010076905    0.1269543060191065 Mg
   0.8389743113177042    0.7495793494148814    0.8738805243916313 Mg
   0.6680128986392125    0.3766946420192647    0.6228836464334597 Mg
   0.6595891931515404    0.1244325097508074    0.8786230198978047 Mg
   0.3323383156608085    0.8752107091139922    0.6185751934808902 Mg
   0.8327764272037793   -0.0018019607426884    0.3727440918125852 Mg
   0.0031328775252339    0.1249793859230167    0.6227645683395520 Mg
   0.3377197309658956    0.8719425666077306    0.3757896296266038 Mg
   0.3383589732665215    0.1233736696722279    0.1277802604920879 Mg
   0.3265954655474151    0.6289073751123951    0.8768721224550640 Mg
   0.5012433777274404    0.7481866785176287    0.1272851548277212 Mg
  -0.0017663770930525    0.6298775109689845    0.3732618518721462 Mg
   0.0033016206964173    0.6264751510853274    0.8737063051401396 Mg
   0.1633312268873815    0.5031383818446179    0.3743900405425599 Mg
   0.3363730690463093    0.8743767595585754    0.1267119352699743 Mg
   0.6690316462108915    0.8703603020552556    0.8755095449842276 Mg
   0.1643915714724673    0.3754282006153399    0.7514303389177949 Mg
   0.3292592244296393    0.7535612025015723    0.7517182633006427 Mg
   0.5000533089291626    0.6274231634694299   -0.0013038999217084 Mg
   0.5019358526719605    0.8737771815471920    0.2509470672563299 Mg
   0.3339127639434503    0.7482570688711524    0.2493633639001711 Mg
   0.3342345418580807   -0.0029245266687442    0.7533738106765324 Mg
   0.3342159999281423   -0.0023106066596961    0.2528563066814369 Mg
   0.6684379842825285    0.7499553633034481    0.5006390112765392 Mg
   0.5010878757160516    0.1245565772275280    0.4936774568608052 Mg
   0.1655660873812954    0.6254426355386788    0.2481721993043186 Mg
   0.1659665570149161    0.8761984691396947    0.0049254924264426 Mg
   0.1666849011865226    0.1253923241320339    0.2489025337137362 Mg
   0.8392292828272335    0.3758672121590452   -0.0011755699946373 Mg
  -0.0034400612453049    0.2496121789041143    0.4938956421034104 Mg
   0.8368316012577104    0.3776931216536389    0.4983510866260587 Mg
   0.0002916327025988    0.0000529852128143    0.2461720897805303 Mg
   0.8354874442513396    0.6254916402678717    0.5015344382402769 Mg
   0.0083071296747976    0.2463695809234032    0.0032995520240772 Mg
   0.1639851403791142    0.6255438602231927    0.7487313201304415 Mg
   0.6640220045379144    0.3751230655194536    0.1245276920360479 Mn
   0.4997305349069851    0.4999284564474193    0.1248397879790686 Mn
   0.6687065762353355    0.5029091242123093    0.7479836430714412 Mn
   0.4992668272083753    0.2490177164645849    0.6236161171317440 Mn
   0.6652303343286872    0.8738974490059755    0.6253699423855794 Mn
   0.3316223197887200    0.1254145677273781    0.6210480751473147 Mn
   0.8321461091327125    0.1214093179065619    0.7539776003582066 Mn
   0.8335785405896023    0.2484281955669797    0.1240896996503593 Mn
   0.8331053722967069    0.2498010881121325    0.6245443623904701 Mn
   0.8349275371085961    0.2493105204498569    0.8782413008407057 Mn
   0.1656657639246664    0.1279409489642075    0.4918846142753833 Ni
   0.8330391696633281    0.7510177418625108    0.1219134245573654 Ni
   0.8366085696007207    0.5017976725555315    0.8725297224915103 Ni
   0.0069239735995393    0.2438336497028518    0.7546547733961391 Ni
  -0.0000424438341248    0.8760002655439554    0.1274054121409260 Ni
   0.3371358008128797    0.1218234369093609    0.8787480594142285 Ni
   0.3313762575117591    0.2485914257829192    0.7516561152301948 Ni
   0.3287806743990236    0.6263141579180734    0.6283230038664932 Ni
   0.3419634025268437   -0.0039638362062995    0.0018174877469999 Ni
  -0.0013568135650765    0.7520734918202239    0.2474319719470491 Ni
  -0.0017083089953261    0.7525936721889250    0.0011152537268706 Ni
   0.6589753563409186    0.1254571522100559    0.1244568458844795 Ni
   0.6715853847453568    0.3750549730718715    0.3761711485947651 Ni
  -0.0000286216960543    0.2465046740617034    0.2488233953951928 Ni
   0.6661580003285978    0.7489836108308742    0.7493972744909917 Ni
   0.3329893981073188    0.7526845452537244   -0.0001716958017554 Ni
   0.6667777322897628    0.2496583715109789    0.2518864571854098 Ni
   0.5016966662623286    0.1244079101892968    0.2518318466181542 Ni
   0.8337686712036512    0.3740331514651158    0.2520911458102948 Ni
   0.8326404514090842    0.1240619754156676    0.2453915654782138 Ni
   0.8355098787572950    0.2487570312480828    0.3720133090742986 Ni
   0.8267918232095325    0.1231466484318247    0.0020372548715105 Ni
   0.4972049212528068    0.8714370193253820    0.7503524669012547 Ni
   0.1649191087018109    0.5027945277903728    0.8757909225550822 Ni
   0.8326973344714458    0.8730784761228207    0.5001283374838998 Ni
   0.5016532530862856    0.8718782458908526    0.4976510076409777 Ni
   0.8320682463271294    0.8757561135022839    0.0033601140794611 Ni
   0.4963990749171989   -0.0026923495513989    0.1266696331454177 Ni
   0.1708461691812133    0.2480330512774263    0.1275834056755811 Ni
   0.5011996132638292    0.8675845085451489    0.0006587288087203 Ni
   0.1589688152648521    0.2487365872425635    0.3710485581833523 Ni
   0.4977584820263461    0.3748874449927274    0.2577083288374999 Ni
   0.4967800391080748    0.7495757126701966    0.6246639504362387 Ni
   0.5025036326286789    0.7482353252770733    0.3731316526710312 Ni
   0.5008567495285642    0.6252244731002743    0.2502644871443694 Ni
   0.5007376959900802    0.5012417128975374    0.3764507871197165 Ni
   0.3355970089651100    0.7527111714312634    0.1258707532843010 O
   0.6583972552845907    0.2492737697823754    0.1234108729046680 O
  -0.0011531813935105    0.7484228935024639    0.8759513103497493 O
   0.8351196940685954    0.0001779933588915    0.2429919609750958 O
   0.6617810878703515   -0.0020390939361694    0.8758837279988522 O
   0.3374236433403549   -0.0024960526618377    0.1284454924809891 O
   0.6668893155755180    0.0008070741553415    0.6277874072238478 O
   0.3317462594578160   -0.0020724710924742    0.3785934158467448 O
   0.3333989360180177   -0.0012893888474242    0.6168083278153638 O
   0.6727907361918024   -0.0033499335522985    0.3721309404188626 O
   0.8117823824208457    0.0009596697864102    0.0079653509059917 O
   0.6526169096956266    0.0012680835310452    0.1253915808813706 O
   0.3472131256617811   -0.0088391176854524    0.8768212155080581 O
   0.3336624469118694    0.2510167670338707    0.1399226378776024 O
   0.3295954494752781    0.2456948143012807    0.3663842792451134 O
   0.3202705201250193    0.7570340427567468    0.8757532281272642 O
   0.3286051219798493    0.2465852078401521    0.8677649826251133 O
   0.3320066645778652    0.4944206005218040    0.1117335508598458 O
   0.3295272572073311    0.5136239923385644    0.3788000092059598 O
   0.3267077400330873    0.7515057702516649    0.6291180541766005 O
   0.3310762834852710    0.4989574663352841    0.6236946284609354 O
   0.3326762076152041    0.5043194140268528    0.8813496647866438 O
   0.3382448993192838    0.7456572190927804    0.3712638425850552 O
   0.3304317002170277    0.2512560635655105    0.6325760277776158 O
   0.8359069340818134   -0.0031338919331067    0.7524740719683274 O
  -0.0059058657098589    0.7501330223456520    0.3727373024260590 O
   0.8343789819035380    0.7519070337668633   -0.0013133041520420 O
   0.8359294461707615    0.7516685272898581    0.2400274261039404 O
   0.8324132537440825    0.7498844605394884    0.5112121781677693 O
   0.8377817019465993    0.4927833697227835    0.7497493288173088 O
   0.8375623408674272    0.7610824054801323    0.7485680205860550 O
   0.0125329687938470   -0.0030727574853929    0.1236743934992644 O
   0.8457709821204240    0.5007408014289186    0.5005021442844075 O
   0.6752883447408073    0.2535569754220068    0.3728443427329943 O
  -0.0052807003345929    0.0000541050212528    0.3702866093358471 O
   0.0007946048675826    0.0045842420016292    0.6213979518182380 O
  -0.0157524924165093    0.0044678203877460    0.8872554356816690 O
   0.0075153613692170    0.2508978010522491    0.1247986815476505 O
   0.8326949015321023    0.4968659214478732    0.2569866642143741 O
  -0.0048929231925299    0.2385910482001743    0.3710895597698673 O
   0.8391505560676463    0.4995078287658955   -0.0080087714167312 O
   0.8327928997425345    0.2492555886122116    0.7529249433842263 O
   0.0021367476539235    0.2505150629877462    0.6247389277372042 O
   0.0108997672283827    0.2406970591012563    0.8798783947675269 O
   0.8363828876672329    0.2558278719071851    0.4961673316265631 O
  -0.0077108471695463    0.4961514284026315    0.1278082514442941 O
   0.0003929914939069    0.5115296650098925    0.3721249391692996 O
   0.8327925892031085    0.2492043513956134    0.2470318014076317 O
   0.0009436111228509    0.4796800161552058    0.6351139208149922 O
   0.8386630282206708    0.2492615420751833    0.0020897604442789 O
   0.0000124106750905    0.5040121423418780    0.8661216742313608 O
  -0.0000052351366059    0.7535486576764102    0.1244869218765668 O
   0.8317946353756225   -0.0064932716914998    0.4970675447213638 O
   0.0157090976646104    0.7628683762062374    0.6242567149306623 O
   0.6662715424614337    0.2512939613907892    0.6259441422538351 O
   0.6649536015076489    0.8811627345561873    0.2511606254311410 O
   0.6761653588540999    0.4995880991126154    0.1245303720032146 O
   0.5094184807608674    0.3767976399858093    0.3765947523361132 O
   0.4995130786780645    0.3780567509276656    0.6220152939441587 O
   0.4987139188266051    0.3800978241243793    0.8701204077036667 O
   0.5033700634660857    0.6256048754744418    0.1247591033695950 O
   0.5046135455846513    0.6250022493201871    0.3740424780565302 O
   0.4960052250224233    0.6260724217192596    0.6265944167241538 O
   0.4905578471906316    0.6315522546105988    0.8756548843234347 O
   0.4979494936852951    0.8720866496592304    0.1282966707761319 O
   0.5013442956351642    0.8710984357258698    0.3734706950872852 O
   0.4940068070136485    0.8726833976864912    0.6240443446053167 O
   0.5112241638556271    0.8629689986272928    0.8752904680956027 O
   0.8183674379333389    0.1296775428411670    0.1230301662618041 O
   0.8335829752537617    0.1223942712101178    0.3651623200047526 O
   0.8351220003925489    0.1226207982798935    0.6297034146494057 O
   0.8214346381547611    0.1227154560525008    0.8803451272346751 O
   0.8362736194590241    0.3685148678181382    0.1244785182042745 O
   0.8378667595550514    0.3735557341727035    0.3744412354674598 O
   0.8306789553319228    0.3763827023217589    0.6220755336786782 O
   0.8376657949508899    0.3767984824912275    0.8772470531834877 O
   0.8337308855541944    0.6283225180289810    0.1231582716242133 O
   0.8345873060015850    0.6302513473818777    0.3777424686811398 O
   0.8371695962914846    0.6212161441263603    0.6251611245714578 O
   0.8421229344493384    0.6250077297528980    0.8728174494033384 O
   0.8331589584561250    0.8726657137912039    0.1243688733570441 O
   0.8294767487692407    0.8724716141470974    0.3723654493213306 O
   0.4922828906510876    0.3762987369080189    0.1385287429605245 O
   0.6601524422140482    0.2490823922227971    0.8765647924368039 O
   0.4980012955506903    0.1256839526019755    0.8846331318714028 O
   0.5144111106669506    0.1258555494456389    0.3742947352927730 O
   0.6692021638148009    0.4974468155687383    0.3812649134217009 O
   0.6659182276689701    0.5002086510686145    0.6196540172093218 O
   0.6689541170776540    0.5107779586182902    0.8742925035748270 O
   0.6663536870068536    0.7495333132386748    0.1286460726180595 O
   0.6677171248886071    0.7516352601442194    0.3723040406505608 O
   0.6611687035807370    0.7482271876293285    0.6260373691322000 O
   0.6800320380052518    0.7448104727431679    0.8716134520794401 O
   0.1815637648027847    0.1236114085206191    0.1289680746669110 O
   0.1513824300330718    0.1249043753981900    0.3703115804847796 O
   0.1642558848547654    0.1262193974576836    0.6109224224628348 O
   0.1755562338934306    0.1087341569198625    0.8850867460500069 O
   0.1729059548603659    0.3727936568710175    0.1307762091591993 O
   0.1541947389508514    0.3758949730031501    0.3690441908215928 O
   0.1681476728376364    0.3728774870793242    0.6294010436501524 O
   0.1651347449134897    0.3843978571512859    0.8721435387976554 O
   0.1634016145984639    0.6244666894466965    0.1255045154664494 O
   0.1609818606218745    0.6256932419546133    0.3724558532877520 O
   0.1639470892839024    0.6144703401886198    0.6278525785143483 O
   0.1647810285009670    0.6242199333332760    0.8729192752011921 O
   0.1718197308455569    0.8764853902810212    0.1267723328199928 O
   0.1710951246615857    0.8745038626342030    0.3755546344549724 O
   0.1716262594593653    0.8880080349091201    0.6035933436520654 O
   0.4958519457012570    0.7506863034191522    0.7461415891718469 O
   0.1417568585232850    0.8837716085912718    0.8865186417011127 O
   0.4970584551440652    0.1243838823360749    0.1257893705863993 O
   0.4996724357422646    0.1227521793706038    0.6124940855492120 O
   0.5060500852031018    0.7492016945563960    0.4993392613088355 O
   0.8358625389724844    0.8750668494300902    0.8795687387871088 O
   0.5020033370879293    0.7479434073360655    0.0047782945005928 O
   0.4979791873113998    0.7482684778628751    0.2499254551461624 O
   0.3110077797384303    0.3687431487183412   -0.0103472244423614 O
   0.3344189968126965    0.3835894168445828    0.2665530495602300 O
   0.3209868135010143    0.3671081008419211    0.4932719023725020 O
   0.3296880402437975    0.3759665877010901    0.7518927319440326 O
   0.3337785805799399    0.6329778510281554   -0.0009210715715666 O
   0.3334008208134396    0.6234226270226655    0.2404275450452659 O
   0.3348631643268055    0.1371948371409968    0.4880282188457289 O
   0.3308832943798335    0.6286228273356672    0.5101759891470843 O
   0.3341220583272595    0.8724094236076906    0.0025873932373556 O
   0.3362254609951278    0.8739071914355606    0.2525892625122015 O
   0.3427213173407102    0.8658783983091322    0.4967366279490428 O
   0.3278947151146243    0.8757894451618052    0.7469163224361849 O
   0.6567549826591633    0.1290462117458469    0.0009858249527526 O
   0.6665386182909441    0.1260110779174542    0.2456489413357132 O
   0.6759153754686961    0.1261711894005481    0.4998372409856278 O
   0.3270186232763967    0.6276766288539249    0.7517432581069449 O
   0.6552445490173227    0.1256871842877955    0.7537586040799705 O
   0.3363222694277029    0.1182421026140557    0.2547814182570488 O
   0.0172410275861201    0.8801113724220636    0.7413342920418902 O
   0.8365674365246850    0.8796553190758343    0.6230425178491937 O
  -0.0061271361079887    0.1214577758071603    0.0079659828610299 O
  -0.0019940990171566    0.1223785336719557    0.2392395785621790 O
  -0.0111164378961375    0.1260944295348959    0.5005323583725593 O
   0.0040483052207641    0.1235045897207749    0.7507542608822453 O
   0.0048070415124802    0.3703102803884621   -0.0016912375766377 O
  -0.0040625038801450    0.3723384769197089    0.2531330975625432 O
   0.3464208600182284    0.1238632444997953    0.0028744755573273 O
   0.0035649558081668    0.3728286610372247    0.4872741344119502 O
  -0.0030329192272322    0.6298503041163835   -0.0011538001245786 O
   0.0002874554604373    0.6284330311547419    0.2493542224029086 O
  -0.0016683958274660    0.6283818367358239    0.5060948150105966 O
  -0.0016925770068845    0.6371727334901084    0.7438582142735131 O
  -0.0029047099351030    0.8772929663950818    0.0102783277004462 O
   0.0005898493961220    0.8759849370297975    0.2485071447405348 O
  -0.0084112005898193    0.8761312417215109    0.4958660152413742 O
   0.0047228244445287    0.3591408724250854    0.7599295820928991 O
   0.6800603309279626    0.3753698521894642   -0.0024362160609258 O
   0.3410917148995390    0.1208720829613063    0.7550711523637592 O
   0.6728513967404619    0.3740598919472333    0.5005745000039361 O
   0.1641267203827692    0.7532991401367396    0.0012110923627182 O
   0.1679080172545492    0.7485498875027377    0.2504276662208243 O
   0.1629638941981633    0.7443602795641246    0.4965201304010202 O
   0.1675287028472416    0.7514825440156313    0.7522181919253319 O
   0.5009919295069992   -0.0158037578017751    0.0016451802652099 O
   0.4973831250372118   -0.0010395576668531    0.2518746040566134 O
   0.5063269369397438   -0.0019864846284220    0.4960871831615711 O
   0.1643521415419664    0.5012185294793720    0.7518657428930547 O
   0.4950174188062791   -0.0081009632701334    0.7510679649129853 O
   0.5074202755903239    0.2492377037254868    0.2549863133196294 O
   0.5090674386246941    0.2501282766656666    0.4951317238013060 O
   0.4959923154761049    0.2545637261369449    0.7532464614817126 O
   0.5148940901755172    0.5002884648456900   -0.0039403440003931 O
   0.5018840429452945    0.5007899451459614    0.2557743593046083 O
   0.4906829868205585    0.4996522169280892    0.4981139341853587 O
   0.6695865215184611    0.3746015648356689    0.2533039257233745 O
   0.4898204031799282    0.2719577525541903   -0.0007998120049423 O
   0.1628802674339006    0.5024687676416384    0.4977303262402150 O
   0.4974100359614905    0.5040217685184324    0.7499934810666726 O
   0.1529085784628413    0.5097689691512743   -0.0014146329148659 O
   0.6639144532535655    0.3744611195746474    0.7482834196318426 O
   0.6678442026207403    0.6270479346124274    0.0052142827993755 O
   0.6660340122462228    0.6164966288863826    0.2504877696044442 O
   0.6710328741016551    0.6275495120751504    0.5009210601034143 O
   0.1651098272632846    0.5020453319278773    0.2502224559522810 O
   0.6673801952078952    0.8694312602178338   -0.0017253041430672 O
   0.6667873834887457    0.8710350048330328    0.4963244093469700 O
   0.6629873726972150    0.8719156726772860    0.7536022647654848 O
   0.6773789751638923    0.6294300761055196    0.7432942059567200 O
   0.1684142360093642    0.0000967826524676    0.2493945729977191 O
   0.1632643924360540    0.0107543585042356    0.4925683746273365 O
   0.1726488279597360    0.0054636393844569    0.7474109775102848 O
   0.1717650962052877    0.2399766729220558    0.0054641837804226 O
   0.1603763257575112    0.2479837621412575    0.2501107035463961 O
   0.1568235523462490    0.2466560311827561    0.4934947192859578 O
   0.1682933192677172    0.2412832268150468    0.7522862123214094 O
   0.1850840991637621   -0.0023368214297122    0.0071192360840370 O
   0.1746833217848395    0.1192437002486181    0.0066587658496592 Zn
   0.8371888761724455    0.7497176089810358    0.6293006743684675 Zn
   0.5044320481891267    0.3749796943666745    0.4977938098772637 Zn
   0.5005772199612566    0.6256341191743773    0.4999109037316872 Zn
   0.4942912173933176    0.6282639451078443    0.7518335823272443 Zn
   0.4949733040399459    0.2529025388971246    0.1274127463547348 Zn
   0.4975543721033894    0.0004097107369528    0.6228903892939909 Zn
   0.8418641401980356    0.3732317419471259    0.7500673125195905 Zn
   0.1598731725498310    0.7573698551728218    0.8756764431060551 Zn
   0.1664167262891965    0.7473222855434216    0.3740983178564122 Zn
   0.1683640631808254    0.7524693718263878    0.1250953716032606 Zn
   0.1695220698728896    0.4989608377752186    0.1242066407596014 Zn
   0.1664438975558183    0.2493917945660273    0.6218646252339135 Zn
   0.8335248363155316    0.8790022045015434    0.7500114549385389 Zn
   0.0100511739145880    0.1210865751596396    0.8808943263483153 Zn
   0.5014106363770238   -0.0001998195654332    0.3742770145859053 Zn
   0.0031779810726218    0.3732118882678804    0.1269519340454264 Zn
   0.3303372468721903    0.3740374011479480    0.6243816985671392 Zn
  -0.0007340981372936    0.6280027170413496    0.1245871993379009 Zn
   0.6629863578539089    0.8751186238783332    0.1263814716965125 Zn
   0.0079579427315002   -0.0004062145294911    0.7510815116330342 Zn
   0.6701506764080432    0.6269142756013174    0.3750185503776199 Zn
   0.6661529153851709    0.3736903907171272    0.8747020564088419 Zn
   0.6629345746474157    0.1229740400297718    0.6249671737729375 Zn
   0.6737525536824158    0.1232473559599789    0.3736603096080645 Zn
  -0.0026392722538561    0.5030611702678048    0.0026976645293103 Zn
   0.0035225120644157    0.4983517556252821    0.4966255859286713 Zn
   0.3320606017243349    0.6268466096772038    0.1205846739321860 Zn
   0.3325620684001450    0.5035250780017777    0.2579390683814906 Zn
   0.3287682482255548    0.5050965756252382    0.4995613870217925 Zn
   0.3308574125418023    0.5023160723604027    0.7488657565282897 Zn
  -0.0039791129437761    0.8734929456639187    0.3731005097468340 Zn
   0.3312219653737581    0.7475121400731831    0.4997656612720968 Zn
   0.6691393817314919   -0.0021321315285861    0.4973639925943801 Zn
   0.6587426851318307   -0.0018021392791427    0.7522087574817676 Zn
   0.8349622377473653    0.6272152767184868    0.2494824586829453 Zn
