Mg32 Zn32 Co32 Cu32 Ni32 Ge32 O192
1.0
  13.1783658359093110   -0.0123815494759439    0.0206790385395144
  -0.0165071503902055   17.5331748544850932    0.0010299083469499
   0.0275471716503819    0.0010300356319068   17.5665010730939279
Co Cu Ge Mg Ni O Zn
32 32 32 32 32 192 32
direct
   0.6842195885432871    0.8618566467417804    0.8869326088436643 Co
  -0.0112313058989297    0.8763478201848401    0.8704404591714963 Co
  -0.0029200704482702    0.8653251437701289    0.6201449766137574 Co
   0.0020209694702998    0.8731127989478530    0.3777109315620266 Co
   0.6681947725319328    0.7508784797524711    0.2503565248578848 Co
  -0.0032521548880824    0.6320246584377683    0.8795851044319372 Co
   0.0027977939935940    0.3775099350179176    0.3695671987196641 Co
   0.1596562037951210    0.5098499407924192    0.3519159649788978 Co
   0.1674713277336862    0.3713468567288628    0.5061199072865878 Co
   0.1630488410364807    0.6227816701660904    0.4876275136703911 Co
  -0.0143652714599331    0.1216392127847291    0.3858506631223615 Co
   0.6770593010168888    0.2558264899764021    0.0046641778388999 Co
   0.1734467944449996    0.8815696632860773    0.2536795156721891 Co
   0.8378488378013276    0.4969552936941211    0.1262998700906981 Co
   0.8266245103748538    0.0045536510160089    0.8593410865766246 Co
   0.5040934226234316    0.8752697576648347    0.2460334710358678 Co
   0.5062935461343112    0.8743342236471190    0.5090838572098684 Co
   0.5049383418096303    0.7545380948303307    0.1195706225397706 Co
   0.8318694818164700    0.1430477871249944    0.5085158267110744 Co
   0.4562675176992491    0.2421851028248282    0.3736779898552693 Co
   0.8435307393417691    0.8635577262799220    0.7398961282071503 Co
   0.1546211403080513   -0.0045353250645832    0.8607951724194161 Co
   0.1392244587073054    0.2557582800976936    0.8729148191193596 Co
   0.8501417670873880    0.7336879354745911    0.6160433046002471 Co
   0.3233498459904511    0.5003589188554908    0.7603292100304129 Co
   0.1403784267896597    0.3768269271355674    0.2351573885874420 Co
   0.0061437298098640    0.5029510555730178    0.7453036291768862 Co
   0.3418987710047577    0.4915121916023434    0.0014142736948840 Co
   0.3405256568932037   -0.0046099514143403    0.5037514630607198 Co
   0.0095356753476320    0.4921735783695361    0.4949386035062087 Co
   0.6608269238770325    0.8819771469492655    0.1277596138856882 Co
   0.3148506123506065    0.2610371185535709    0.7591442378236360 Co
   0.3090163255312062   -0.0157730382096956   -0.0038188633678186 Cu
   0.6823868906459283    0.0869979515204500    0.0816165043710936 Cu
   0.2342241361898047    0.6254234214700065    0.0508171799181444 Cu
   0.0141359376262347    0.1276540554149272    0.6231014406234354 Cu
   0.0029012407536073    0.8092376886151341    0.1969109639811564 Cu
   0.1510475789787465    0.8886895221150797   -0.0035116919071387 Cu
   0.1498977401198734    0.9296487203770439    0.5522830972687973 Cu
   0.1583716785691813    0.4965387135285537    0.6251239708452097 Cu
   0.0014480039940241    0.3625232942397569    0.1335560443644654 Cu
   0.5557685031309963    0.0965949593378318    0.2251796001499843 Cu
   0.8243900893466438    0.1327718826371202   -0.0072527847545331 Cu
   0.4769176087234940    0.3052528071456521    0.0645322071756433 Cu
   0.4319717494002015    0.3768040759422785    0.4518955978796547 Cu
   0.8392715001735117    0.2469642010497993    0.8873290054999091 Cu
   0.6395045858149687    0.3559336868583417    0.1054968288729278 Cu
   0.8410460711880600    0.7951514368072590    0.9124386546216364 Cu
  -0.0043414899707976    0.2682772712758488    0.7367101575480528 Cu
   0.4911882458042219    0.2411665308745456    0.6289632230983202 Cu
   0.0137381024320774    0.3888234022277280    0.6159766972472114 Cu
   0.2238461732824980    0.2443878912033537    0.1840730563871740 Cu
   0.3423372792578294    0.6726004247310311    0.1583348837703494 Cu
   0.6859853444107030   -0.0081130236546528   -0.0221069118254232 Cu
   0.2231073084846460    0.0218859907443851    0.6585647433455739 Cu
   0.1700842191133536   -0.0233654830090908    0.1164902990670830 Cu
   0.5200257211799257   -0.0006905618604730    0.1181564625540127 Cu
   0.7091795057207000    0.6507837543707871    0.6552613297690769 Cu
   0.8178574399447328    0.8948156916112809    0.0162864726474260 Cu
   0.8400833153501837    0.8639459630208454    0.2560209806904995 Cu
  -0.0036157655655231    0.9128223802137452    0.0950514838104823 Cu
   0.3357710575724702    0.0440749783345540    0.7740744067953653 Cu
   0.5699304451204656    0.1942868149617975    0.1268420501786287 Cu
   0.4177383016788325    0.1981105018269463    0.2403416749493816 Cu
   0.5146557624246336    0.5059304028403169    0.8982078378925669 Ge
  -0.0108149472026831    0.2446631157018856    0.2547367071734275 Ge
   0.5147971014554042   -0.0086057129584031    0.3826405934588759 Ge
   0.5293978895698428   -0.0226915666907638    0.8575634132854997 Ge
  -0.0039833899244008   -0.0076759681017601    0.7402676979796687 Ge
   0.4857527284016658    0.5046219117055624    0.6414623855456547 Ge
   0.8224385371688478    0.1250360883594575    0.2531701076584126 Ge
   0.1502606980500678    0.0008363467997525    0.3785939400103398 Ge
   0.6652510617535192    0.6219049192490073    0.1273146390469147 Ge
   0.5036926161036037    0.2608937637549665    0.8854069292069052 Ge
   0.6852003291750824    0.8522667598003253    0.6332830352530233 Ge
  -0.0053722545629819    0.5051333456859483    0.0017090229734233 Ge
   0.2992441792709129    0.4936094497033998    0.4759209393957676 Ge
   0.6511646783863997    0.5120465161943378    0.5085184000889059 Ge
   0.3047205063169022    0.6198134128539305    0.8818730695646105 Ge
   0.3387088697081500    0.3731210748205861    0.6328615066966852 Ge
   0.2971454625987058    0.3666658308046967    0.3598736609093869 Ge
   0.6836137238991328   -0.0158773466109951    0.5204189257023044 Ge
   0.2956445934976039    0.1363909085551165    0.8664589513166124 Ge
   0.3633983257286981    0.1174236288614653    0.3825204042323134 Ge
   0.6379092359036003    0.2575659612527436    0.4956409846181471 Ge
   0.3391370374523956    0.1064702684676011    0.1097081148396246 Ge
   0.3378297326566994    0.8632986437861222    0.6217933606272760 Ge
  -0.0080694195913212    0.6308298670068428    0.1225115611379450 Ge
   0.8361953437008210    0.5014463201116686    0.3710346753568262 Ge
   0.3378313257889768    0.8801105411638688    0.8690410050827784 Ge
   0.1479846462694203    0.3711894154761486    0.0031541532146782 Ge
   0.4933680837061796    0.6277707946957064    0.4842715717877558 Ge
   0.0241840269165126    0.7471172709664574    0.4938621958128415 Ge
   0.1781175438622965    0.1108020719142005    0.2273456402858774 Ge
   0.5046507161494775    0.1429019075548380    0.7635823567624319 Ge
   0.5049997815621092    0.3792910324334133    0.2556980870896080 Ge
   0.1516046147405473    0.5012611377111008    0.8793809914868570 Mg
   0.1676615148804760    0.7543765969332669    0.3668740063033374 Mg
   0.1664942048979679    0.7558675284500108    0.8812459748465131 Mg
   0.3253695900022435    0.6344819515129443    0.3649457806030717 Mg
   0.3488417235506468    0.8829500908664255    0.1291941933206510 Mg
  -0.0100377491345916    0.1297331295798346    0.8683076559389603 Mg
   0.4928178308237758    0.5078751663824014    0.3669440081946475 Mg
   0.3343227213215225    0.8782287085399409    0.3836359714878004 Mg
   0.4983598111236966    0.7333194505306019    0.6267146452372412 Mg
   0.6712115757295993    0.1257940884302269    0.3868512975083232 Mg
   0.5062845809243594    0.7419784219773460    0.8770664550516678 Mg
  -0.0183595044981363    0.0040227909789776   -0.0219152066072112 Mg
   0.5157260830193602    0.8771442859754078   -0.0001376420484518 Mg
   0.6746378027654288   -0.0146399553992118    0.2605458691778621 Mg
   0.3283550074659882    0.7394846158973594    0.7488752582843895 Mg
   0.5030076417920935    0.6238063544868711    0.7611126666590222 Mg
   0.1593705228766919    0.6366208270922603    0.2414674513823633 Mg
   0.6708091301945613    0.7447612604842363    0.0017995265859952 Mg
   0.5093152232647972    0.8508577689740180    0.7427254532816692 Mg
   0.4961689542636536    0.6299421109453407    0.0063309678709783 Mg
   0.8429170062940227    0.3700918229320773    0.0123735454871188 Mg
   0.6683206449529330    0.7432109323768205    0.4951714661260300 Mg
   0.5060825101141194    0.1191184805975566    0.5056733184494268 Mg
   0.8347072573158109    0.3802877181936549    0.4996524750731609 Mg
   0.8456582629583584    0.3840452355171035    0.7477240294994942 Mg
   0.3558340853806087   -0.0002191392344458    0.2521746634368870 Mg
   0.8397776849235788    0.6275408103466249    0.2482176846676502 Mg
  -0.0009125773687659    0.7647946414876100    0.0003749936338866 Mg
   0.8350596740007323    0.8590228751962047    0.4980428311519872 Mg
   0.1566549772827097    0.1069019918176538    0.0013276185582426 Mg
   0.1561661988669100    0.3821966244648227    0.7483788603863586 Mg
   0.6740539623635575    0.4957669944618568    0.0119025414368191 Mg
   0.0051847003958631    0.6288453294645122    0.3652953188480715 Ni
  -0.0087913230497953    0.3707600301258256    0.8765376999151053 Ni
   0.1451213402313202    0.1394625658559806    0.7356242076861708 Ni
   0.6698159726972236    0.4994261939436908    0.2475806102195643 Ni
   0.6642051001969592    0.2543245849362685    0.2635388901106497 Ni
   0.3183493825962337    0.3702360920926829    0.1294862743803131 Ni
   0.3297654608662354    0.7490343247894450    0.4978457546970956 Ni
  -0.0173589174620553   -0.0017926158144003    0.2551786975221992 Ni
   0.6766753178464110    0.6198334613245404    0.8765035678283858 Ni
   0.3023832253018550    0.2488080875000336   -0.0000928322939346 Ni
  -0.0021647601307496    0.2368622101981598    0.0067287587564190 Ni
   0.6598406564782151    0.1410726773957297    0.6276738590627593 Ni
   0.6777314326406698    0.1338193729696789    0.8688326170260202 Ni
   0.6700258725518373    0.6260835922552311    0.3701427905910055 Ni
   0.6682913342492344    0.3804688285553242    0.3803703584855538 Ni
   0.3377299097408119    0.1394255104174095    0.6268179499098747 Ni
   0.6511886581208067    0.3760185806780211    0.6216815867095801 Ni
   0.1640931836202215    0.6212216983443254    0.7516677634864245 Ni
   0.1723112251032341    0.8704168486591136    0.7406344519022339 Ni
   0.1587351891429639    0.2583900796584004    0.6243529387846359 Ni
   0.1702511575097099    0.7408810601314152    0.6262089258619001 Ni
   0.1516906808364125    0.2329148780136079    0.3746026078755689 Ni
   0.8473428430917143    0.6195438597441745    0.7562712000785495 Ni
   0.8478259795167578    0.6219643699348285    0.4925182486883988 Ni
   0.8248721099122757   -0.0015873659943519    0.1359992601821162 Ni
   0.8275076859119701   -0.0029409294253727    0.3848175326427390 Ni
  -0.0170300164175432    0.1193559728661000    0.1235347221119061 Ni
   0.8282312000682873    0.2461892378149861    0.1307022322913047 Ni
   0.0040761160204657    0.2589886481185062    0.5007697126199497 Ni
   0.5023355198286171    0.1161009803096651   -0.0175111281036767 Ni
   0.8406521636783828    0.4990273413747705    0.8738980766281249 Ni
   0.8422408793543875    0.2690914427037859    0.6162143348803766 Ni
   0.2968172330249996    0.2625151533943476    0.3737045471581855 O
   0.3290230734673650    0.5195579413373180    0.3734306929701126 O
   0.3304554384411479    0.4860678915885580    0.1202235691103050 O
   0.3431511104453196    0.4943140851323972    0.6378511873710873 O
   0.6778428889020370    0.2541736718976082    0.3890616509858899 O
   0.6799228555549880    0.2566844142232190    0.1484427901205847 O
   0.6627458814200899    0.0180127140259978    0.8433553313832601 O
   0.6883146724157817    0.0214489346257196    0.6293642005505022 O
   0.0159006962127231    0.7420719724596937    0.6023518690206445 O
   0.0148199705963363    0.7516583121635012    0.8814059124795421 O
   0.6611814738878936   -0.0025856164114324    0.3765227938156871 O
   0.6716555770666015   -0.0013232478637529    0.1472343461168565 O
   0.3641391529550304    0.0021522690270260    0.3792390337163564 O
   0.2918485404161478    0.2474418036674681    0.8784112050116298 O
   0.3061576868098092    0.5101799995894362    0.8813356218023141 O
   0.3446316604249482    0.2651743314014399    0.6429467434555817 O
   0.3452614619344359   -0.0279288632855865    0.6156365835760682 O
   0.3298100882097318    0.7412836630845610    0.6198389659777614 O
   0.3838259085670790   -0.0183600215251140    0.8564383451136786 O
   0.3102697072060107    0.2136545585637634    0.1065168474767898 O
   0.3422392750274632    0.7672198475306166    0.1061816337588510 O
   0.3355322256584083    0.7554059716959042    0.3782442101018259 O
   0.3642315297091017   -0.0006269815411890    0.1327045229398519 O
   0.3287431148280117    0.7269858178868516    0.8822899062278602 O
   0.1299184770154695    0.2590335829694704    0.2621004285372559 O
  -0.0168985310522968    0.7385237106270847    0.1156164621217957 O
   0.8327865661432311   -0.0208380166265770    0.5039604961653970 O
   0.8483265298393341   -0.0130925556430608    0.7414353679664356 O
   0.8428026140875181    0.2499136995894742    0.0153331807121706 O
   0.8345147794077269    0.2367912114439823    0.2639070846578357 O
   0.8488895481025439    0.2617115049895281    0.5003470422274204 O
   0.8398436393993591    0.2704296045319473    0.7320501214193290 O
   0.8499953215674447    0.4947858376023921    0.0040385640630954 O
   0.8322378758426413    0.5016785652451793    0.2562880013002933 O
   0.8574090738203783    0.5034899844166651    0.4794684849303914 O
   0.8314058590996134    0.5010152196692658    0.7492782418905576 O
   0.8338468360983153    0.7410974462452919    0.0059311753474849 O
   0.8181895206456496    0.7393338954419795    0.2595287523145899 O
   0.8249222043601921    0.7387583661006555    0.4875787153306101 O
   0.8589696087754570    0.7376777630027439    0.7376314435831379 O
  -0.0242485138087708    0.0089456951832557    0.1434400246812385 O
   0.0092219108167708   -0.0062382880537642    0.3858478105255442 O
  -0.0186298860008444   -0.0165352717254813    0.6296590059610208 O
  -0.0111869661760135    0.0034136970521692    0.8549174260045587 O
   0.6389139001357922    0.2594408274439893    0.6061512872527789 O
  -0.0166897017621149    0.2333628807186273    0.1476191548439210 O
  -0.0074030062372256    0.2429666422491465    0.3686505134785977 O
   0.0035303437251171    0.2801585469010249    0.6132399313616914 O
  -0.0075184881738923    0.2474943909913870    0.8899016501588294 O
  -0.0018983228799541    0.5172334476838520    0.1144874589694138 O
  -0.0148556767711059    0.5039807132569870    0.3594182864280583 O
   0.0003688321088673    0.5013343799438221    0.6154591524585660 O
  -0.0035223076752011    0.5090344127208578    0.8939660577270595 O
   0.0106413836115186    0.7510960086391387    0.3844987113332920 O
   0.6426415308349321    0.2711966266752747    0.8789395358155959 O
   0.4798151531339583    0.1155292352114630    0.0957368466524783 O
   0.6859583947135355    0.5079485431284061    0.3657865548613113 O
   0.4814489281107425    0.3945687417701323    0.6380110342196229 O
   0.4671404856971443    0.3617198042832955    0.8759218952083381 O
   0.5235595509202523    0.6190127615116049    0.1236915111967238 O
   0.4966091199679952    0.6250887460739449    0.3755891439135433 O
   0.4748600464687939    0.6122451084137612    0.6269833240632030 O
   0.5175129830446857    0.6191648686149456    0.8836612382815422 O
   0.5048795741416571    0.8750429562994926    0.1194163107750875 O
   0.4966028465138182    0.8816844928131847    0.3857439128169966 O
   0.4804699590895048    0.8496650295971157    0.6234841159620587 O
   0.5352301613903387    0.8700416707353814    0.8665664516235374 O
   0.8289375855335863    0.1240525315837811    0.1481176219027216 O
   0.5161633116867085    0.3955711119020238    0.3667299524264399 O
   0.8292848974519643    0.1165493127114730    0.3926399771584865 O
   0.8321309892916690    0.1303975414895580    0.8478824518385113 O
   0.8521840437604321    0.3766497195117584    0.1294881212040984 O
   0.8266201174118504    0.3924859492168738    0.3763434382178234 O
   0.8082836379768134    0.3881899416059869    0.6190941082315417 O
   0.8378104758647885    0.3818428405266838    0.8688271885865934 O
   0.8455624675405706    0.6176837421913998    0.1317559553995311 O
   0.8358205343775341    0.6128716511240362    0.3697942608177895 O
   0.8455714680270234    0.6140735189164662    0.6107268240121809 O
   0.8334090191215044    0.6137867581935674    0.8739548246815722 O
   0.8118405422016058    0.8786982446869654    0.1465811310397414 O
   0.8370897563541784    0.8761340123108543    0.3750890870276040 O
   0.8162961527406821    0.1477418302459548    0.6271757396587919 O
   0.6834186434127281    0.5148921853381193    0.1285700422503813 O
   0.4922450881367992    0.3788406667524647    0.1468396441776329 O
   0.5024403310395624    0.1146413806219448    0.6165632675931965 O
   0.6253892587961178    0.4958401485170193    0.6247010869412661 O
   0.6700804960042441    0.5003176969451718    0.8904444236821151 O
   0.6730673899474054    0.7299246595531569    0.1280307124456868 O
   0.6539226650682373    0.7428979183397220    0.3741548968211505 O
   0.6548940657147189    0.7481694669413549    0.6117177751141910 O
   0.6604618446761511    0.7365824801851504    0.8833703397860670 O
   0.1785523690315319    0.0850398851102751    0.1189391347447169 O
   0.1403693397005584    0.1115165163579553    0.3871666268785503 O
   0.1799432777439875    0.1410066778122427    0.6186065257674508 O
   0.1478205917885958    0.1295301107779263    0.8760825275214529 O
   0.1499415503916965    0.3796694333430595    0.1120458706607271 O
   0.5208210016625401    0.1482244479435585    0.8735609002784861 O
   0.1598505329287813    0.3910029050494777    0.3502553644774229 O
   0.1553654324281362    0.3799200592036815    0.8877477419653195 O
   0.1360544406564236    0.6428058501167676    0.1262216847974864 O
   0.1650898777317212    0.6325652907082168    0.3586018417956728 O
   0.1715057321417223    0.6213178729037043    0.6294443569704947 O
   0.1661977398427630    0.6277247287108488    0.8728649426671444 O
   0.1961260763394510    0.8761047834731202    0.1427437253717340 O
   0.1774171665554888    0.8913215959012309    0.3722975850848415 O
   0.1873663372330206    0.8564417895727419    0.6252578612800072 O
   0.1948100842032064    0.8764935327774968    0.8558971686664767 O
   0.8265613369286091    0.0177882753103946    0.2666754090709963 O
   0.5142322589329245    0.1034645966249382    0.3913177449406657 O
   0.1950351712841931    0.3774762458423543    0.6304528264237016 O
   0.8297136700925866    0.0194662252205070   -0.0234891992541251 O
   0.8258584570893385    0.8825323556139200    0.8506659802678778 O
   0.4968371585619746    0.7324116924502094    0.5021569861398394 O
   0.2927895187879963    0.3724842841510235    0.0042170631468758 O
   0.3520762622842900    0.3861164799871946    0.2574630043610792 O
   0.3324030368916974    0.3545013742478986    0.5264670753805266 O
   0.4843239813257768    0.7370870250341467    0.7543712044833722 O
   0.3436596469484360    0.6131841955696402   -0.0162779090643960 O
   0.3428019402561032    0.6149243868423321    0.2500540835878601 O
   0.3468778891859242    0.6309511188456584    0.4896423733994756 O
   0.2930544572082074    0.1478381856027251    0.7465427784564844 O
   0.3317315705081313    0.6204791353574541    0.7752526594340478 O
   0.3498712354698015    0.8840545276895839    0.2565085429049729 O
   0.3475892555239168    0.8641599711644973    0.5094219259317677 O
   0.3343017044285911    0.8548253609813959    0.7283878288186768 O
   0.6557356154292530    0.1435634482776169   -0.0129159717462984 O
   0.6851429218810595    0.1350322496557460    0.2731464739760518 O
   0.6674527013468430    0.1507907817047290    0.5033433806516143 O
   0.6479467926759758    0.1609094232887172    0.7476314833060644 O
   0.3617724116705338    0.8817116033508837   -0.0213394565920316 O
   0.3473512507316826    0.1251667482673662    0.4942363404729445 O
   0.3310815284573903    0.1124294257421186    0.2204919366497248 O
   0.3146922556442897    0.0968567512993807    0.0056852350931123 O
   0.8321840135432497    0.8478175010289207    0.6177364135418554 O
   0.0046003935223911    0.1203844599225397    0.0055497821200473 O
  -0.0330619807699292    0.1286631318226197    0.2651727896391553 O
  -0.0101233625373302    0.1209788935853612    0.5104428736755541 O
  -0.0029995133768233    0.1033849631233191    0.7366654541360681 O
   0.0002774388513284    0.3861398881593545   -0.0057143427550339 O
  -0.0254727967934967    0.3529694885695148    0.2604033020780022 O
   0.0043715411523149    0.3764869577790875    0.4802075994252905 O
   0.0017077804603784    0.3924304182882398    0.7646862368142147 O
  -0.0107716465823743    0.6169269265983739    0.0090059621537570 O
  -0.0018932925064351    0.6223122135258264    0.2346001634191088 O
   0.0022919635912811    0.6396904114798581    0.4855695696775695 O
   0.0046773364420894    0.6193763623279696    0.7496963545646388 O
  -0.0323242605327161    0.8822383775511724   -0.0100239072893582 O
   0.0187537330401693    0.8885927047342130    0.2654298162618241 O
  -0.0092750839110228    0.8502903804596922    0.4969270123706098 O
   0.0067407201805700    0.8799645588437209    0.7445275834686882 O
   0.6913780651256407    0.3805881171833730    0.0034022718788399 O
   0.6609028181164180    0.3784709256623310    0.2627530647631511 O
   0.3241198457884759    0.3805184563401546    0.7469008433003060 O
   0.6547283537236128    0.3810682517350228    0.7451812146329693 O
   0.1873535897015151    0.7535804883373921    0.2516777423680207 O
   0.1661492694142711    0.7395546761486078    0.4893477822358233 O
   0.1662181305519742    0.7444372929712157    0.7502371044083187 O
   0.5356560727965048   -0.0033150878226496   -0.0380932143244770 O
   0.5115530051475708   -0.0044838639665629    0.2739651422876858 O
   0.4958159604512624   -0.0073896663185868    0.4918705113557751 O
   0.5294179319974783   -0.0346807955471531    0.7482488643333899 O
   0.4572178186980835    0.2378509296082900   -0.0191986265951907 O
   0.5110759531884403    0.2739692508853538    0.2701237487735202 O
   0.5017084862200828    0.2389746878870058    0.4827415528050853 O
   0.4722468722998149    0.2527682228109976    0.7796869306933971 O
   0.5149558530032907    0.5106618829465915    0.0077679115447539 O
   0.5112156758563656    0.4921653022580957    0.2489503542353264 O
   0.6711430842559907    0.3595156263871811    0.4977328587972489 O
   0.4927321250857081    0.5082664630302393    0.7459583376928004 O
   0.5072513388718173    0.7465543843542947   -0.0037206132201576 O
   0.4978054482407427    0.7502152731588375    0.2495398044054456 O
   0.1604284124067522    0.7778693045343554   -0.0005874945945546 O
   0.1647876171334274    0.5008246070911031    0.7627841769610284 O
   0.5042711840374693    0.5215058774793723    0.4912861714154300 O
   0.1601706593046006    0.5080715970462238    0.2339422971937607 O
   0.1571166819715220    0.5084749087365116    0.4691639790006264 O
   0.6778713548254519    0.6212569050178600    0.0174383329528113 O
   0.6394810093251508    0.6259492732376040    0.4892404660313495 O
   0.6637329096469062    0.6178118131380439    0.7589049526222558 O
   0.6682762400344658    0.8606370975241714    0.0110897940627684 O
   0.6521422288878704    0.8700272557745129    0.2574748724997932 O
   0.6700431801625464    0.8640927175670888    0.4891019401409032 O
   0.6734241780304001    0.8421937692208251    0.7405703045580293 O
   0.6648111239687930    0.6204553849816522    0.2392084968938049 O
   0.1929016831073518    0.0063209037238028    0.2766788644396195 O
   0.1867388898255869    0.0056927386202428    0.4814422705874715 O
   0.1389186656236165   -0.0081531606549216    0.7470755351012776 O
   0.1460838161713451    0.2647209184659072   -0.0028670524289893 O
   0.1590887243693009    0.2467976028170703    0.4954514817629639 O
   0.1455787282830121    0.2605633390648347    0.7467422387015407 O
   0.1371868653550952   -0.0049780518281405   -0.0291490702150362 O
   0.1395673706754954    0.4887530003548829    0.0014319783063637 O
   0.8468134091206190    0.7505668362051111    0.3700656607179555 Zn
   0.8284964244333457    0.7652138801291216    0.1221733743727994 Zn
   0.8461706133736395    0.4991334854076228    0.6265015829255622 Zn
   0.4985589972697577    0.3794861405458604    0.7612716596095839 Zn
   0.8340828237294994    0.2512616012900784    0.3858006361466832 Zn
   0.4992653828504502    0.6306037931865438    0.2436959587742709 Zn
   0.8523301208799112    0.1543674945729549    0.7390156763214428 Zn
   0.4998725287510150    0.7570227164285238    0.3701456654525341 Zn
   0.8224001331284736    0.3801192456182342    0.2427587356998001 Zn
   0.4870577384491064    0.4953042454829318    0.1229489518303249 Zn
   0.8329492261106836    0.6281471580611907   -0.0087899577535840 Zn
   0.1562826786387742    0.1226413405085399    0.5057896785449080 Zn
   0.4725571622977733    0.0148550169157366    0.6587716089314128 Zn
   0.8411145605053997    0.0288258635476819    0.6286904992333902 Zn
   0.7189268191050081    0.7390425794204560    0.7814683629806761 Zn
   0.3236404090935617    0.5022790094646651    0.2371586824765524 Zn
   0.6743461657214007    0.5009570046236789    0.7438708638302562 Zn
   0.6870462134428434    0.2700629223534344    0.7588083714143471 Zn
   0.6825221875427843   -0.0133003465930565    0.7357340126203616 Zn
   0.3178936195873403    0.3752642493633997    0.8861294442715822 Zn
   0.3373980841359989    0.7699636181313108    0.2584494144908160 Zn
   0.3201694076066521    0.6156177077499765    0.6094881449751466 Zn
   0.3311865765798399    0.7652165303332399   -0.0056016144432634 Zn
   0.3198021817337021    0.2425754545365372    0.5026217226221681 Zn
   0.0065402636353103    0.7450395730103592    0.7656224036398122 Zn
   0.0004693590882960    0.5040967595559446    0.2420108963034273 Zn
   0.6887984110143195    0.3804191007888936    0.8891612052793568 Zn
  -0.0129717682454303    0.0038122221344734    0.5109162160142606 Zn
   0.6773453677776934    0.8621381895813719    0.3727474050288321 Zn
   0.1739138766416552    0.4980900332369005    0.1181451522916789 Zn
   0.0077249704658996    0.6211364410439703    0.6269658368306813 Zn
   0.1713722942726207    0.7663540297217351    0.1174754875398729 Zn
