In48 Ag48 Bi48 Te96 Pb48 Se96
1.0
  18.6770034984678794    0.0014789901746776   -0.0014283838770868
   0.0019727443157385   24.9514124036922418   -0.0029945447819909
  -0.0019055864175825   -0.0029942574040066   24.9534609107093779
Ag Bi In Pb Se Te
48 48 48 48 96 96
direct
   0.6995140967973401    0.1241527302834793    0.1479345954661202 Ag
   0.3128323985399774    0.3627396290741584    0.3761810307598262 Ag
   0.4577456730439930    0.3604187745436426    0.7798117549116251 Ag
   0.3671570419344948    0.6209704198316277    0.1464979687784472 Ag
   0.6318173674164979    0.2237009875259074    0.4709871579022850 Ag
   0.1873577799573815    0.2326687080641961    0.6261232206286300 Ag
   0.3026624446954782    0.6415786088716977    0.6247971652052873 Ag
   0.6659513270007110    0.4973800264095746    0.2372068656969761 Ag
   0.6938722865819897    0.5121350920179960    0.7697182466236483 Ag
   0.6714156204072250    0.7196409986072163    0.2175528589878525 Ag
   0.8682086872027592    0.6222661289266644    0.5248575887555244 Ag
   0.8425185253725030    0.6387739620055375    0.0235941916760565 Ag
   0.1647336319675936    0.1493523262491812    0.4885264419308711 Ag
   0.3184315994086622    0.7293697208841452    0.7188466116468442 Ag
   0.8155735599248529    0.3554017297569309    0.2450163015800061 Ag
   0.1912156807210606    0.3766017258525908    0.5086261219675288 Ag
   0.1592750229637178    0.3907629663782623    0.7340302452585689 Ag
   0.6530048029931905    0.3621322293678471    0.3788047047945357 Ag
   0.8230112548721039    0.1365246105285746    0.2301677627420547 Ag
   0.0920608497118956    0.8938689432952578    0.0242424971260372 Ag
   0.1354028220887830    0.8718643690462482    0.2361751008707358 Ag
   0.1390170471150872    0.8854269529310399    0.5000646000828589 Ag
   0.1457505445340403    0.8531115183063829    0.7263517801840700 Ag
   0.0017824404106053    0.3589379293609972    0.3930722166506246 Ag
   0.5012427192798817    0.1405536184747514    0.7512202392946223 Ag
   0.5163978470096965    0.4073771782406398    0.0323417571723387 Ag
   0.6334709502330530    0.1439957476038845    0.6016343247499815 Ag
   0.8120305571250799    0.3847889646007341   -0.0147601763976667 Ag
   0.3763449062494464    0.4023965102592171    0.0896772899443007 Ag
   0.6704399531427150    0.6188132591959599    0.1478005692282448 Ag
   0.5265720277341233    0.0260690134690759    0.8730608589629756 Ag
   0.6495628456077853    0.8751547212671654    0.6130526661912713 Ag
   0.3892860120785801    0.0883662169509945    0.8536328831986699 Ag
  -0.0414689558130195    0.4571002300742363    0.0290494190234116 Ag
   0.8788706426542349    0.0406769652414564    0.8901919894893373 Ag
   0.3341470226741869   -0.0297899099918382    0.2248456359253450 Ag
   0.0027227830093734    0.2726497515021619    0.7635381848913868 Ag
   0.2991375578477176    0.0253525718433764    0.5013590212457970 Ag
   0.8385540692055730    0.5042988077073270    0.8864432252276483 Ag
   0.0102117470730101    0.8892987271772568    0.1297160998963145 Ag
   0.0071148499091150    0.8816823836403433    0.6520612600126428 Ag
   0.0037295197544174    0.6233258887176255    0.5912199832067082 Ag
   0.5484769243484102    0.7303605165199250    0.1268347775248178 Ag
  -0.0271343089765998    0.1561509021132274    0.1711613835024647 Ag
   0.5003915254565334    0.5044414120416060    0.1016099229956968 Ag
   0.0254636688225887    0.1050922437474783    0.8770403992640917 Ag
   0.5229237943174057    0.2691188459774447    0.6288697437298317 Ag
   0.3013920555658066    0.1506221370432502    0.6454315759294342 Ag
   0.8319901817205598    0.1188124174283459    0.7561455364484042 Bi
   0.8337511044914375    0.5042831300564875    0.6156075719373270 Bi
  -0.0066269560244582    0.6230003271752155    0.1283763366883092 Bi
   0.0040564121579493    0.3760699655846893    0.1295629925980778 Bi
   0.5053551597608615    0.6248991314909331    0.5023840694174483 Bi
   0.3247898151103216    0.8777705791863931    0.6238848629024248 Bi
   0.3284523810031652    0.8693378959405341    0.8747485670624419 Bi
   0.4964238683976070    0.8724212425346657    0.7488893747346019 Bi
   0.8270924948404846    0.3795293674406746    0.4963550392476790 Bi
   0.8300283344612650    0.2593416096731745    0.8738085068857675 Bi
   0.8369550708865047    0.2533938442979701    0.6264134147625607 Bi
   0.8380853683075580    0.2570886609335630    0.3828272207709499 Bi
   0.8315392414768683    0.2511407529258228    0.1250791213119456 Bi
   0.8368748928949612    0.6205137830464212    0.7487999436123943 Bi
   0.8270678069146911    0.8721731684986684   -0.0063336167528288 Bi
   0.8326370545282730    0.8711442579118653    0.2433571003097530 Bi
   0.1670410445788736   -0.0063608547845114    0.1324000580917915 Bi
   0.5100000098602854    0.7487695390081942    0.6266565170537927 Bi
   0.5058446119949295    0.5039287195177985    0.6300906021173327 Bi
   0.3336768658429271    0.1263042498321971    0.3847250643916565 Bi
   0.1622530687104788    0.4956059021473217    0.3745090587844805 Bi
   0.1617585938353411    0.7458113061925064    0.1231734680455116 Bi
   0.1560039275434801    0.7444862970921945    0.6165918464183074 Bi
   0.8282815005151122    0.5019175831364568    0.1264264411761220 Bi
   0.4892506754892783    0.6289515179837043    0.2480415788377899 Bi
   0.0045202089872583    0.0007701224645706    0.0040657922632893 Bi
   0.6666478090667760    0.0073959147101140   -0.0064738127033236 Bi
   0.6742871561915900    0.4982559170503288    0.5012197744213882 Bi
   0.6741740855500032    0.2506588528316822    0.7526293109574697 Bi
   0.6601052912593096    0.0006265432095283    0.7576878960646134 Bi
   0.6641296226653490   -0.0038427879494120    0.2471081154742725 Bi
   0.5028810810666452    0.6217428342735424   -0.0059008350722446 Bi
   0.3338164674456830    0.7465274675963094   -0.0050669262734861 Bi
   0.3397794632087451    0.4947827614788961    0.7468983292805652 Bi
   0.3365296297734478    0.4975167434290392    0.2544420795619527 Bi
   0.3326593342661498    0.4947751973620430   -0.0004628886071659 Bi
   0.3254177206749038    0.2552955092181520    0.5057869752226726 Bi
   0.0034756210810449    0.7435971217762061    0.4980610044075764 Bi
   0.6665822259569604    0.8748722223110978    0.3733262824832808 Bi
  -0.0034271084415752    0.4971960861082356    0.4956485584891719 Bi
   0.0000322887620004    0.0025545068747402    0.7525518335564634 Bi
  -0.0012587148643770    0.0002968435032519    0.5007441413462098 Bi
   0.6665366017832817    0.7425499174063472   -0.0064062629929401 Bi
   0.6759053090522814    0.7523176467387144    0.4987951602573536 Bi
  -0.0064051891598240    0.3818886098865916    0.6277278710180030 Bi
   0.6658763406672963    0.1289176831641080    0.8768959129044966 Bi
   0.1618990318367826    0.3780595868010197    0.2560236861066130 Bi
   0.1625647742610875    0.1224761405551956    0.7514762171033668 Bi
   0.1790670960642348    0.1261922093006566   -0.0043854388326747 In
   0.3352487882010108    0.1471624402617132    0.1470843010916400 In
   0.1504363788550787    0.6241814355097367    0.7621705849403028 In
   0.0193977986794506    0.8812087814404721    0.8852696474693265 In
   0.3404539178989198    0.2427937561722548    0.2728101520251074 In
   0.6911384781716550    0.6261527992327808    0.3788950746454381 In
   0.6668542611344586    0.6161189704341652    0.6261817713062254 In
   0.0119869627112168    0.6178634148931286    0.8592337359725319 In
   0.3343487909225943    0.0105752432178526   -0.0154033558943535 In
   0.6641766346577911    0.8817165035082497    0.1177000467687930 In
   0.0175054683406476    0.7369427270510943   -0.0232408076011498 In
   0.4742094695444965    0.8788386421392267    0.5001573540574447 In
   0.5256943609129806    0.8716439211626348    0.2310413081334372 In
  -0.0157052448946681    0.2704515365454784    0.5101256446691259 In
   0.0025469232155682    0.2701699708952665    0.2718569705992330 In
   0.8608976199502276    0.7659759765085780    0.1023519462304769 In
   0.8537746616768385    0.7266491729334514    0.3720195783799431 In
   0.8516585310007029    0.7396220737411829    0.6406363399966093 In
   0.0361809656997034    0.6291886175982302    0.3604869954692209 In
  -0.0014474360945016    0.2463415119022541   -0.0124813592394926 In
   0.0030063537561220    0.3604039297146227    0.8913561386566589 In
   0.4556749486921857    0.1333615240237304    0.5414016724906262 In
  -0.0213698455804458   -0.0050603970724472    0.2327447932843451 In
   0.3463883117815362    0.2462375062539783    0.7339710799519084 In
   0.6419690103121052    0.3712698429453599    0.8562703728401094 In
   0.5215908887322220    0.4900151979660448    0.3798915795336238 In
   0.3125246130571062    0.3661720239059743    0.8838448084489340 In
   0.8354808990720450    0.8932332296745762    0.4889150126216545 In
   0.8136019437428238    0.8892312895690898    0.7505370871558220 In
   0.8263805031416699    0.6133106918716983    0.2574835592647270 In
   0.1614103601732356   -0.0150249677003162    0.3727818044900221 In
   0.1766289383784600    0.0179175278262847    0.5947934045647397 In
   0.6693493918289214    0.5040274309279136   -0.0005142591069366 In
   0.3289024541046813    0.6034345304489935    0.4058536961949180 In
   0.1839583242249712    0.2523517779209097    0.8468170557757989 In
   0.6586133206739805    0.2673311413901568    0.2538834554593455 In
   0.3469580085753281    0.8858726690993453    0.1426205055969184 In
   0.1494786751222433    0.6212483798477421    0.4963478024575196 In
   0.6916377673336193    0.1390004354594587    0.3776451293087466 In
   0.1643371463118987    0.7583174947658913    0.3796428280050786 In
   0.1694005756891217    0.7635516151627594    0.8876560114209130 In
   0.1699901708345418    0.3698753991087827   -0.0053449280858565 In
   0.3137769504958259    0.7677386539229151    0.4921940775844026 In
   0.3302178077683986    0.7455022875815720    0.2327469701109166 In
   0.4742715665556461    0.2639517621971496    0.1064046970603170 In
   0.1739345529425675    0.6355732864335907    0.2335758056645721 In
   0.3561974515655758    0.5053518094830874    0.5127489863471019 In
   0.6604000873780651    0.0057339330517777    0.5298137943805533 In
   0.3283737697654041    0.3772303656549205    0.6220993465111733 Pb
   0.6633534212944401    0.3746621225072384    0.1293453425040108 Pb
   0.6650204569846965    0.6258856599782775    0.8783853177982902 Pb
   0.6741255104706015    0.3816186852819898    0.6284014280486455 Pb
   0.0055065924722536    0.8726252573142187    0.3670329841215930 Pb
   0.3286589215412152    0.6246688719651959    0.8656818032846525 Pb
   0.3248310146360851    0.8774078076029658    0.3668218262076058 Pb
   0.6651821270498774    0.8800957060711024    0.8774615043298987 Pb
  -0.0006808645054304    0.1217919637228049    0.3739810483985322 Pb
   0.8281415753378207    0.1331048814462655   -0.0057112220624763 Pb
   0.4966821670008594    0.8756700452698428    0.0020128195472364 Pb
   0.4958284262376975    0.6251852186367333    0.7449415813701006 Pb
   0.5161581672960152    0.3771733279215054    0.5009087472687257 Pb
   0.4990537515624158    0.3780355057030293    0.2550821465131249 Pb
   0.4968730685128637    0.1180973581717594    0.2546297565867926 Pb
   0.4944138574241456    0.1336128122410327   -0.0054138480704665 Pb
   0.1619913894501746    0.6232691850159235   -0.0025990963821842 Pb
   0.1618605335053317    0.1110639294924391    0.2517442975091213 Pb
   0.6680662156063111    0.7562703117543506    0.7532389206193295 Pb
   0.6581476121395357    0.2533961308828207    0.0005220192597996 Pb
   0.3309015181291374    0.2433999933060152   -0.0015438561277824 Pb
   0.3395617802221321   -0.0015617525547570    0.7529230679292803 Pb
  -0.0078513859169826    0.7534720552005121    0.2434188113165216 Pb
  -0.0137516672413117    0.4964166776241561    0.7579806365353852 Pb
  -0.0091642475007962    0.5005414151841518    0.2454507886794639 Pb
   0.0040499367370884    0.1335495574372661    0.6381113192540999 Pb
   0.8466129685236436    0.1298267130779822    0.5042594826528215 Pb
   0.8369253665242872    0.3787007167805012    0.7473666471797151 Pb
  -0.0019680901882739    0.7482732867401597    0.7441038529509096 Pb
   0.1685907986910713    0.2471370056120236    0.1262025755873537 Pb
   0.1687007571380753   -0.0013390815865971    0.8742855317688962 Pb
   0.8392152157656065    0.7453723665488802    0.8753969953193155 Pb
   0.8202888344011324    0.4858935337686978    0.3698902077935687 Pb
   0.8461011645824857    0.0079368279434762    0.3713927199626987 Pb
   0.8361040180100828   -0.0090826983022830    0.1241619631784330 Pb
   0.4933723958657168    0.7430186295032193    0.8684500052793888 Pb
   0.4985392821343357    0.7458461299545883    0.3685079543652117 Pb
   0.5028436338973487    0.4985067070844927    0.8656429535010315 Pb
   0.8329251652264544   -0.0102692102270106    0.6275992697358520 Pb
   0.5013525502432392    0.2579600369656628    0.3845228828404280 Pb
   0.5054099119707216    0.0083994936341684    0.6417492422156453 Pb
   0.4986450021628009    0.0023170351858804    0.3820140258418034 Pb
   0.4883929656683781    0.0039496959057995    0.1182055378623349 Pb
   0.1430849844112086    0.4857881089597369    0.8729612070922500 Pb
   0.1789679745952954    0.5087269059699726    0.6215589586829451 Pb
   0.1661713934892213    0.5029857339738952    0.1236476139778542 Pb
   0.4904018076004037    0.2581310882897854    0.8771087927482433 Pb
   0.1655723855529198    0.2610172058423837    0.3843630410889477 Pb
  -0.0083171233368093    0.2536047197148329    0.8786024300938415 Se
  -0.0012919551628094    0.5035023760518349    0.1235294630634034 Se
  -0.0107145528930513    0.5133892041733428    0.8752750550605889 Se
  -0.0010991022459404    0.7420330545771131    0.1231799078202648 Se
   0.0098679130174221    0.7389555143880010    0.3730316601583997 Se
  -0.0046098538205728    0.7299979719639202    0.6181085332732418 Se
   0.3308510325643975   -0.0053403465022054    0.8779518829046115 Se
   0.3272942885802005   -0.0127065243185919    0.1138206645563002 Se
   0.3333689175090089    0.2542429633564551    0.1253378401679429 Se
   0.3338201610506201    0.2522475718092493    0.3801024260253980 Se
  -0.0110209071139430    0.2567541700483580    0.6164957220532441 Se
   0.3314429689752306    0.2546805753645929    0.6270025163655220 Se
   0.0248302177931543    0.7324983110153290    0.8684366627735012 Se
  -0.0008643859733372    0.2478445257583585    0.3804160977717601 Se
   0.8334220453336660   -0.0014055647435210    0.7540724477771276 Se
   0.0109919649506510   -0.0067438011585953    0.3815792266866464 Se
   0.0042258259250039    0.0004341897929421    0.1263887192446504 Se
   0.8348882082314352    0.7411876395172752    0.7512005662787291 Se
   0.8239788687094127    0.7451068399784063   -0.0000545835421876 Se
   0.8268595028981832    0.5011957390321079    0.7318106861561517 Se
   0.8354032393721499    0.5110768728335106    0.4983541041833812 Se
   0.8252136170309556    0.5071376873281127    0.2476081561554305 Se
   0.8392103849783139    0.2553742714573923    0.5019526425071740 Se
   0.8363597005789258    0.0024388655105480    0.4982603770761264 Se
   0.8339710641129483   -0.0091077405774163    0.2469363099604560 Se
   0.5029826407865693    0.7510253515798944    0.7450480121613846 Se
   0.5009471219376680    0.5017637217867682    0.4969938799813589 Se
   0.4894041460453364    0.5040570165393236   -0.0111078471777933 Se
   0.3222467584269542    0.2570411743369292    0.8748361367973674 Se
   0.0028661061686470   -0.0112731149754161    0.8814057750581887 Se
   0.3236678560365412    0.5036120737716163    0.3724902473342556 Se
   0.5093831082419861    0.1389960041755281    0.8721503187444676 Se
   0.3131737624528856    0.7467129285540838    0.8752473438834727 Se
   0.8638972060985803    0.8708913603864228    0.1170479814053842 Se
   0.8187581356677595    0.6321325913296003    0.6279214259039819 Se
   0.8381076626303345    0.6186412080529663    0.3689892347838682 Se
   0.8351677406697882    0.3815656322799399    0.6189324446696833 Se
   0.8558057407070481    0.3712162745430232    0.3826169013278362 Se
   0.8249192535927192    0.1371603268365126    0.8739610953102044 Se
   0.8350351306459324    0.1310672805373392    0.3808029431579377 Se
   0.4924197535667915    0.8759062670359111    0.1253303153088994 Se
   0.4964827152626735    0.6249341293067847    0.8716390891427372 Se
   0.5124487197396531    0.6267772590008951    0.6207832235679283 Se
   0.5035028275306181    0.3775158813168326    0.8784222106069193 Se
   0.5102725031200912    0.3825247797921648    0.3786724180003079 Se
   0.4990597652523090    0.3645432205613252    0.1311897662834618 Se
   0.4950614171337617    0.2583870572718961    0.0018357033427316 Se
   0.5031800479081157    0.1237674847261839    0.6385425548386690 Se
   0.1636376427727830    0.8701882785740821    0.8819068558795377 Se
   0.1641818549914440    0.8659344111596659    0.3903716992914931 Se
   0.6705332410208286   -0.0143519390711304    0.6354609523395349 Se
   0.6738464761429017    0.0061832999960400    0.8756487502022435 Se
   0.6733932199644415    0.2520233693637007    0.3709357663171704 Se
   0.6686972832493366    0.2610235202886396    0.8750019602899112 Se
   0.6623220663767673    0.5125416045921777    0.3853910763501685 Se
   0.6716517709305180    0.5047871058956280    0.6201490285400832 Se
   0.3455167679755113    0.5000232234704182    0.6200187022196307 Se
   0.6653108582316176    0.7508707918338002    0.8765549496388173 Se
   0.1431357993441546    0.3798606856109210    0.3705332933193722 Se
   0.1552398031679401    0.3588480850678609    0.8779117232772202 Se
   0.1577804155834182    0.6272864521084552    0.1255861461064497 Se
   0.1762778401400967    0.6227308499832516    0.3840799653593343 Se
   0.1604147551491105    0.6285251735233828    0.6048677684649494 Se
   0.1602075334866946    0.6160343571218823    0.8714407667097344 Se
   0.1660698919622619    0.1174069954604094    0.6312757422571454 Se
   0.5051701709127652   -0.0091715011193988    0.7634360185503234 Se
   0.4965641859613643    0.5019720758146367    0.7417614791905252 Se
   0.3421165180183069    0.6134247730298302    0.5121213260146634 Se
   0.3271316133599589    0.1178186579903135   -0.0086775008511283 Se
   0.0231033372996976    0.6300267933683235    0.2515880842313006 Se
   0.0071159581387282    0.6232534106684530    0.4780272621878846 Se
   0.0047096843851244    0.6245663180300906    0.7494458940946580 Se
   0.1577631252205775   -0.0053893540352138    0.4913621834520723 Se
  -0.0184591974686698    0.8426263487003003   -0.0168214398584072 Se
  -0.0094879149058782    0.8871501725171876    0.2453575678305948 Se
   0.3178532112520084    0.3705149706934570   -0.0056299534912907 Se
   0.6690708541928219    0.8794891289502427    0.7547351657370636 Se
   0.3226920148114841    0.1347506655471001    0.5060023854316487 Se
   0.6711345330173838    0.8782886258136755    0.2405011803328456 Se
   0.6701156948233719    0.8820079619497978    0.0038065676606580 Se
   0.6785682728266214    0.3809537073398751    0.4896924585015801 Se
   0.6719212135421900    0.3691953789405254    0.7523565452598542 Se
   0.6599333921080360    0.6222698815845183   -0.0034392730659768 Se
  -0.0108857750964730    0.3781306558580478    0.5019796512671698 Se
   0.6639506029510132    0.1275176058957100   -0.0054515652899996 Se
   0.0042602558356217    0.3786274065957556    0.7424646915043163 Se
  -0.0047494278270287    0.1143973182837351    0.7634600196730402 Se
   0.3220352800995229    0.6369531103606907    0.2501966746864984 Se
   0.3408271569204663    0.8534483441784598    0.2448137315241667 Se
   0.0024667295899528    0.0978169584990046    0.2558740894933735 Se
   0.1682283281875996    0.7364887954047392    0.4921371035368631 Se
   0.3302409525520816    0.8741554180187824    0.4979123587246493 Se
   0.1601509505419770    0.7474921159517040   -0.0048132267220121 Se
   0.0197528040060704    0.3671943329837215   -0.0009554877169713 Se
   0.3294748616963140    0.1320199644588761    0.2545486504613898 Se
   0.0015445295907715    0.3773660873029980    0.2473463873310245 Se
   0.3139856961521825    0.3716248851318626    0.7537681629864014 Te
   0.6744708625082954    0.7609325212744751    0.6223565940078255 Te
   0.1720565131226712    0.1275012981470802    0.3781601698202423 Te
   0.6730389412579499    0.7491137143375445    0.3752189496484196 Te
   0.3269352600926423    0.3722251868914955    0.2635067993419228 Te
   0.3423954314799779    0.1313263602852247    0.7533433311900951 Te
   0.1685097738928736    0.3754139141961890    0.1309028701862026 Te
   0.6885687488476616    0.7662413614524298    0.1142598810261109 Te
   0.1716143880193739    0.1347059916595067    0.8751396020908120 Te
   0.6759468374427291    0.4900143263500069    0.8771794516888830 Te
   0.3335019078036333    0.6199112281781841   -0.0056214276253005 Te
   0.1844511357485010    0.1161860250052414    0.1199742977923585 Te
   0.1551700814863530    0.3797196439218589    0.6209464316202408 Te
   0.3385198968662515    0.3774993629657553    0.4867099687558804 Te
   0.4844721075302697   -0.0130049737980902    0.2482098096912945 Te
   0.0087914553831687    0.8761918084316103    0.7660434640397784 Te
   0.8323678660469519    0.8755002342725432    0.3690185536813268 Te
   0.8545490686146436    0.8595070444515508    0.6431196228040548 Te
   0.8378521713841127    0.6195458744077417    0.8695300820934057 Te
   0.0102992307751886    0.1213993660420181   -0.0092726077620111 Te
   0.8256513056635943    0.6263700667593485    0.1349512324664433 Te
   0.8549403518765906    0.3845297978894576    0.8758804481473706 Te
   0.0165007865611270    0.1219975172146952    0.5059298094901602 Te
   0.8384539967726049    0.3773027873110842    0.1351943249217267 Te
   0.8339009847596127    0.1234848614113752    0.6327903081690702 Te
   0.8468182719128133    0.1236417744080366    0.1202078170836480 Te
   0.4936248833870323    0.8708313429088416    0.8720814319436684 Te
   0.4977839496252041    0.8743968512884986    0.6245893968910167 Te
   0.5004524547237106    0.8729246680084438    0.3799559267942622 Te
  -0.0101107160828206    0.6282874778769684    0.0052932425971728 Te
   0.4816745201445278    0.6189611144352816    0.3781354303207212 Te
   0.5151376503216591    0.6192893064696786    0.1245943613485369 Te
   0.5031351177118060    0.3824657810508899    0.6281283964480562 Te
   0.4946052907389726    0.1290270351285834    0.3809210140581343 Te
   0.6586373439910738    0.5041063051530513    0.1225463169778756 Te
  -0.0091676479849049    0.8656086445774954    0.4982711522782408 Te
   0.1594355725356416    0.8659135924650970    0.6138023391031029 Te
   0.1587171604769859    0.8673978358466133    0.1225697760559904 Te
   0.4833061693564560    0.1318036756176579    0.1250248439231090 Te
   0.6719355335967752   -0.0027194517502970    0.3691985716963951 Te
   0.3248287261757045    0.6184535027208050    0.7365236575987464 Te
   0.8231298748634021    0.7486154449209782    0.2562454444598740 Te
   0.1607204710722206    0.2475202802075021   -0.0044157942423455 Te
   0.1519832869861243    0.2469079346041297    0.2543916378504758 Te
   0.1627670394374982    0.2593626701480432    0.5134016250256722 Te
   0.1446757618445771    0.2448428356178270    0.7383193318700847 Te
   0.8279057980330522    0.5003748099171051    0.0020580502847427 Te
   0.8497504411190608    0.2461390177389638    0.7513888343079195 Te
   0.1632698393638424    0.4911735158146538   -0.0026357100898632 Te
   0.8489876213615930    0.2454563930523097    0.2603138523572480 Te
   0.8339738776839379    0.2674139840524074   -0.0019193738519838 Te
   0.1714657445893653    0.5108248639683802    0.2517397492476521 Te
   0.8410480018184583    0.7309117402326951    0.4914708546168516 Te
   0.1666637665205741    0.4941900885768847    0.4960857036670142 Te
   0.8370425197643316   -0.0035511693887777   -0.0090281444845038 Te
   0.5061361865107209    0.7498845967058547    0.5015767513206129 Te
   0.5220067401235642    0.7524924346647193    0.2384618448046352 Te
   0.5037275315125032    0.7456433830443171    0.0075495578293082 Te
   0.1643241979582859    0.7588031380412894    0.2516535944319190 Te
   0.5012610758004604    0.5065863432046376    0.2600088158067593 Te
   0.1710829883189199    0.7412599470016672    0.7415492431692962 Te
   0.5017446085507797    0.2578817096788805    0.7432606811865317 Te
   0.4967962013801795    0.2416812193738496    0.5174828726811178 Te
   0.5020556999253989    0.2482551351197363    0.2551554393363322 Te
   0.5007471168577021    0.0042146791640039   -0.0152754200874419 Te
   0.1665693669039681    0.5041203940788515    0.7481115358788641 Te
   0.1655247197428129   -0.0001145562295128    0.7484453807574813 Te
   0.1859134010141782   -0.0208679336553377    0.2558100384782160 Te
   0.0048644592514306   -0.0062092101299755    0.6258953324777801 Te
   0.6706811391994173    0.2398387499913889    0.1368892731499894 Te
   0.3282055318834478    0.8678560315325218   -0.0018377981204443 Te
   0.5091707148398256   -0.0021761875631903    0.5092418873964910 Te
   0.6619654106356921    0.0086603516566582    0.1206036928687830 Te
   0.3377786381416937    0.7509563213721246    0.6097737868478100 Te
   0.3246026386902971    0.7477179652513708    0.3791944059215992 Te
   0.3271496344144181    0.7345155558390488    0.1193385653082743 Te
   0.3261411848241164    0.4873369340398548    0.8728506768108850 Te
   0.3288089899665881    0.8704954821806568    0.7497358927615225 Te
   0.3473186159014051    0.5041542289541597    0.1286244363602142 Te
   0.6767498870411379    0.1181637532764633    0.2600954718506346 Te
   0.6709186055984037    0.1189384771547253    0.4974856629992963 Te
   0.6616549769756777    0.1241617484290256    0.7531411183908050 Te
   0.6569066138715208    0.3833014605282993    0.0026462722950084 Te
   0.6749306348961561    0.3839563538393567    0.2668785777379701 Te
   0.3253147842631648   -0.0000181666495879    0.6127949012576741 Te
   0.3210291603115674    0.0027744416405815    0.3897922999012037 Te
   0.6630729879176485    0.6141874187467975    0.2633784098700264 Te
   0.6702829453416209    0.6224945933143756    0.4986327864717212 Te
   0.6691730056233942    0.6204973186443069    0.7456368555452648 Te
  -0.0032854632396585    0.5142812296143618    0.6198054626596696 Te
  -0.0080127397850455    0.5096336920321956    0.3735772139964654 Te
   0.6804866831825680    0.8800745791833818    0.5006463550742671 Te
  -0.0036603709351550    0.2512964170845944    0.1167006841184304 Te
   0.1665479812035638   -0.0102523144543488    0.0036107675943221 Te
   0.6742518405280536    0.2504229614724435    0.6267932630303485 Te
   0.8342906333331136    0.8719072024461868    0.8699474936231539 Te
