Li93 Mg20 Zn20 Co21 Cu18 Ni20 O103 F89
1.0
  12.9348545234240504   -0.0012570022990973   -0.0001505803503612
  -0.0016760978808126   17.2397049126175617    0.0016434011222520
  -0.0002006747702153    0.0016437458312389   17.2517997328733834
Co Cu F Li Mg Ni O Zn
21 18 89 93 20 20 103 20
direct
  -0.0066222909847621    0.6204043051893409    0.8645527672331067 Co
   0.1653812585965529    0.3921268445579770   -0.0001749696095232 Co
   0.6658464724634692    0.8671865460976743    0.3495142825351918 Co
   0.6694989727661944    0.6377763892189104    0.6294846428952044 Co
   0.1532876468251139    0.8639877583305553    0.5021525016691513 Co
   0.3210798687886512    0.2712205571386461    0.5147799676810497 Co
   0.5076068118533201    0.6190392129169568    0.2381687390226670 Co
   0.6610915338462029    0.5066956650724324    0.0002924484635758 Co
   0.3273479195332717   -0.0011171900976873   -0.0151264755020215 Co
   0.6833854104003514    0.8630892113274337    0.6459199712434144 Co
   0.1815830631168565    0.6168537445015778    0.2497962503439844 Co
   0.8461370141138276   -0.0012384876546214    0.1298630146515432 Co
   0.1616055238656000    0.7466290285746944    0.8792278402540751 Co
   0.3373317619912644    0.6119885804458502    0.3630660307611211 Co
   0.8475877527419995    0.6204130216216417    0.4968517076648928 Co
   0.3257656286689178    0.3661193043211787    0.8825806505403212 Co
   0.5168055068574884   -0.0101315100002412    0.1318238696167755 Co
   0.1553830592940545    0.2483192307969875    0.8801552828927625 Co
   0.3263295567001330    0.1353468385600586    0.6340117564267589 Co
   0.4849374304692957    0.2592094773212951    0.6341173056011777 Co
   0.3521216815098250    0.3832690392247772    0.1349236988958252 Co
   0.3188493959871347    0.1264746909322642    0.1240881590524873 Cu
   0.2862845589892486    0.5643241555125428    0.6890837043555229 Cu
   0.6588031258823448    0.1130694122217265    0.8744869323672022 Cu
   0.0143801859518164    0.1292085025614122    0.1340260131889987 Cu
   0.2957143887592918    0.9033334018122956    0.3499662302317048 Cu
   0.0104723671201910    0.3808086712778005    0.8755269577958219 Cu
   0.1512890490083854    0.8771002463483690    0.2547099685787088 Cu
   0.8659591633980340    0.7813552841642564    0.3511238025725101 Cu
   0.8249820303770030    0.4875296389005118    0.6446601918423682 Cu
   0.5179653853980392    0.1470914696013845    0.5167168745450200 Cu
   0.8169774239053674    0.4939817262771568    0.3803005221711268 Cu
   0.1735533593743772    0.2510734899554027    0.3832791451181297 Cu
   0.5121520894933431    0.3681260297833162    0.4928892130606644 Cu
   0.5037717892576659    0.3805129702228868    0.7619370727450199 Cu
   0.8442386384072393   -0.0407728529048757    0.5779968785259014 Cu
   0.8953933375836360    0.7854226073863401    0.1436528587297469 Cu
   0.4950890256455210    0.8710349539336036    0.2517002826500055 Cu
   0.8193149140341093    0.1320087888449380    0.5080707422176886 Cu
   0.0065743075736232    0.2389848459338862    0.6291678239843005 F
   0.3299333496778213    0.7566400573596820    0.6284690191464349 F
   0.3365214824130926    0.8651056500266032    0.7503273199788457 F
   0.3137017230760689    0.7534554167285011    0.1247854454617987 F
   0.3272386262150289    0.5011169780768752    0.8828809600497516 F
  -0.0274616718979655    0.5035467627828143    0.3763416626867434 F
   0.3361494037198551    0.5011556992445492    0.1238119404638382 F
   0.3643042310434864    0.2388252265779156    0.3693070846034477 F
   0.0032008401721767    0.5070871455301411    0.6205843465913945 F
   0.3520406834352908    0.2640947556744208    0.1070749587692875 F
   0.3325562343329708   -0.0109856274866820    0.6323092693954532 F
   0.0121850735502513    0.7366585961032978    0.3779020825951991 F
   0.3132192282786502   -0.0147439544864572    0.1271850266234093 F
   0.3473949312886035    0.4919418549619123    0.6116409960262619 F
   0.3347040830383283    0.7325534950044540    0.3672339556306353 F
   0.0172792116597967    0.0025162613834269    0.6301496990188078 F
   0.0106223024545870   -0.0014725060986646    0.8714098597513257 F
   0.1642033679576489    0.2558819602441501    0.7448637728768212 F
   0.1575660960768561    0.2511940763833859    0.2411639619928518 F
   0.1667217249405028    0.2478441849298583    0.0057123700787923 F
   0.1798214646918261   -0.0120985652850478    0.7471150331365506 F
   0.0029154845917691    0.8817167736000011    0.7558138480270866 F
   0.1691900007520739    0.0010602536515999    0.5098799242909096 F
   0.1562818046683629    0.0098095193051494    0.0060579877840054 F
   0.4993159109296224    0.0070091409614039    0.0077898425776783 F
   0.3237451746444521    0.1141167503218765    0.5115923690343707 F
   0.3383855033636781    0.3896847758060372    0.0054015823421339 F
   0.6584905697185444    0.6247671670347591    0.7494920925647239 F
   0.6862106213676119    0.6343888535447739    0.4978891318621973 F
   0.3072281630436432    0.3726511898263662    0.7555581000853351 F
   0.6809581795038350    0.3713478477522510    0.7527005079531082 F
   0.6697055884173262    0.3825447406677395    0.2461922996415893 F
   0.3296552506140912    0.6351137826485541    0.4922646630538512 F
   0.6784893455264621    0.8825254954337780    0.5106893920502894 F
  -0.0272559807017186    0.2370061383036978    0.3733510004452264 F
  -0.0202015207393028    0.6155229125035507    0.2633232631051966 F
   0.0017718781543842    0.3811317059216541    0.7304347922224277 F
   0.6612241723840302    0.0116679011850201    0.3833296876006416 F
   0.8285444873518587    0.7357538633031443    0.7557564507266864 F
   0.8410694749530530    0.7485201134832028    0.4989169483731549 F
   0.8403901982201623    0.7416534386932103   -0.0109699398574120 F
   0.8245742694944291    0.4992507105615114    0.5241714283867891 F
   0.8265194921762284    0.5056101750063532    0.2389390631159282 F
   0.8329276652288212    0.0078206688997995    0.7646872039950544 F
  -0.0119845565875978    0.6221855744106014   -0.0135344565688429 F
   0.8409419701776688    0.0136861830368294   -0.0036707515433827 F
  -0.0059559704702067    0.1263043986517406   -0.0127854354660176 F
   0.5121875832542216    0.2572700463644054    0.2352462939031663 F
   0.0163841840768835    0.1263976747872136    0.4944902685116944 F
  -0.0010704478891061    0.1153693757457921    0.7483717012708718 F
   0.0067901790439870    0.3718149161241867    0.0251481346384699 F
   0.5058522578734217    0.2496805235948248    0.0013826488039843 F
   0.4827158242550927   -0.0070876881886024    0.7468375711764741 F
   0.5011362236100920    0.7425991283363075    0.7433142293387379 F
   0.6463629681395758    0.0052864731448961    0.6306769003103045 F
   0.3300247804147603    0.8734784952302739    0.5139997007531764 F
   0.1637043239231626    0.6273214993168232    0.3806192480397182 F
   0.5095141332326805    0.6438876020715504    0.3867119223539314 F
   0.1546469705943674    0.8776234658852397    0.8624901323493448 F
   0.8176200694564962    0.1215076366242126    0.3713602311318343 F
   0.6674431685783336    0.7577116077591439    0.1174752738513124 F
   0.8252281558805481    0.1312873859016822    0.1076730286863346 F
   0.6609046067421585    0.7468682046887665    0.3836864627203936 F
   0.5039580171107917    0.1121016740633514    0.3586241270488683 F
   0.8132562045835920    0.1328902137314215    0.6465330798161825 F
   0.1814562842737576    0.3739092443770378    0.1207225919924966 F
   0.4947992441381988    0.8753121607854853    0.6419153788205456 F
   0.4831700778077996    0.8776410996957104    0.1076716642977381 F
   0.5038735819512831    0.6243291735099021    0.8714460560937110 F
   0.1530186895121675    0.6307377440008163    0.6169678945195050 F
   0.1663481881967524    0.6162924049300088    0.8766319899160215 F
   0.1486518941063815    0.8725483548701967    0.1196959971029129 F
   0.5079456533822666    0.1408052022019203    0.1200718104474027 F
   0.1844872494333090    0.6244636255416856    0.1186671957536668 F
   0.4730707982893151    0.1429698869055562    0.8845922854875945 F
   0.6728044753915995    0.4917275112478956    0.8692366412709095 F
   0.8563814445811101    0.1300473890289453    0.8719502351583583 F
   0.6611701840987775    0.2531140234634443    0.1138527701256740 F
   0.8269148618111528    0.6151482284773109    0.8718193907923891 F
   0.8371053058185819    0.6274549928763909    0.6219204687198461 F
   0.8262375704296553    0.6357406618527478    0.3748336257887763 F
   0.6535488304684994    0.2443589449609103    0.6395030894715882 F
   0.6588296085624884    0.5204685661817257    0.6270740839156977 F
   0.8186658143689011    0.6156949609470073    0.1282504062635207 F
   0.8265727521575510    0.3618234501971443    0.6207933550187971 F
   0.5082865268180550    0.6325578234624062    0.6232489358510779 F
   0.8209147754061275    0.3624153872527683    0.3764405592229473 F
   0.5188820105106361    0.3794395218294710    0.6245661330237410 F
   0.6622446352266319    0.2547074612301179    0.8748366340628402 F
   0.6717759559762174    0.2447720288378030    0.2593911637714158 Li
   0.6648629786577477    0.7517083884059527    0.2349661738193539 Li
   0.6621956441941776    0.6148337529172275    0.1146701896365438 Li
   0.6641961457611325    0.3737556491026703    0.8753544184258902 Li
   0.6900073217936190    0.7486296143623340   -0.0088846663722896 Li
   0.6678364463112838    0.4895165598125988    0.7528509490044046 Li
   0.6698685373448757    0.3576743286150019    0.6187346806533617 Li
   0.3424719038812649    0.8786366257330719    0.8832412747752385 Li
   0.6908745896724953    0.2499641101206214    0.7590218548181742 Li
   0.6605198435656956    0.3538738755351316    0.3827866977623530 Li
   0.3219869186304055    0.8708577562781503    0.6310820494560138 Li
   0.6557591446526503    0.4872760702058021    0.4949716238728367 Li
   0.6778029011231521    0.2425558175618129   -0.0112916114455263 Li
   0.6808116839572007    0.2483446795185598    0.4872443181309298 Li
   0.3284832274334497    0.8770875073306541    0.1126010630529100 Li
   0.8258340046801806    0.8930634077566362    0.7601786892513055 Li
   0.6698737232780657    0.6427104006240500    0.8838281750852073 Li
   0.0116281018899805   -0.0008919872634327    0.4905802738184326 Li
  -0.0207332599413552    0.0010685102017813    0.7472953048681208 Li
  -0.0121343722453816    0.2488146412179597    0.0091091990659617 Li
  -0.0064775432134044    0.2649993528536725    0.7473498332505746 Li
   0.0151256833600235    0.4915726895177666    0.4997568230815686 Li
  -0.0069162540389411    0.4989146162115882    0.7495286836464971 Li
  -0.0037145534435498    0.7517589870532854   -0.0091093247447173 Li
   0.0209993810126513    0.7504455517966323    0.2542614848064538 Li
   0.3294539569831552    0.0020338002529147    0.2439633749394516 Li
   0.3346671677723598    0.0083349266266101    0.7698051576767131 Li
   0.3206668319346907    0.2319326863877538   -0.0051186714452244 Li
   0.3507717352615132    0.5097021744885611   -0.0027370227598354 Li
   0.3535140458355435    0.5014112202875253    0.2562554127306048 Li
   0.3304941230945505    0.4909667042963189    0.4968014722585073 Li
   0.3505760037327131    0.4761129895763234    0.7780481713272381 Li
   0.6545801483097373    0.7563687322019361    0.5085149617880215 Li
   0.3298765056594291    0.7540903406137938    0.5087398273294907 Li
   0.6736834707736056   -0.0046275015287086   -0.0053268473298162 Li
   0.6743226192017509   -0.0014010381227493    0.2400981958137232 Li
   0.6779299098991169    0.0032372987253465    0.7659094034910021 Li
   0.6744574762364277    0.7519448512962431    0.7686404941613947 Li
   0.0226334598325796    0.8950385870970847    0.3786731718743431 Li
   0.3439247388023275    0.3787279125806149    0.3782250244553479 Li
   0.4943768024991562    0.7572580320874517    0.3834098393508436 Li
   0.5143567007391464    0.4951082411663918    0.8768444235938825 Li
   0.5020143303928768    0.4932778528956082    0.6109394339136209 Li
   0.5162007640626322    0.5006232950732801    0.1167382569387426 Li
   0.5039264613610432    0.2604566244588553    0.8682824384029002 Li
   0.5113539332092155    0.2584363678784832    0.3795981045291901 Li
   0.8458486955098617    0.1330514611154988    0.7553711770723588 Li
   0.5028549813528168   -0.0114354812460158    0.8802591897710483 Li
   0.4892811346661698   -0.0056909904511839    0.3508545309382389 Li
   0.8259641153716722    0.3578286678755697    0.2404520577592122 Li
   0.8361564309461516    0.3699256211036251    0.7562708677409260 Li
   0.1710702938575094    0.7498193120447076    0.3756340085224485 Li
   0.8227682424268988    0.6234311789398620   -0.0096459986159589 Li
   0.1613822607750237    0.4967541736881481    0.8653606955661951 Li
   0.1601697076806788    0.4852618081665296    0.6072793802186500 Li
   0.1890614976822310    0.4898363979775360    0.3889245036276477 Li
   0.1519823270061054    0.4972032307020215    0.1232359113522132 Li
   0.1656649497030433    0.2672427397458491    0.6240298317375323 Li
   0.8378727588536294    0.6121166507581802    0.7572624123325293 Li
   0.1493188679292018    0.2471303255519900    0.1216902529066516 Li
   0.1695379536957502    0.0064109974193497    0.8696417368845145 Li
   0.8394101438864472    0.8673417034338439   -0.0113506500330518 Li
   0.1725228834281189    0.0223350478511390    0.3617292659847141 Li
   0.4885944439099198    0.7552077575039722    0.6226165421251323 Li
   0.5173472515087751    0.7439228863248645    0.8856890384303830 Li
   0.8214247394312484   -0.0075412534780869    0.8771373926579771 Li
   0.8371859730255681    0.2569075789771990    0.1259231637074246 Li
   0.1553596487449000    0.1264644009602309    0.0024055131037456 Li
   0.3201632642144965    0.1265731338781290    0.8743240774828849 Li
   0.1757961354717137    0.1325569638696201    0.2487814017417976 Li
   0.3285206031868367    0.1241804907433130    0.3564637051312671 Li
   0.1751039169147193    0.1319891890467157    0.4930204905652989 Li
   0.0045059995964435    0.8746178900027252    0.6239652875414636 Li
   0.8494776641357354    0.8592137298397673    0.4783328754921983 Li
  -0.0006379263902583    0.8973946868570685    0.1001221067276466 Li
   0.1611118752942715    0.3867237436062556    0.5016513045490097 Li
   0.0023867119098646    0.6211600881682672    0.3808484105693110 Li
   0.1584836667481314    0.3948395849101701    0.7238066698514619 Li
   0.3078609242209866    0.3827483042271413    0.6191165593556208 Li
   0.1816712656112658    0.6141474205865596   -0.0026291704965057 Li
  -0.0189498739082093    0.3620652446539010    0.1344752795957586 Li
   0.0086188471041019    0.1193400923836147    0.8703943230490636 Li
   0.0242374821070641    0.1228921202385109    0.6340748834642476 Li
   0.1444132765429328    0.6222004321167328    0.7612147039544507 Li
   0.8231342043065751    0.7607324119564928    0.8742884800893787 Li
   0.1647517452863046    0.8710530129181991    0.7476103962703858 Li
   0.4951504748538187    0.1157542941813049    0.2454161365755419 Li
   0.5009410343001927    0.3829516859632997    0.2653498340656392 Li
   0.5055904890843333    0.6228894565781977    0.0029681626687857 Li
   0.8466504119973887    0.2459304434672350    0.6408094397850997 Li
   0.8137743939133099    0.2485473632096341    0.3640220944242091 Li
   0.0163707500063815    0.3820894861283960    0.6163553129324993 Li
  -0.0018386080390299    0.0004066826580260   -0.0084569421195959 Li
   0.6812636031368787    0.8736991395994349    0.8780555053765655 Mg
   0.0157080801084836    0.1246122269334742    0.3724634695607794 Mg
   0.1584988032602724    0.0065286628678673    0.1316068756282537 Mg
   0.1721726328140427   -0.0036802773208118    0.6278644182445763 Mg
   0.1635921988865936    0.6194004714460769    0.4997505090249750 Mg
   0.6877744614971077    0.8765907676713653    0.1169264269036888 Mg
   0.1571728768306394    0.7461113971372423    0.1220881903674346 Mg
   0.6661428465427458    0.6293455107306353    0.3731180466519398 Mg
   0.4889299871625179   -0.0027435693054016    0.6294266955812764 Mg
   0.6615690376328411    0.5032297982133174    0.2515709457502927 Mg
   0.6585151610294027    0.0040961727474875    0.5013625406430540 Mg
   0.4846286820982422    0.6330367443051493    0.5047475020887763 Mg
   0.5078661285643677    0.2617800980115843    0.1205498257962672 Mg
   0.3292063310867461    0.7493524996286438    0.2486819381117704 Mg
   0.6611312892024545    0.1262490025366266    0.6410215681832389 Mg
   0.3248639003940885    0.2548373414369919    0.7545894841613393 Mg
   0.6554347253497551    0.1294696781512303    0.3624572336170889 Mg
   0.8282745754829429    0.4923070388650116    0.1163862814960293 Mg
  -0.0112891415632452    0.8751832797328987    0.8749794373060493 Mg
  -0.0017397948474263    0.6233178311199106    0.6291095490998303 Mg
   0.8459289590431165   -0.0019595235776089    0.3761788637106753 Ni
   0.8513218198283513    0.2577870019580460    0.8698287901425575 Ni
   0.3370576249984980    0.6262771213119918    0.8822593306692860 Ni
   0.1627679015381181    0.7569719369079158    0.6271239714120884 Ni
   0.3465570971841958    0.6191038070198592    0.1160430651487265 Ni
   0.8386278117451974    0.4907242620500502    0.8715304732098914 Ni
   0.8404977202463048    0.8842706154863419    0.2476534557168055 Ni
   0.8193128734742893    0.6374448927673277    0.2477806639510866 Ni
   0.6659928474731903    0.3827143634138313    0.1184483926902797 Ni
   0.8240158575063860    0.3587396761726253    0.5006123874135042 Ni
   0.8279231922146124    0.1340368258142926   -0.0112744686252153 Ni
   0.4987263518010450    0.6088698143182104    0.7513104912678384 Ni
   0.3287536946842026    0.7491907526522695   -0.0076488137803364 Ni
   0.4996322712176614    0.1268439765950322   -0.0016895264086945 Ni
   0.0029741239809334    0.0030233515464463    0.2545621997551811 Ni
  -0.0151768425849977    0.2488866166266661    0.2429418760942862 Ni
  -0.0032556337740429    0.4990697469303024   -0.0008514964581338 Ni
   0.0082145641982204    0.7495102187938829    0.5033474910863618 Ni
   0.0008052686737832    0.4933418043623531    0.2455612955110341 Ni
   0.5075507618344383    0.3864205737480815   -0.0061886915098008 Ni
   0.3053349433722742    0.2538457448845094    0.8774079496275042 O
   0.3288125801524912    0.2541128823094762    0.6312571146652750 O
   0.4963677152668008    0.8749849262166999    0.8779975939434117 O
   0.8249689761957235    0.3750409380429487    0.1198795053442847 O
   0.1627656618447447    0.3766069754061618    0.6138566384499136 O
   0.3375623213977658    0.5060788100714362    0.3735633443336693 O
   0.8564498971416131    0.3747944632826078    0.8805245317488888 O
   0.3324493707754750    0.0075056893206620    0.3720944822984426 O
   0.8428963146155930    0.8848517075086501    0.1239801470969263 O
   0.8132064904080377    0.8836952213254662    0.3717904013174222 O
   0.0086528335773914    0.7463956671145049    0.8687000812520671 O
   0.3000004008209957    0.8646534006120239    0.2470124736917979 O
   0.0092466593986737    0.7247158842102372    0.1251443227025931 O
   0.3283669804343377    0.0033039795599468    0.8817639652765765 O
   0.5201036747881915    0.8729967574356905    0.3712032561320202 O
   0.4817839997624994    0.3748483338790569    0.8781764184254608 O
   0.1631893027672818    0.3736448821514164    0.8885510448389691 O
   0.1677457590027364    0.3639131563584816    0.3760940427726809 O
   0.1601537331327331    0.1344083271963989    0.8667165476399463 O
   0.1763043173812304    0.1129081953702401    0.6404048911197613 O
   0.1700397932025605    0.1402361551576406    0.3717029795113738 O
   0.1686837126584071    0.1248291813796405    0.1235464489103833 O
   0.6656576061757495    0.7544995561222053    0.8789996078083160 O
   0.6859010635705715    0.7492513922972520    0.6234627468483549 O
  -0.0022240208460044    0.4972059404063945    0.8781488042558688 O
   0.6769612854450627    0.5119699186417560    0.3734512350815893 O
   0.6708677677942574    0.4980180525577934    0.1275924945130684 O
   0.6610484192046872    0.2403932725426921    0.3753072012175285 O
   0.1724777938483086    0.8670007260521715    0.3980856652394048 O
   0.6608621988214999    0.0013660829858232    0.8790693107959463 O
   0.1645643083687500    0.8753994669595743    0.6167673785428861 O
   0.6693955558013432   -0.0020929311491327    0.1192108437415328 O
   0.3173848386408329    0.7435883758271370    0.8760567803613155 O
   0.4927303046787274    0.1186967532956894    0.6320671083961400 O
   0.5047991440928329    0.3763680096931774    0.1148485743271360 O
   0.5064524670488124    0.3732790265777252    0.3788128653623622 O
   0.4994657594645076    0.6228553021464788    0.1243663508504303 O
   0.3073532735837946    0.8825500536554756   -0.0027540291070097 O
  -0.0045962707406612    0.7455317337311843    0.6291699418063236 O
  -0.0117013987495849    0.5099952290498866    0.1269965631164677 O
   0.1600566108221698   -0.0036868643769081    0.2478517526895502 O
   0.3430856686825193    0.1150571806365117    0.0143701443963125 O
   0.0011197736698478    0.8692991424143351    0.4982977638986317 O
   0.0038496102847312    0.8784394698655251    0.2610636440850831 O
   0.0085556487710935    0.8788181335850301   -0.0089105096628792 O
   0.1735619046571216    0.2487799262452037    0.4983721348270592 O
   0.3359189231297731    0.1400282206526058    0.2335507720828857 O
  -0.0050480601641591    0.6220421057561570    0.7485623090163960 O
   0.1538073438417794    0.5051354624749123    0.2476685487742827 O
   0.1663099454374493    0.5059179476355026    0.4960992125681786 O
   0.1849065227964995    0.5101039042911107    0.7414114283230758 O
   0.1684254502152436    0.7465178142632630    0.0004243619016654 O
   0.1653676013569451    0.7447515670135395    0.5085579118373462 O
   0.1656980464971525    0.7483618836674760    0.7458923204810889 O
   0.1505566952163104    0.5004122171422031    0.0064986437058171 O
  -0.0034872820122079    0.6289345149608333    0.5041043210424859 O
   0.6630735762841405    0.8771200254202590    0.7545693512007543 O
   0.6802813248751280    0.8731138388294678    0.2375775242629923 O
   0.3497009524222096    0.6281991460350386    0.7638583853815897 O
   0.6622865375810606    0.1260324028936029   -0.0086445232755310 O
   0.6690815828862121    0.1206047515359738    0.2416271922095647 O
   0.6612442198021430    0.1216546743771277    0.5147752193590778 O
   0.6433089620442688    0.1247581613219399    0.7623376042138478 O
   0.6643254636850692    0.3914376094986702   -0.0031900349194071 O
   0.3393523212169126    0.1328129086015397    0.7532555682157386 O
   0.3390628998258018    0.6258580551765391    0.2445670004884500 O
   0.3345829098897153    0.6253258425746501   -0.0012025024476203 O
   0.6702529757256629    0.6115375878399844   -0.0033336168682682 O
   0.6671233945280013    0.6299562950840899    0.2555195005989302 O
   0.3533347677695015    0.3710719634641920    0.4988570029532892 O
   0.3288678853277627    0.3649254894608435    0.2455249768730093 O
   0.6738171001784869    0.8754048104259475    0.0012448674699840 O
   0.6670759297276759    0.3675937820223100    0.5031564270281255 O
   0.4925778792691664   -0.0145631676338025    0.2380885573919329 O
   0.1697975186833600    0.7305111372466261    0.2434930743330368 O
  -0.0168995450671538    0.3709506459166221    0.4893964836979152 O
   0.8383188375479044    0.8776343989428739    0.6445995974299233 O
   0.5009694673673829   -0.0210563792993266    0.5136580254552257 O
   0.8224666192071801    0.0203747161059810    0.4929446509994911 O
   0.8326666971952268    0.2495584640234113   -0.0125056235290373 O
   0.8297567350307038    0.2470581067892321    0.2446562428263507 O
   0.8422924854111353    0.2409361426612616    0.5118692252723475 O
   0.4958179359687310    0.7542918167768584    0.5061999873468498 O
   0.8428870923831991    0.2522162838280785    0.7578301085213388 O
   0.8301343968100723    0.4963838213699050    0.7519611370508054 O
   0.8430368075458210    0.7498485197125940    0.2462223335184186 O
   0.0005261539937058    0.0143518685576295    0.1272632440743612 O
  -0.0000203096115455    0.0089389339701028    0.3765950743172206 O
  -0.0017241806418321    0.2410809922845816    0.1279320906442996 O
   0.0158357317417995    0.2654801485859970    0.8741246276021196 O
   0.8367751740187482    0.4970776330052191   -0.0036857664510886 O
   0.4890041882293250    0.7593915244648878    0.2331682891589198 O
   0.8389310877947531    0.0034226849226979    0.2510068085970308 O
  -0.0124141521252257    0.1277977154747242    0.2556228980120466 O
   0.0024148823229713    0.3760441844454315    0.2582700971027744 O
   0.4840953690477093    0.7472182092304326    0.0066441764881291 O
   0.4708199345488651    0.2485805749353881    0.5133275791926111 O
   0.4838962596061324    0.2668752728627185    0.7514841248871289 O
   0.5115684594804798    0.5012448395619535   -0.0057435378133062 O
   0.8369411065071667    0.8777555723259673    0.8736079652834180 O
   0.5074390662074534    0.5057590166407395    0.2623806392182783 O
   0.5077118495725994    0.5207763560182104    0.4946106073965053 O
   0.5012627032277757    0.4932697042038931    0.7568529789927007 O
   0.8419155355066510    0.7631663439970587    0.6326884562474695 Zn
   0.5113969906632061    0.8678723145993724    0.7670746120308300 Zn
  -0.0102329977100901    0.6189529975599932    0.1200517613106235 Zn
   0.1740261333670077    0.3879535735330271    0.2615480668384078 Zn
   0.0013072852712846    0.2563301167043447    0.5076731821796538 Zn
   0.8275186091474070    0.1307892346376810    0.2460420731517483 Zn
   0.4980605568615787    0.8665416008214967    0.4858440353104067 Zn
   0.6682850331678801    0.1139697697026376    0.1251906489836610 Zn
   0.0086797031413756    0.3718945885894915    0.3756932470072251 Zn
   0.8235900372800358    0.3693647144758596   -0.0000000723386208 Zn
   0.0075298186047671    0.7414669893679562    0.7516523671340841 Zn
   0.3594859349106237    0.0028279335442878    0.4810330846233243 Zn
   0.3353778722835371    0.2513113292027306    0.2515615121704787 Zn
   0.5285575504376389    0.8521111476609312   -0.0152254158578671 Zn
   0.5056001276017933    0.7397713857868781    0.1194969901118900 Zn
   0.5011442820660819    0.4893937259152309    0.3832985232824125 Zn
   0.3194894803625547    0.7416733041495687    0.7581411103244416 Zn
   0.1729984335689638    0.1261375882211837    0.7534203074060675 Zn
   0.4938619591215506    0.1409399121058948    0.7536463206815510 Zn
   0.1575114898538359    0.8655245967955831   -0.0075103120381070 Zn
