Ta38 V38 Cr39 Mo39 W38 C96 N96
1.0
  12.9726797953309383    0.0005447669962261    0.0000459655624198
   0.0007263061593925   17.2942360192549032   -0.0002623311745084
   0.0000612886700677   -0.0002623277422711   17.2929728725060663
C Cr Mo N Ta V W
96 39 39 96 38 38 38
direct
   0.8333057396344824    0.8758915858288129    0.8714305247333479 C
   0.1683798479685085    0.5064102283028901    0.7458607660261973 C
   0.1588436068590802    0.7548076640333673   -0.0009795953717536 C
   0.5042462616631618   -0.0018175698648461   -0.0017414224887235 C
   0.5006546235717337   -0.0023700436010032    0.2542351449717979 C
   0.4926109717880223    0.2510846685938710    0.2492597916436725 C
   0.4962420816959473    0.2470843783656456    0.7475042623610925 C
   0.5035710760559619    0.5043347184534029    0.0066657646145068 C
   0.5007897334716780    0.7540630649802542    0.2578722768234613 C
   0.4996577360984286    0.7516261839426635    0.4981069582514830 C
   0.8302052623012074    0.2502831922640129    0.2436881275176085 C
   0.8318074554110592    0.5015090767456664    0.0032923414313554 C
   0.8360548181214312    0.5011841387880309    0.4941386144582005 C
   0.8325475510465047    0.5030211163438421    0.7495299417305198 C
   0.8396394323653882    0.7484763330762275    0.0032144660047028 C
   0.8340536836062636    0.7557246673559062    0.7475742361592380 C
   0.0005800928022888    0.0004349651505501    0.8759771343111524 C
   0.0046524618697320    0.2558204613413058    0.8717723473306501 C
  -0.0052641765108142    0.4999530557719456    0.1308027421764321 C
   0.0033653722946784    0.4973865537106486    0.8735288257964403 C
  -0.0015574870959393    0.7469623980181090    0.3716973740986807 C
   0.3347894831130332   -0.0066576680905984    0.3734957733519743 C
   0.3422531119490361    0.2512825876527045    0.6263668100749800 C
   0.3285845864659403    0.2521142780396423    0.8713448638064376 C
   0.1643298748762440    0.4910150012782401    0.2567276853185384 C
   0.1744597125234007    0.2467461020996325    0.7524656384603190 C
   0.1683294618230459    0.2438740042267330   -0.0039925765806950 C
   0.1707253151788828    0.0005339692239150    0.5065345012325321 C
   0.8336903132588973    0.8824529917185265    0.6318571908713412 C
  -0.0018415535368239    0.1301452616746507   -0.0030903587856309 C
   0.0050489273267047    0.1208948587524137    0.4992918302963471 C
  -0.0017312206833578    0.3774658988421885   -0.0027146005249577 C
  -0.0044145247031510    0.3748310740954802    0.5028075188373057 C
   0.0044124964381540    0.3811631162894457    0.7513908973248056 C
   0.0018473112497366    0.6292079382088553    0.0014006339221097 C
  -0.0024614266373938    0.6235978818979839    0.5017143828106734 C
  -0.0086328657223744    0.8746115941348972    0.2492402464897145 C
   0.0008339169045888    0.8799762218291782    0.5040873756040438 C
   0.3337236768640823    0.1268215926867161    0.0027949779280192 C
   0.3378906367714311    0.4984121161171887    0.8731553323189666 C
   0.3365885841419669    0.3763136831594699    0.7465336649178214 C
   0.3348542217821414    0.6253357357591695    0.7442702920119433 C
   0.3363251210734818    0.8767153153848461    0.0080556500203554 C
   0.6651301035254281    0.1235070787043138    0.0018138487141152 C
   0.6680476608743201    0.1225124437551029    0.2452503217835708 C
   0.6604428682193818    0.1198430533114577    0.7519743438651225 C
   0.6632485156816097    0.6207457264679419   -0.0008387109860054 C
   0.6606411478226599    0.6264677456882116    0.2522388720196684 C
   0.6700645910263436    0.6237139640905721    0.5012789782480460 C
   0.6569183877717611    0.6270935065919920    0.7476564415193946 C
   0.6537857420981259    0.8806951853995347    0.7472895057163477 C
   0.1650183438967052   -0.0013487544605042    0.2535114663436963 C
   0.3339694980265798    0.6281151726793235    0.0068417925827237 C
   0.3304139804059995    0.7497457589268212    0.1330669327246746 C
   0.8283532108820318   -0.0001360126454859   -0.0009773288820852 C
   0.5026989791283067    0.6286223986711299    0.8662137030291087 C
   0.1684395637114593    0.6230901101971272    0.3750471234880535 C
   0.8337030080960401    0.6256239342615455    0.8712230582633272 C
   0.1684831009255249    0.6318682866970614    0.8737280561294009 C
   0.1649503166981788    0.8769415690097269    0.1252366107587888 C
   0.1684878796120129    0.8738045855629676    0.8734626843831080 C
   0.4960368905363238    0.1258939913659284    0.1233146158695553 C
   0.4976072817073093    0.1244912242422807    0.3760607466525048 C
   0.5068273866410455    0.1188748671210615    0.6253753349921399 C
   0.5058100968454846    0.3687759772362493    0.1279404505735366 C
   0.1763980288054296    0.6256239983925767    0.1238467815431092 C
   0.4973481105756182    0.3827166398401949    0.3718911725784290 C
   0.4988568746767212    0.6250000507931012    0.3795747818203400 C
   0.3427500362605870    0.7466707257753600    0.6161713966707212 C
   0.4979428060343759    0.8761067293134793    0.8724114527788744 C
   0.8322074767888941    0.1284210009000708    0.3739583297575241 C
   0.8305383398061109    0.3724906262876778    0.1289632287862264 C
   0.8324760248060047    0.3718521003933309    0.6268485188775144 C
   0.8311877064430980    0.6244761571560105    0.3783026946077550 C
   0.8350230983365864    0.8719713059000812    0.3758200244850691 C
   0.8304303362893001    0.6282540509943875    0.6207369181587339 C
   0.4923529116944145    0.3776366463536661    0.8774468984870071 C
   0.1756145333767146    0.3742485089849255    0.8762785604384931 C
   0.1642372983970793    0.6278151271046900    0.6298384748678307 C
   0.1711900865536309    0.3756259940145536    0.3755866942727777 C
   0.3299991611040049    0.7544402316397646    0.8709787102943638 C
   0.6660951453441488    0.0013383618978861    0.1249839741546246 C
   0.6586794700425775   -0.0019805068817531    0.3757959417062042 C
   0.6648537300643246    0.0013214188718230    0.8718193122834258 C
   0.6647510697437728    0.2505651328669153    0.3754582459133224 C
   0.6694767672965366    0.2454759133274290    0.6282840476960745 C
   0.1709303436657099    0.3758417041412533    0.6216564980801209 C
   0.6700059785870972    0.4984493029083606    0.1250571382220396 C
   0.6610984844319475    0.5024551945840818    0.3724222013479549 C
   0.6617535393795687    0.5034261404986032    0.6260176007666919 C
   0.6670909379898030    0.7494460465859460    0.3765279156311845 C
   0.6670319693892660    0.2482579977950385    0.8781620790262002 C
   0.1669873094664948    0.1243251719902876    0.3797747038536367 C
   0.1708328167623658    0.1217528645873611    0.6233050611441795 C
   0.1692213005576098    0.1247049512688905    0.8765774627364341 C
   0.1644809513046948    0.3743200487945607    0.1289567856531701 C
   0.8279030230529926    0.2539408214790381    0.6310639081128945 Cr
   0.3320554067796879    0.3670720463951226    0.8615561884073122 Cr
   0.0268436946218503    0.3732044390309065    0.8715804764565371 Cr
   0.5016708522975891    0.2311477643548603    0.6318682131092657 Cr
   0.8263286133452546    0.7436105419723146    0.3722031707832451 Cr
   0.8379051128762459    0.2547580203099279    0.1234293041777237 Cr
   0.6654689585620991    0.6219255317423423    0.6196792194875076 Cr
   0.5030983420491544    0.5007274010295165    0.3735792745862003 Cr
   0.6717881604350573    0.3822984899855901    0.1209730636392443 Cr
   0.8241017714745176    0.0036384073086571    0.6305732813020168 Cr
   0.8163569661970577    0.5050523140772490    0.3731724172620520 Cr
   0.6661634574226083    0.1251527804476016    0.6323419964650144 Cr
   0.5033476053449158    0.7539649984303908    0.3791774017942461 Cr
   0.6471918300905225    0.1189373032957918    0.1175686040406372 Cr
   0.3387556229842085    0.1268440653124691    0.1175896006467992 Cr
   0.3447351598881246    0.8624501681017228    0.1232807617772086 Cr
   0.3347126227702722    0.6322717859717762    0.1240749037930921 Cr
  -0.0006347938174907    0.8741917689415526    0.1345860338469116 Cr
   0.0138794713313062    0.0003886974543318    0.5075801122620401 Cr
   0.1682720313456688    0.3749009618885600    0.2453664593981628 Cr
   0.1759717265307356    0.7494372661003746    0.8842393789501076 Cr
   0.1624769264195311    0.1178425758558709    0.5048251184771048 Cr
   0.1759211794574293    0.6215070995391785    0.7497232994667313 Cr
   0.1742603002706235    0.1214231897472386   -0.0085308092730711 Cr
   0.5048420423782443    0.6279507464128259    0.7487037502370237 Cr
   0.6614369621898532    0.0033231267089686    0.7514071883985330 Cr
   0.3427144245047144    0.7469888007662532    0.4983234706456895 Cr
   0.3481412230015010    0.7601237810891587    0.2518447202748255 Cr
   0.3391908431681872    0.2614639226592118    0.7469696077394030 Cr
   0.5063973351216625    0.0005194373684447    0.6291586588023648 Cr
   0.7985193644651667    0.8700285827693116    0.7488895077920504 Cr
   0.3399751941248640    0.2485603527461817    0.2488779762107182 Cr
   0.1943886697578619   -0.0033029203259958    0.6214565384226668 Cr
  -0.0083849635834023    0.7540052133970589    0.2526824806941722 Cr
  -0.0040219043550410    0.7408123076131142    0.0254487205071095 Cr
   0.1756079550071094    0.2581714382505164    0.8785177762542916 Cr
  -0.0009732016131505    0.2530330153689107    0.5047823114073640 Cr
   0.1658914220262435    0.4943874345713705    0.3758161936220660 Cr
   0.0010570663800741    0.4992348303981304    0.2462773626264138 Cr
   0.6747051049492668    0.8731674983161299    0.6251400086979325 Mo
   0.0162789058805706    0.6260994038957670    0.1265048660680940 Mo
   0.6776400154429193    0.8768145782882084    0.3778979888991117 Mo
   0.3419987126253657    0.3657817701319214    0.1189081219771894 Mo
   0.3286295985631965    0.8687838711220788    0.6299760745565494 Mo
   0.3378283826840464    0.3669891148291017    0.3891838148814227 Mo
   0.6557734644469542    0.3781051910723573    0.3584982722574041 Mo
   0.3293089284901617    0.6337936239642842    0.8807380374775322 Mo
   0.0117909368996324    0.3767383232951007    0.3795937088128728 Mo
  -0.0043906401334263    0.1118486889844745    0.3736314742237088 Mo
   0.6593060317393113    0.8755784790441090    0.8678771755469012 Mo
   0.1669293023921553    0.3766880635693385    0.7405181574516637 Mo
   0.4912927421638143    0.7495376348022859    0.1381766044649084 Mo
   0.4898047844399603    0.2582309385254690    0.8709018617045365 Mo
   0.5020632652567699    0.2587958987883910    0.3719941734452389 Mo
   0.1563241316173933    0.6189706740733570    0.5095807377368533 Mo
   0.8192750957934197    0.0007827009263967    0.3849012610053446 Mo
   0.1706598859784082    0.6107909236137620    0.2451360549796014 Mo
   0.0020658973864357    0.2528996092440084   -0.0068859649882718 Mo
   0.8207778454795944    0.6202440723985941    0.2605413346182307 Mo
   0.8249808553053157    0.2553342535508117    0.3675097575266635 Mo
   0.8187102927801491    0.1117389283114553    0.7470392558407737 Mo
   0.8243655343190751    0.8806216338943833    0.5000414297904727 Mo
   0.1512194028501612    0.8784892668885058    0.2426988371926864 Mo
   0.3473700293739905    0.0007528478910382    0.0052454252142248 Mo
   0.4831908270928479    0.1285278531320692    0.4966557221807582 Mo
   0.4942500079379914    0.8731365148895279    0.4887705736758192 Mo
   0.1510052783175762    0.1185048495196804    0.2548869887061462 Mo
   0.3283259361431171    0.7494220369284343   -0.0011251096921779 Mo
   0.6683036111659615   -0.0127146733877724    0.4962825041871758 Mo
   0.3318345443046085   -0.0088263212930670    0.7326421537612414 Mo
   0.8175144564056287    0.7522176596059752    0.6274147600123559 Mo
   0.4899575921768515    0.3706045283667787    0.4927001397414168 Mo
   0.8123279083858919    0.6278835858665966    0.7414760455043161 Mo
   0.3296842267362758    0.2578733743822380   -0.0010085629123188 Mo
   0.8438503610332401    0.5030567756819788    0.8713247129745305 Mo
   0.1554636693791251    0.4967175748771728    0.1337859764766108 Mo
   0.6657644061407352    0.7547192853589356    0.7387856104706358 Mo
   0.4945330246109618    0.3817290882306717    0.0060586238531279 Mo
   0.4998946534541726    0.3871192153338548    0.6240452496085349 N
   0.8340683973083661   -0.0024682017931294    0.2496153140520676 N
   0.4965471422593444    0.6234179239327522    0.1281599135635927 N
   0.5166275101021559    0.7554691000615720    0.0057543845979872 N
   0.5067721683575274    0.5055152557845395    0.7442701398815282 N
   0.4968501487182965    0.7468631491578011    0.7494617410266199 N
   0.4945838441953523    0.5013358205802620    0.4943902056130554 N
   0.4913754105124212    0.4976335760014553    0.2555376360114560 N
   0.1694856334161263    0.5079390370021938   -0.0000713454665597 N
   0.5018172587654850    0.6305316478010924    0.6274878579203365 N
   0.5008942811537385    0.2436449804406775    0.0051871113840328 N
   0.6593718342951859    0.8627320105325024    0.5030973297145690 N
   0.4976969531884411    0.8738749476924424    0.3693419358822653 N
   0.1651944880643320    0.0056070915477043   -0.0024999190962964 N
   0.5011905608755050    0.8725864747487929    0.1249995439477919 N
   0.1671798865416526   -0.0036187804157016    0.7454639841157980 N
   0.1593594074207059    0.2536095593225745    0.2481444194207480 N
   0.1631167971984586    0.2481826855358541    0.4981711544879984 N
   0.1728131016096043    0.8707936618607280    0.3796855517833216 N
   0.1737811136433101    0.4987645113260971    0.4938308986916452 N
   0.8361090111184628    0.0043213240420772    0.5112731073014718 N
   0.1563669017876629    0.7470857586957939    0.2496365439639087 N
   0.1660626199940301    0.7517284569895658    0.4955362886460679 N
   0.1664293885307620    0.7527353409874439    0.7474995259039953 N
   0.5017324487708312    0.0025405303428412    0.5066928481650272 N
   0.5018066314241523   -0.0020769809918841    0.7464649798295501 N
   0.5098326498253086    0.2493697361981572    0.5114184899908534 N
   0.8298394647391119   -0.0093104419715465    0.7471729598533410 N
  -0.0014999609600577   -0.0068004358121634    0.3793310771372209 N
   0.8383840623876676    0.2491425981952703    0.5062341224639060 N
   0.1797291676287437    0.1253858094378779    0.1201080598865892 N
   0.6623628092135880    0.7430575939302153    0.8791952286721397 N
   0.6555111747667840    0.7462622487806878    0.6143184145713828 N
   0.6746393471968570    0.7487578755119069    0.1256061114491583 N
   0.6669776657824908    0.4867956154813635    0.8739067966932882 N
   0.6667206762184826    0.2467666926125130    0.1237575923715780 N
   0.6654765072165540    0.0050453994020166    0.6283523497643014 N
   0.5016450938665080    0.1251525548134945    0.8753585583667397 N
   0.3387417177045635    0.7462673157445845    0.3704226885853013 N
   0.3394938790794897    0.4962705165626036    0.6210524729999866 N
   0.3295372237095086    0.4959064541646393    0.3775128373463578 N
   0.3373278713012474    0.5040742253780338    0.1242867921914523 N
   0.3263530132874108    0.2449423510873857    0.3706551304339430 N
   0.3295979499760383    0.2423535812068488    0.1320386964210638 N
   0.3301824059631007    0.0041151444202507    0.8687841606958424 N
   0.3459560560830522    0.0008121953216111    0.6120973406595969 N
   0.3284804888752236    0.0058757078481917    0.1264311938583764 N
   0.8379930557034657    0.2444308979198205    0.7468670714903584 N
   0.8441350132135063    0.4962836476803817    0.2543737756993818 N
   0.8357596685548905    0.7520282439688170    0.2497989629898431 N
   0.8336241028904819    0.7479994146224174    0.4924062425079761 N
  -0.0066422360665893   -0.0023642288133657    0.1300564647394472 N
  -0.0106448491459054    0.0070574620799902    0.6251795235083288 N
   0.8271170493635071    0.2485981942729348    0.0037293219790234 N
  -0.0046977383547673    0.2537395137055596    0.1350658517487227 N
  -0.0107944057146847    0.2540706974886998    0.6235717882797283 N
   0.0090203001028138    0.4990191715301507    0.3772113839603279 N
  -0.0023460840610925    0.4970473131110429    0.6250607817723695 N
  -0.0053207733265198    0.7563756150190397    0.1357261346385153 N
   0.0013313235297912    0.7503635081711790    0.6234069362730087 N
   0.0011781859265059    0.7511954175544625    0.8642714236804376 N
  -0.0009822113484600    0.2474033297275182    0.3864747856143053 N
   0.6641735937989369    0.8776434967952336    0.2459649467901667 N
   0.1636004231946564    0.8794726612131746    0.6271537880197258 N
   0.8342288164048117    0.1256626698385839    0.6265905739949938 N
   0.8205073572398170    0.3719318226949245    0.8780489675577412 N
   0.3279617650894929    0.3687460298253715    0.2518275284712087 N
   0.3290657270910293    0.3802399689521139   -0.0036854018908626 N
   0.3386788732694440    0.1197479139816007    0.7522493192792006 N
   0.3174677998296614    0.1363057661979836    0.5039029885308660 N
   0.3285586175877231    0.1282092015438559    0.2515914406435109 N
   0.8442673750350809    0.1297350466301692    0.1227453998956016 N
   0.0212991365353478    0.8748895025901419    0.7467052160919742 N
  -0.0009985540061169    0.8714855258594023    0.0027168934573922 N
   0.0104370440005710    0.6250720782495242    0.7449950767513398 N
  -0.0016328760491188    0.6202031878765826    0.2509276940354338 N
   0.8331151623610950    0.8732209385448931    0.1278214241070695 N
   0.6671087457223681    0.8739345651560226    0.0042738439681327 N
   0.8297333900945386    0.1324091229704106    0.8767308314014086 N
   0.0040786248874702    0.3810411686200326    0.2460102583766712 N
   0.8318811816389011    0.3871048666717467    0.3713207556370527 N
  -0.0008573810186849    0.1248648808551592    0.7434579527656182 N
   0.3357794420043155    0.6285346931008085    0.2424193929594333 N
   0.3340505094989687    0.6305300072546725    0.4888721640733966 N
   0.3267823098975264    0.3858057326899762    0.5092129512038078 N
   0.8331641548944533    0.6193785486828716    0.1307340595071229 N
   0.6663207748500563    0.3775096416670610    0.7537362924656508 N
   0.6670554784181298    0.3702864088917752    0.5030009066987675 N
   0.6666318733511362    0.3756202467858803    0.2384133057213353 N
   0.6693388065878726    0.3725768868001564    0.0006748369102486 N
   0.6707033632524835    0.1215502000461625    0.5070403263462143 N
   0.4985840023686983    0.8814485081623109    0.6220092991122459 N
   0.3456311883216497    0.8718137843982418    0.7546729705699423 N
   0.3264731259870065    0.8594197778139360    0.4939705881292252 N
  -0.0060337070991592    0.1294158901605003    0.2428282401619026 N
   0.3333616482881944    0.8748934464833551    0.2440658400517934 N
   0.3371672294078747    0.1282060173918873    0.8817452058815679 Ta
   0.6701381299975984    0.8724634101685868    0.1229589680481525 Ta
  -0.0002442101842137    0.5036925781971155    0.0051781216500578 Ta
   0.1643123069041967    0.8821952792133492    0.0037056009653779 Ta
   0.6696120611693761    0.7539672333434297    0.2553704497359477 Ta
   0.8298983286199505    0.5034851938614703    0.6252190076324734 Ta
   0.8212230925562947    0.7527674488485752    0.8735794622916624 Ta
   0.8273580603922308    0.0003447911029602    0.8746454356241655 Ta
   0.0077065456377944    0.8736996068814225    0.8664763773435495 Ta
   0.6610158336848798    0.5001463897905188    0.4978285069575726 Ta
  -0.0010752886196527    0.6201636076319192    0.3737466367151474 Ta
  -0.0054218244263624    0.8884846592659988    0.6270504987835469 Ta
   0.3294553899474721    0.8811757034078377    0.8829439507869279 Ta
   0.6572881354284277    0.3769841973097563    0.6333803770085341 Ta
   0.0048023372565147    0.6269593314157156    0.8746867281837863 Ta
   0.8278034640553747    0.0083222604896758    0.1208049132258589 Ta
   0.6596085380782750    0.6236284711736718    0.1239734439451683 Ta
  -0.0035693716673501    0.8699726499826925    0.3747315689096065 Ta
   0.1758418029658073    0.1197452573740568    0.7474721864374552 Ta
   0.6629272152521536    0.2425546381189914    0.7557914512489322 Ta
   0.8374752087034533    0.8706927621137923    0.0025129606497411 Ta
   0.8372656331226570    0.3808007967146166    0.4933424431929865 Ta
   0.3330071283721298    0.5054777182966353    0.0017224548260341 Ta
  -0.0053301004279726    0.7495833819899533    0.5026758842406126 Ta
   0.8330018141652281    0.1207272061467650    0.2525282006758606 Ta
   0.1684711666930832   -0.0006718993662674    0.3793055261746627 Ta
   0.3479557350338847    0.5018792291106673    0.7446886427167566 Ta
   0.0030975311594165    0.1295713956385188    0.8738469794390544 Ta
   0.5035287451517648   -0.0002565876284056    0.8721058243562367 Ta
   0.0017355700541436    0.7436978620052543    0.7415122399315255 Ta
   0.1640039985317455    0.2493005266814949    0.3677481816036751 Ta
   0.6745939304245451    0.2400754579898256    0.5028222376274767 Ta
   0.1715488412218421    0.4999211455716593    0.8681484653875611 Ta
   0.5029513681649741   -0.0002337017902272    0.1253389295444935 Ta
   0.6617465493534991    0.2493098341172492    0.2460474924294141 Ta
   0.3360823340359009    0.0052008067668299    0.2499311269313373 Ta
   0.1747351191856135    0.7485356068781706    0.3657090791231862 Ta
   0.6613640807159197    0.2443324146469127    0.0011783180894481 Ta
   0.0003617534719413    0.6182188751452967    0.6209530175480457 V
   0.0057232456398205    0.3752765894128565    0.6288105879684228 V
   0.3395847384336990    0.5135582505218136    0.5045969692519561 V
   0.8393363498333248    0.7333739709804070    0.1241692434950132 V
   0.6715681505578939    0.4944189151649636   -0.0005768551957583 V
   0.6636473314080531    0.0082444527751879   -0.0033692578119095 V
   0.6769117828799202    0.7417400658321640    0.0016965254663322 V
   0.6589330723901217    0.0013718672270400    0.2545377202125831 V
   0.6693678462975373    0.5058839397224386    0.7490632123323140 V
  -0.0073109299962560    0.3769005633614767    0.1206593406174945 V
   0.6720394137907392    0.7418660969046127    0.4937773352610102 V
   0.8369449672050295    0.6185021842199498    0.4996205893385939 V
   0.6706882225807174    0.6279364672000819    0.3798007852179313 V
   0.8330744310557734    0.4931269825772298    0.1258633038982886 V
   0.8365335540791883    0.3725314884917097    0.2533114002982226 V
   0.8320868984085631    0.8789455000742328    0.2564218162080263 V
   0.1623727222792830   -0.0008375074222397    0.8721697884803578 V
   0.8297330585494013    0.1210921604162334    0.0040831298538410 V
   0.5010136223545569    0.8668436474405264    0.7411173650073211 V
  -0.0034252485640954    0.4996511527182840    0.7536244520915594 V
   0.4898281148737751    0.8761675703273635    0.2541076830137241 V
   0.0094735998353637    0.5023482023255110    0.5034386106859304 V
   0.4939673707818403    0.3739351223191245    0.2494703500780574 V
   0.4993479955191251    0.1258075614670077    0.7459618940354446 V
   0.4991753365195382   -0.0017128730830394    0.3831296849529492 V
   0.4941722025900185    0.2503747441404525    0.1294401975814851 V
   0.0043630295827170    0.0012488712935502    0.2546113774760190 V
   0.4989131748279156    0.8771101001700465   -0.0045431072027612 V
   0.1904739954518594    0.8765839749276760    0.7476104101901978 V
   0.6527344546176134    0.3679054942206423    0.8749555016359499 V
   0.1661779611995267    0.8780528703045374    0.5099306164578158 V
   0.5008818942383950    0.5138334084549593    0.6148208857989408 V
   0.6681850351967300    0.1229459054579971    0.8785377869931229 V
   0.5004647850332373    0.7602049464331896    0.6258214693474197 V
   0.3395252379057338    0.8720386251300809    0.3686787340134421 V
   0.3416293471702432    0.3696403155136571    0.6268224231370574 V
   0.1649794663624667    0.6373733375540956    0.0017330839297678 V
   0.5003860666291287    0.1190686643201507    0.0034467116935052 V
   0.0143206244899152    0.2625296759054420    0.7523832371788288 W
   0.3462615412142792    0.2604123406409246    0.5045153728196309 W
  -0.0149084569940911    0.2650752364164397    0.2648812180031056 W
   0.0030502475304488    0.0041517657526434    0.7578818082797628 W
   0.3347725802672875   -0.0239295707032235    0.4921212866801934 W
   0.0102747960116349    0.1355877035217387    0.6165559404545687 W
   0.3258551616590608    0.7430205635776981    0.7390284743417770 W
   0.3391211026686626    0.1138226162250416    0.3846833167311627 W
   0.3454083760261391    0.1307345951558447    0.6313757410453512 W
   0.8402104070417405    0.2587520055570082    0.8673631349508496 W
   0.3272516674409527    0.6109684958001075    0.3620708368467213 W
   0.3242864478518084    0.6205901681269385    0.6188771942848359 W
   0.4900057106910784    0.7572138334160602    0.8841805274231548 W
   0.6600300065646374    0.1193623335790986    0.3704374453476855 W
   0.4965718733899919    0.4996049058667703    0.8857317692921671 W
   0.5109018613088266    0.4862203466046184    0.1293383347531173 W
   0.6688273450341119    0.6071446423062280    0.8741510900935319 W
   0.1829181411742838    0.7478250118945158    0.6168671815623721 W
   0.1706570542608544    0.7491745397945150    0.1206529870205011 W
   0.1561904874129277    0.5026671864542283    0.6252966812360418 W
   0.1788915885422723    0.2518839073184191    0.6326523580058883 W
   0.1600772713552021    0.2560935473825285    0.1160700410571038 W
   0.1529406283376026   -0.0011112353996712    0.1342632849609628 W
   0.8252083180642075    0.6268171742443605   -0.0067666741065747 W
   0.8468429297925342    0.3837046946169193    0.7492963991566242 W
   0.8402851780871506    0.3828424302792665    0.0104499215013344 W
   0.8458083640452904    0.1226664556102340    0.4917991761217131 W
   0.0196383830213099    0.1299900311085383    0.1140788423665062 W
   0.5126048814704485    0.6341662021671781    0.4993007946904452 W
   0.5016977869635033    0.6322046095296480    0.2631401766873344 W
   0.5014655855049406    0.6309389594459243   -0.0129325324933568 W
   0.4967294790654479    0.3693271748288264    0.7566024148690719 W
   0.5094478351978340    0.1225454134344665    0.2479401142274522 W
   0.1520376628553583    0.3706430852671276    0.5029485622843654 W
   0.1562345338066715    0.3666530729451349    0.0061915203947723 W
   0.6776033430882985    0.5055968439253741    0.2500999935350035 W
   0.3238376871191455    0.4905431229136736    0.2411342551663946 W
  -0.0109532965346330    0.0118932310494967   -0.0028265152466182 W
