Li7 Mg37 Zn37 Co37 Cu37 Ni37 O192
1.0
  12.8498478739837267   -0.0008094793930801    0.0009242500211456
  -0.0010798886816573   17.1310703710406891    0.0011462648606586
   0.0012331859329278    0.0011468679276603   17.1550252662372138
Co Cu Li Mg Ni O Zn
37 37 7 37 37 192 37
direct
   0.1675141589920515    0.8669290941894048    0.7510572551153081 Co
   0.8332880023177220    0.8776356764269416   -0.0032890811774982 Co
   0.8413167519473543    0.2572201220053471    0.8737133273233495 Co
   0.8367609155536387    0.2414262406886735    0.1254344493344320 Co
   0.3305226651303718    0.7498686051774555    0.2441698802949816 Co
   0.4993141538991001    0.7520145108962327    0.1242269084440273 Co
   0.8303130563704988    0.8684165327770103    0.7484063300007021 Co
   0.6714635042249454    0.0072424483083863   -0.0056581237455896 Co
   0.8353970415981493    0.4980507922293864    0.8781791554655898 Co
   0.5004566030034053    0.2526235948675115    0.6267056918347169 Co
   0.6709233386135909    0.0027103997057280    0.7490902097486710 Co
   0.6756065670304928    0.2492922929527450   -0.0046544173276012 Co
   0.4946633286771981    0.0055702053354696    0.1178183949936647 Co
   0.1760563409318119    0.7502493357687104    0.3745110756647914 Co
   0.6705952597800822    0.4933180870574916    0.0010310786294646 Co
   0.1695058421357408    0.7489571112968423    0.1235544741643685 Co
   0.6644528273447459    0.7433849774723295    0.7518312752830968 Co
   0.4972464579692883    0.2478911198451864    0.3767890276886772 Co
   0.1652305369185718    0.5023059731453889    0.1323057866971087 Co
   0.1614142962302878   -0.0018098891848105    0.8681523095533311 Co
   0.4995589726835857    0.6266232520723846    0.2474946129272762 Co
  -0.0019734965992899    0.2616050303238821    0.7441060764787307 Co
   0.6705371040979143    0.1270032631599486    0.6265744042933697 Co
   0.3351198458780141    0.8747599195128941    0.3795689605145509 Co
  -0.0041858175802144    0.1258557418062035    0.8655809804269484 Co
   0.4969782559500785    0.6247464816522823    0.4942342315167990 Co
   0.3329450290295401    0.3719325626619992    0.1264074176209031 Co
   0.1694560437488803    0.6239333241038726    0.4979394485603367 Co
   0.6665325904798031    0.6206315401366923    0.6207875751990725 Co
   0.6641993367187973    0.8843096285053261    0.1204614886821386 Co
  -0.0040138688973426    0.3774207276101988    0.3714036923493533 Co
  -0.0037243085870749   -0.0055967232755881    0.7418981030320744 Co
   0.0002128040843977    0.3705633596469416    0.1298794859098391 Co
   0.6590800183127888    0.8759690685275064    0.3762400633369026 Co
   0.3314382964261149   -0.0016525716450939    0.5105680898719599 Co
   0.6676310095321143    0.8743661459767709    0.6303906461303945 Co
   0.5044831435196682    0.1333434973478924    0.7507493971468582 Co
   0.1673545172732323   -0.0035925207242847    0.6297621887871582 Cu
   0.5000374111735454    0.8691233304954533    0.7561595138685470 Cu
   0.4987524355029895    0.8766871310754922    0.5074346680288050 Cu
   0.8341186319539778    0.6240858421642210    0.4999320013128024 Cu
   0.8357965050488075    0.3849461232521920    0.7483360903445093 Cu
   0.8368419941066859    0.1226897254680256    0.5046562029828331 Cu
   0.5029255760161373    0.6174061662259493    0.7518581945350339 Cu
   0.8372908678954530    0.1282441918962287    0.7426813653079145 Cu
  -0.0033743186656236    0.0049207258281631   -0.0091025849479278 Cu
   0.1557184724084698    0.2564639712446158    0.8700618456055816 Cu
   0.6702895397076429    0.6276491083055508    0.1273613694868783 Cu
   0.3303694998562088    0.8796960820232395    0.1158692607027024 Cu
   0.3338219832241912    0.3758417752854318    0.3751533032904233 Cu
   0.3322067828017189    0.1360491625864700    0.8671702183359732 Cu
   0.3293600160283869    0.1191531232613987    0.3805489473568174 Cu
  -0.0020235296960613    0.3847542193776892    0.6161473987035371 Cu
   0.0025011335932078    0.1251819322755165    0.6229906704562853 Cu
   0.0087465510168245    0.1206423396713138    0.3837088938611985 Cu
   0.0001374018756361    0.1216353082160884    0.1271364297305015 Cu
   0.8288733912600861    0.7550932859499834    0.3759842123631488 Cu
   0.8278673505781702    0.5069747723200057    0.3706979179820126 Cu
   0.8321275800620938    0.4964262742024492    0.1307959781481622 Cu
   0.4950883357648632    0.1243358270923231    0.2525348899973723 Cu
   0.1687481680694807    0.7403179668950868    0.6268390744015526 Cu
   0.1622256673716009    0.5042369511051034    0.8764099261420790 Cu
   0.1667899599023983    0.2520286795067039    0.3773185311948093 Cu
   0.5034316987678232    0.2566220576938397    0.8723083118541154 Cu
   0.6673499347915800    0.8719321976233122    0.8745557101294774 Cu
   0.3405942569894322    0.4984761286402084    0.4975406009272891 Cu
   0.6637626433492351    0.7570065351523181    0.2483880427131700 Cu
   0.3298750187197103    0.0015265173138474    0.2487159802672274 Cu
   0.1651202056927752    0.8734799874006400   -0.0074772097144152 Cu
   0.0033510800197919    0.7493524380141621    0.0026691713479734 Cu
   0.6692031620719029    0.2431538751444557    0.2520489581769939 Cu
  -0.0037507101789103    0.5051626739655849    0.4909450873844455 Cu
   0.1699544796331574    0.8774527182978886    0.2478509501949152 Cu
   0.0002538658631057    0.5046071897575026    0.7471065216747291 Cu
   0.8370353040351028    0.5041199889133772    0.6181963205533664 Li
   0.8294693331761028   -0.0074313074580224    0.6269277305848494 Li
   0.1597238081649243    0.6209140717385567    0.7449746992392168 Li
   0.8377505046486373    0.1276468710082159   -0.0042809534944682 Li
  -0.0039723609562462    0.6215315957316131    0.6151662453128742 Li
   0.6783540646378581    0.3755841204469664    0.8748259685617454 Li
   0.1665269846545471    0.6232120938140273    0.2506966644473788 Li
   0.6701257140334272    0.2488383383883462    0.5018388903414034 Mg
   0.0057730748971754    0.7532964871769837    0.2507327819468163 Mg
   0.3287148470587313    0.1309511690091657    0.6301951840933762 Mg
   0.0033545381927066    0.7457067807215614    0.5002064521706076 Mg
   0.6753850046727443    0.2584829754043955    0.7500025958569138 Mg
   0.6673669475677558    0.4973680954346976    0.7497115071947864 Mg
   0.3312150284397385    0.3771174757554122    0.6228620299807717 Mg
   0.0000893083730342    0.8657106516986189    0.6267799101964620 Mg
   0.0045388939428133    0.8791458689462595    0.1218270889063132 Mg
   0.5016447387138273    0.4964730267096937    0.3730598160885621 Mg
   0.3322845309869659    0.0009372921223572    0.7525808339809187 Mg
   0.5020888868139325    0.4974001852587270    0.8773442152497029 Mg
   0.3278968169258311    0.2483788208252969    0.2534632984666704 Mg
   0.8370891550900299   -0.0017716784977199    0.3813808311895076 Mg
   0.3336138951224485    0.4988835736732602    0.2498390663587203 Mg
   0.3341929321570259    0.7451135786524343    0.0008451382603643 Mg
   0.0004912377321490    0.8690290011475496    0.8726916834317292 Mg
   0.0007583661685600    0.6300015570366229    0.3719412715212617 Mg
   0.3307230379360070    0.5012893951171079    0.7497784302371941 Mg
   0.8402190641542515    0.1208823209535358    0.2553531227038930 Mg
   0.5012016206483357    0.6203620190388454    0.0055767475952411 Mg
   0.1624438210237576    0.1291787950610309   -0.0089382497695821 Mg
   0.6658132898547636    0.6298613738589578    0.3743469536310688 Mg
   0.0004817757360911    0.2521928521877923    0.4986361358095917 Mg
   0.4993586065900741    0.3765392959257448    0.7489823033888838 Mg
   0.1654474553114734    0.3748834071677580    0.0036600009317648 Mg
   0.0042120522129111   -0.0029950536333829    0.2571616000660142 Mg
  -0.0006538185670786    0.4993593570880125    0.0106105068608044 Mg
   0.5008107740831121    0.3717564597947046    0.4982060144555122 Mg
   0.8345205098920032    0.6209500781208690    0.7481533241333259 Mg
   0.3315406989233142    0.8689074437534757    0.8744003951460235 Mg
   0.5017996492237654    0.3694708026172348    0.2523712269248568 Mg
  -0.0024473325250855    0.5060737980264406    0.2505587619265108 Mg
   0.5002541976236624    0.1300340482042232   -0.0088686357755245 Mg
   0.4943856855505766    0.1273241000728650    0.5057104379259173 Mg
   0.1691245512397974   -0.0066928083252196    0.3826864676988913 Mg
   0.6681147922415018    0.1245720425252772    0.1221221797702677 Mg
   0.3274950088518673    0.2561020283055851    0.7490881587924267 Ni
   0.3310472085798247    0.2507380756029818    0.5006810200198166 Ni
   0.3272284441666247    0.2518948895635647   -0.0041849183170352 Ni
   0.0019446151262682   -0.0036124416829125    0.5058235245502777 Ni
   0.3293878175655027    0.6213651649808921    0.1283160595599820 Ni
   0.0039193534975451    0.2442176075284148    0.2559899623385921 Ni
   0.0005239779607862    0.3821254460504942    0.8801790816250370 Ni
  -0.0016836917903492    0.6292779670993004    0.1297728453622082 Ni
   0.0011165018464769    0.6221207053366176    0.8788385532096464 Ni
   0.6702356641971325    0.3703006945460811    0.3749335385066556 Ni
   0.6683975693137372    0.3654342003059471    0.1265012090832339 Ni
   0.6756920726711844    0.1330724639373818    0.8726009290774550 Ni
   0.3335425305122347    0.8705310241466525    0.6337299578020026 Ni
   0.3363659008151756    0.6220142507801718    0.6258545630340707 Ni
   0.3276968985815135    0.3770259480536961    0.8739145645933228 Ni
   0.6654142791567478    0.6179921684778522    0.8775149206754715 Ni
   0.3338187624882497    0.6244077992683809    0.3705399414944910 Ni
   0.1695630658006801    0.8709678861902959    0.5087964780232932 Ni
   0.8376922046994298    0.2441376744748908    0.3775516120884252 Ni
   0.8380415453552340    0.2569552231573219    0.6216389815266488 Ni
   0.4940980546673489    0.8797433935390238    0.2430998111558354 Ni
   0.1647656342264766    0.6213576945670263    0.0059940039299201 Ni
   0.1675105600696431    0.3793207011918847    0.4941792696194187 Ni
   0.8320130111413265    0.3812632821521559    0.4935945242072670 Ni
   0.8328798907025294    0.6338156993580348    0.2505026755559042 Ni
   0.1606548400784762    0.1296340101656284    0.7469806941975382 Ni
   0.1706157265848173    0.1252402575765744    0.5040644168618312 Ni
   0.6614562089595658    0.7509554767237180    0.5000526082658657 Ni
   0.1641627675423251    0.2468707542618255    0.1279378606793092 Ni
   0.1630180845941072    0.2576223557929727    0.6218428454440872 Ni
   0.1690761706765826    0.5052317260267929    0.3726550962617706 Ni
   0.6616458720095776    0.4994988688160774    0.4979997533155918 Ni
   0.1663051432455277    0.7417566391717468    0.8773326432933114 Ni
   0.1653134302021697    0.1207014988240455    0.2555066330935097 Ni
   0.5004697594844296    0.7413846775450051    0.8767015755705397 Ni
   0.4994301887030462    0.4982481454952498    0.6225445321173050 Ni
   0.3325826277615603    0.7421064776246541    0.7533681937069130 Ni
   0.6664205086565071    0.0034834117324310    0.1234657557468813 O
   0.0024718800414475    0.7460162499004167    0.8848962577963480 O
   0.3278860820195432    0.0132765872189153    0.1042790087373853 O
   0.8360275754024327    0.0020516123025730    0.5022254198315714 O
   0.3316839839531796   -0.0073717736540846    0.3927679821875004 O
   0.8372007305650404   -0.0018525158546560    0.2591095652157773 O
   0.3254180023738449    0.0010300800022954    0.6320242987947745 O
   0.8395422037883205    0.0008004350906951   -0.0054895132821807 O
   0.3285933355684190   -0.0096361362603130    0.8713572062427447 O
   0.3275516328591745    0.2465835108789748    0.1250899870663401 O
   0.3272381613978052    0.2592354221908710    0.3765104999188354 O
   0.3299995677818346    0.2538548606941768    0.6258958478565049 O
   0.6659699727118864    0.0018071450318602    0.6298318677135657 O
  -0.0028971882112216    0.7446925426395375    0.6217219844179327 O
   0.8260252514044939    0.8734978644828726    0.3814419967377112 O
   0.3359444928165127    0.4968736585644941    0.1300976080456516 O
   0.3369206997778997    0.4967251194437173    0.3695333558888335 O
   0.3385664426776462    0.4992803924534231    0.6268169916713825 O
   0.3336445286445968    0.4982634276306828    0.8738308589992371 O
   0.3344582417483862    0.7394392224469646    0.1235073099284774 O
   0.5013390208536358    0.7329031472416628    0.7551443053828694 O
   0.3361370030744817    0.7515031225224509    0.3665045738393548 O
   0.3406822048580980    0.7461463006019761    0.6324245297312917 O
   0.3345938352279549    0.7459793753151249    0.8769022938268251 O
   0.6633139888365913    0.0013058000089306    0.3769081364537136 O
   0.3056078951982155    0.2585869980898330    0.8712340918052517 O
   0.8369799584667685    0.4994492169035460    0.7526062029362494 O
   0.0046094469635748    0.7553837606019933    0.1223273764280137 O
   0.8278411997518814    0.7539837507830006   -0.0013392409002682 O
   0.8400962753641498    0.7584447548988467    0.2566601971674401 O
   0.8300486351661127    0.7446654577229280    0.4944778295788653 O
   0.8288952994111412    0.7431806159272800    0.7524007184541059 O
   0.0054338649142734    0.0018315024174883    0.1377666132444011 O
   0.0027939523712696   -0.0115140441846545    0.3809676383049188 O
   0.8172531328599738    0.5071780965604844    0.4876585326380103 O
   0.0120368336092546   -0.0118863847021782    0.6270450771225675 O
  -0.0012588503563393   -0.0077107387603872    0.8560034583039517 O
   0.8313124417507902    0.5083297994370392    0.2516732819515100 O
   0.0026923342677994    0.2418606851882187    0.1319227416639818 O
   0.8334747409729095    0.4987068424093417    0.0109195268188394 O
   0.0053220885546408    0.2590826729172467    0.3772249841652533 O
   0.0003331064502086    0.2690841798423968    0.6203414519097177 O
   0.8381552572324137    0.2714340147394904    0.7439824610953334 O
   0.8365931659678030    0.2440060226296945    0.4991635023606376 O
   0.0042599043715045    0.2577113454153359    0.8681134110763282 O
  -0.0101965568449801    0.5014885539558044    0.1318635398616692 O
   0.6712011845779930    0.0147156695367174    0.8698354847366448 O
  -0.0092292844377666    0.5060587117756057    0.3727171604594046 O
   0.0013218027526184    0.4983844656970370    0.6042790661925040 O
   0.8450115324015117    0.2401923688315586    0.2555425450932280 O
   0.8403345305323223    0.2475930272293830    0.0011153821826531 O
   0.0019078826384170    0.5026093252538828    0.8919818851837366 O
   0.8318825420158295   -0.0138611688903789    0.7458901959493066 O
   0.0162346659843256    0.7507901886412358    0.3752039637095966 O
   0.6693795848056547    0.2445153221496202    0.1225553249505752 O
   0.6623817007269024    0.7478528238256426    0.6252579430452565 O
   0.6699187684233300    0.2515181142003814    0.6241982763519112 O
   0.8367010924392703    0.3601877192988047    0.1298226243835260 O
   0.4990723732905089    0.7581623034492564    0.5011326045553945 O
   0.8453747120764754    0.1306449262475504    0.8602555005985723 O
   0.8458836971290989    0.1339460389867450    0.6260969737272137 O
   0.8350235303255118    0.1210828321567871    0.3803899103726275 O
   0.1771511948689346    0.8738691849073776    0.3904468635110090 O
   0.8415164630537663    0.1208607357763906    0.1324255804262525 O
   0.1693425000595986    0.8550825270649894    0.6286388822109107 O
   0.5028839524521828    0.8683992775732177    0.8711840696860936 O
   0.4989684338381021    0.8755189207301964    0.6437303474233868 O
   0.4937425675785383    0.8807522559015324    0.3610082672831068 O
   0.4913113045605697    0.8815621278671980    0.1218557758439856 O
   0.5012864760902979    0.6188193754617575    0.8875037455037446 O
   0.1654914951482458    0.8689178411516166    0.8767295321523231 O
   0.5011883516012893    0.1279772213605154    0.1119002925074507 O
   0.4990994484767320    0.6208605295251139    0.6057087246298620 O
   0.4993109367781177    0.6210691152332711    0.3779324190433466 O
   0.5112649447559288    0.6228340141285388    0.1263597264432526 O
   0.4897316658765133    0.3736392256607122    0.8717314624835281 O
   0.4855246306845996    0.1237275986952754    0.3845955498770596 O
   0.4946807177626448    0.1319148180507905    0.6287042320591747 O
   0.5121079679636081    0.1391740287308831    0.8710394080736540 O
   0.4996608644376179    0.3671438404495074    0.1307139788863567 O
   0.4951256494500920    0.3743201360674273    0.6240891091742991 O
   0.5117019982740963    0.3724837557361812    0.3738474774362363 O
   0.1701030462744993    0.8771387379153555    0.1062063661643428 O
   0.6678863448173212    0.2452658263174398    0.3799857638588203 O
   0.8361622292068654    0.3637606758822295    0.3740575519127996 O
   0.1660942428737690    0.6192173863129743    0.8841599028862708 O
   0.6850174527399064    0.2517593755781989    0.8712888297858982 O
   0.6759095951287689    0.4836767035832731    0.1302014818017479 O
   0.6670941536302910    0.5012453975086842    0.3715698696079465 O
   0.6594616204986670    0.4997034908430505    0.6224298313568944 O
   0.6657825085512332    0.4994209227873991    0.8756994716298859 O
   0.6618938418590959    0.7690858778385149    0.1203357371227129 O
   0.6517078114901800    0.7524605807013158    0.3790879687820912 O
   0.6623127804735240    0.7363538419361998    0.8769031486583005 O
   0.1562035432937340    0.1258523450753812    0.1249296271542055 O
   0.1759145223086968    0.1129058198681098    0.3811427338663340 O
   0.1593631378992889    0.1390945225217400    0.6259646392565016 O
   0.1446004313044764    0.1204208462929757    0.8658952415415535 O
   0.1643585621139208    0.3695586749876635    0.1298378613104612 O
   0.1464425974221730    0.3880176295126981    0.3737085127959072 O
   0.1651057552881670    0.3782647551712656    0.6164047781780819 O
   0.1646314163011492    0.3885231175913570    0.8788204156883900 O
   0.1634245549650680    0.6259065362462112    0.1271753113707846 O
   0.8388677313997186    0.8803438227156917    0.1232995415156245 O
   0.1715283602431544    0.6254259697289002    0.3743609851036913 O
   0.8315368473490748    0.6197710164310073    0.8770767556077412 O
   0.8252577520106266    0.6237453210364882    0.6223146167803859 O
   0.8302205543982198    0.6396227213483651    0.3721009394081791 O
   0.1772112139048598    0.6269653566062239    0.6184637639276150 O
   0.8285498435430526    0.6406411269398984    0.1303805724174805 O
   0.8413342368088377    0.3797367480816468    0.8863394067051344 O
   0.8394923797832481    0.3779467836648528    0.6087260967752989 O
   0.4919242833324889    0.7541693516455600    0.2441239876893625 O
   0.6680142047971745    0.1282233313201157   -0.0024998753806511 O
   0.5008079153132752    0.4989578984255835    0.7508681870319608 O
   0.3256433209009686    0.1306034810257120    0.7525429099573381 O
   0.3284065952974078    0.3733027413815191    0.0010826448697826 O
   0.3354087347330866    0.3726149987910797    0.2519288708371832 O
   0.3329533137046689    0.3704311460178406    0.4974028814102371 O
   0.3313372324163293    0.3783386007605578    0.7478692021470490 O
   0.3353914901410575    0.6210918688733545    0.0061045236489768 O
   0.3401094086174860    0.6215565627559871    0.2493357947034247 O
   0.3476656631330625    0.6297670348413374    0.4956616864362921 O
   0.3451980856934251    0.6207046950263053    0.7498693496884222 O
   0.3372612464162852    0.8702522169750765   -0.0033230686292425 O
   0.3281899466680980    0.8835399017674969    0.2356329372347217 O
   0.3384899468963158    0.8730984273550887    0.5126010673641409 O
   0.3335215784849552    0.8709971735558251    0.7538978050188357 O
   0.6695567734629689    0.1252213933058003    0.2491918819389015 O
   0.6552166401097703    0.1256754781006031    0.5049030252621225 O
   0.3312746816003481    0.1273363482832691    0.5096539635935865 O
   0.4989906295798053    0.7467563942853059    0.0008482907353244 O
   0.3282179982520104    0.1324686140771324   -0.0185685224888275 O
   0.0026767716848268    0.8631054730425820    0.7492170483002525 O
   0.8304918464603227    0.8660735163414484    0.6242668449387920 O
  -0.0014110441488603    0.1236369668814097   -0.0228000975578684 O
   0.0054526126986075    0.1194483666096086    0.2701050912917556 O
   0.0134062386583501    0.1233160033921368    0.4986043710406319 O
  -0.0034156310024537    0.1301176569739697    0.7504795447294865 O
   0.0053204251453483    0.3750155432571126    0.0073793161276651 O
  -0.0040728813240364    0.3764498965837031    0.2569968903550609 O
   0.6784275733030546    0.1332994001180086    0.7469111361506910 O
  -0.0023281293914722    0.3827403177474208    0.4813477939640602 O
  -0.0022996106154053    0.6219732365519849    0.0079890032576790 O
  -0.0045475332074567    0.6306275642366974    0.2506018370674600 O
   0.0082835531619113    0.6238658978777496    0.4919666688813614 O
  -0.0053114077089975    0.6203903527196981    0.7567725140525451 O
  -0.0017576038496607    0.8851875532544762   -0.0028992331286677 O
   0.0100161163900389    0.8752464508860023    0.2482609492016926 O
   0.0020303768526086    0.8701208049084094    0.5058196134239349 O
  -0.0034640488124096    0.3874658329918893    0.7606673500104079 O
   0.6655710409772869    0.3702263634497770    0.0054239900017435 O
   0.3253271359970848    0.1210687350311624    0.2501208087502253 O
   0.6673924457316941    0.3735342308687547    0.4964971218674863 O
   0.1718329247908593    0.7413135845523169    0.0001597603208451 O
   0.1702314425683964    0.7609929249373171    0.2459218986710789 O
   0.1713770192478033    0.7480297692579690    0.4982264562572702 O
   0.1701590760958052    0.7444583374353668    0.7579854587574166 O
   0.5016721513537887    0.0057702565803696   -0.0094221018336750 O
   0.4875299308414628    0.0073199477089298    0.2426236564196050 O
   0.4967401813255709   -0.0023625985435108    0.5098424446119583 O
   0.1619696786505255    0.5020689770397323    0.7405292517686862 O
   0.4971726667870077    0.0156920375594673    0.7532637121454695 O
   0.4882478379537243    0.2417901087015756    0.2543941615982555 O
   0.4976948696705130    0.2507984587056367    0.5000245946161347 O
   0.4996058905222193    0.2555082242895945    0.7523690238044547 O
   0.5030528603946530    0.4953350017494172    0.0028517253575343 O
   0.5039840184046462    0.4960135460384990    0.2508878982881657 O
   0.4973942956186824    0.4932851499981403    0.4962316466342829 O
   0.6677944657688335    0.3610366630463034    0.2523889036021863 O
   0.4928643805017220    0.2512578540954777   -0.0090442227857660 O
   0.1891345491186263    0.5013363383766705    0.4947616970114164 O
   0.8302249839359561    0.8700925230872162    0.8734390689871953 O
   0.1642684426431441    0.4977893462817136    0.0172667200482644 O
   0.1641519666341757    0.5006462314656527    0.2502539190510784 O
   0.6677534978219670    0.6193034622620569    0.0075629372254052 O
   0.6657693406104102    0.6363469569181092    0.2484999675561379 O
   0.6453239259449910    0.6255553435817879    0.4947884799756663 O
   0.6637708591703773    0.6180951524051558    0.7500919022089020 O
   0.6650686518670351    0.8849276315950751   -0.0070608610061814 O
   0.6607502300170343    0.8776250780866998    0.2491295122299224 O
   0.6577200969562024    0.8757579752033520    0.5034735894906662 O
   0.6674862266864671    0.3782062970682574    0.7451550293417297 O
   0.1539718162360952    0.0089482070548706   -0.0088078292639967 O
   0.1723371029460667   -0.0037497044802089    0.2567615743414121 O
   0.1662684261795153   -0.0030732326003026    0.5107333051081939 O
   0.1683877934799354   -0.0023345787491759    0.7462747575093049 O
   0.1629579555519762    0.2497382377372815    0.0042184803952490 O
   0.1666294121674170    0.2443600097010570    0.2552020885767166 O
   0.1649866878372176    0.2526679783594665    0.4972264999910748 O
   0.6623656288769275    0.8713787529474862    0.7555053982715620 O
   0.1617375066714094    0.2567198294018864    0.7438600465483395 O
   0.5018044893655320    0.0010466895626599    0.6322560222480443 Zn
   0.4946255150511786    0.0010126124799399    0.3794873255982782 Zn
   0.6672199517311033    0.4994941877767561    0.2495184089812581 Zn
   0.1630578220835091    0.5044169143994285    0.6199803266816377 Zn
   0.6639414506084714    0.7467077081883661   -0.0002518743656799 Zn
   0.1658161915847707    0.0022213690057635    0.1162107420803500 Zn
   0.8336316964096776    0.8749728568211024    0.5040526964969565 Zn
   0.8342747228610484    0.3716696875760088    0.0055848876883241 Zn
   0.8334011210355003    0.6233088224823400    0.0046935926266994 Zn
   0.8321061576066102    0.3648976614730056    0.2510149431581011 Zn
   0.1689705644951848    0.3769935136924015    0.2521747964276415 Zn
   0.1636004582389244    0.3827377207655593    0.7496235107245394 Zn
   0.5003202693819309    0.8761056554206018   -0.0033254026661519 Zn
   0.5010054323754728    0.3725315686194594   -0.0031592486057304 Zn
   0.5033737723407729    0.0023202051249980    0.8710445636824150 Zn
   0.8332478965539146    0.8781924105686658    0.2518424322858362 Zn
   0.5005087872401469    0.2468355373170655    0.1257230980643353 Zn
   0.8312238286030290    0.7591909888816485    0.1225700609367049 Zn
   0.6685735505951527    0.0016830294054503    0.2507173806452088 Zn
   0.6722045067806398    0.3783954810133732    0.6234264596418393 Zn
   0.6685074702082271    0.1241216305789566    0.3785903696788273 Zn
   0.3339136196407377    0.6212674723002903    0.8759034402886712 Zn
   0.3342021780275539    0.1278347689047328    0.1255567922164241 Zn
   0.0083970855883532    0.8696387899955308    0.3804317803858838 Zn
   0.0060721974029257    0.7390222865920723    0.7433545230213532 Zn
   0.3300928797516186    0.0052099398565642   -0.0125503894991467 Zn
   0.6679788022913029    0.0024087051839646    0.5058965174041949 Zn
   0.8334318694233867    0.7445376357153720    0.8758644287717539 Zn
   0.3291206044303665    0.4984057465356867    0.0025563508193287 Zn
   0.8342956801935965   -0.0009695966349118    0.8678449944673556 Zn
   0.8399721943430423    0.0021743512257255    0.1203231649916813 Zn
   0.5018022015650156    0.7464431608688997    0.6285605481369423 Zn
   0.4951710126841236    0.7549968140043103    0.3721252880873951 Zn
   0.3334220722539370    0.7504065221306394    0.5074041480045863 Zn
   0.5032121795684857    0.4949689773428206    0.1265023777455681 Zn
   0.8334311957977262    0.7432627480009382    0.6244738827998094 Zn
  -0.0000195400831016    0.2492484336934125    0.0009378464865991 Zn
