Mn47 Ga5 Sn46 Ge47 Te192 Pb47
1.0
  18.7412142265783217   -0.0120477102038424    0.0026024225098061
  -0.0160330214718423   25.0378053740688777   -0.0541271096609828
   0.0034257517744030   -0.0541202760467757   25.1022820225707335
Ga Ge Mn Pb Sn Te
5 47 47 47 46 192
direct
   0.4724338076994126    0.7147431575728652    0.1019757011636129 Ga
  -0.0135563333240612    0.0406187724162207    0.2154173678590850 Ga
   0.1925888102966623    0.8980074586393080    0.7284298786388473 Ga
   0.1891885551077000    0.0247509923217298    0.1024377422064457 Ga
   0.3696518671035589   -0.0239259957139138   -0.0232704678537016 Ga
   0.5302339801934238    0.0697551947770884    0.5684126163870723 Ge
   0.3498055721480297    0.3463801027892505    0.3555215369161507 Ge
   0.8487617144015063    0.3707363499031127    0.4883038690112528 Ge
   0.6626130347243768    0.2646459067559792    0.4876455223951291 Ge
   0.8152325595764077    0.1044801138481716    0.5053343957405755 Ge
   0.8789738406696400    0.0823040573250801    0.2620510536464605 Ge
   0.8455550256080578    0.2523771906763036    0.8624761276819027 Ge
   0.0047440742173479    0.8840830356866225    0.6180510172521571 Ge
  -0.0113956614761870    0.8785005360544426    0.3430461146640518 Ge
   0.8401060126931200    0.5151698682299820    0.1453087085492313 Ge
   0.5174875719309932   -0.0065371195594057    0.3750171842735267 Ge
   0.3204483094781957    0.3771083622335700    0.6374006376145537 Ge
   0.7554203445715634    0.5201210369102267    0.4023385359727868 Ge
   0.0111551945995575    0.6264121353419414    0.1414201494671502 Ge
   0.8061878379233096    0.4835068739157199    0.8746563596913937 Ge
   0.2623419026073726    0.3681820122089082    0.4243603168861488 Ge
   0.4893223197123615    0.3769896048748703    0.7425546005291691 Ge
   0.4964297435794761   -0.0108928455827741    0.6288106371118896 Ge
   0.1649510894941293    0.6415327863554420    0.2621227857022864 Ge
   0.8197264075193827    0.8149192602291999    0.4159135661051159 Ge
   0.2326741010780504    0.6432525810122943    0.7910873541100002 Ge
   0.5299945153301910    0.3299138400036069    0.2087309249027749 Ge
  -0.0550987178181926    0.0790982682308390    0.1272065529926268 Ge
   0.5091466099364960    0.8719795776133518    0.5099071980771465 Ge
   0.5188946179691475    0.1328587636853646    0.7651129675741455 Ge
   0.8127589422028076    0.3831161222883651    0.7397157689446801 Ge
   0.5067074358128258    0.1288646018478526    0.4856330767383676 Ge
   0.7049282507314296    0.6008649154796910    0.3556895605134500 Ge
   0.1731099731528722    0.2595859124463663    0.6181391154358660 Ge
   0.4874851351375586    0.4863044760024911    0.6332717409877534 Ge
  -0.0147087147489502    0.7535554994015705    0.2464479838935377 Ge
   0.3171661513381393    0.6384481809003680    0.3693793916964456 Ge
   0.7226394260501012    0.6323545999589247    0.5569375341809107 Ge
   0.5185797555672287    0.7314838770764783    0.8629700755777535 Ge
   0.3235848495852196   -0.0038799126012819    0.2580819618405889 Ge
   0.8354112531219451    0.0222125499216181    0.1140225604089136 Ge
   0.0162735672810318    0.4988153155326815    0.5099716860983700 Ge
   0.5145341823478139    0.2542645854712924    0.6164070207764891 Ge
   0.8442049650828594    0.8759230333696167    0.4979311177239439 Ge
   0.3510926081320292    0.2488593865221970    0.7404015307395037 Ge
   0.3341830668736854    0.4993741525473847    0.0109246215118197 Ge
   0.0356205329325388    0.7839930882190345    0.3350733379049689 Ge
   0.8597472088042686    0.0420575372909237    0.3494621676780845 Ge
   0.3472661300326846    0.6456460679351156    0.8438134731273351 Ge
   0.8458614357823313   -0.0151476408233667    0.8657631837769085 Ge
   0.2728364560384750    0.2048487151242368    0.2439996691163290 Ge
   0.4476854108728516    0.5148086310197136    0.3625496107846984 Ge
   0.1659912729482830    0.4978069846813955    0.8765369163742481 Mn
   0.5001073410445944    0.3744650041968535   -0.0021419820657459 Mn
   0.5052711780559229    0.2418443039363119    0.1329268507682702 Mn
   0.5005102738954116    0.4967497850272298    0.1321336098405045 Mn
   0.8327210012076096    0.6204328892486713    0.0077092087167452 Mn
   0.4809444955358260    0.6232344097536520    0.4976115455673146 Mn
   0.5101483056337335    0.8747671729399713    0.2460517635465282 Mn
   0.8467998032244222    0.8766187193310754    0.7516192401347552 Mn
   0.8251705477013044    0.2552821973702679    0.3722150038458492 Mn
   0.8238837500025090    0.2544437838514430    0.1306980510243031 Mn
   0.8205623521879908    0.8661259002830075    0.2346010840634817 Mn
   0.8473746395189000    0.6036674883596731    0.5268221141656821 Mn
   0.8244200500943585    0.7431213806494463    0.1261109662195948 Mn
   0.5181506374817629    0.8769737171413526    0.0065564609414876 Mn
   0.0134674628178727    0.0047673910565048   -0.0067704861389334 Mn
   0.8452755903386207    0.7628470927516997    0.6367656918457051 Mn
   0.5141277360266451    0.1101773276903806    0.2482961992009838 Mn
   0.3304700757170005    0.4916681500022587    0.7520226411766210 Mn
   0.3863366153692880    0.5764794150122948    0.4215832605230836 Mn
   0.3328640489139075    0.4974744404255451    0.2746732517154484 Mn
   0.3451162578015454    0.8718103855630425    0.3734755938246478 Mn
   0.6643923717738145    0.1056946458523498    0.1291720682706879 Mn
   0.6625591447457112    0.1214342289849778    0.3969146646621700 Mn
   0.6408882216396542    0.1200406985486140    0.6248699687442151 Mn
   0.6757573277383438    0.1278606571520423    0.8586230862032791 Mn
   0.6530142326079952    0.3705690883098842    0.1483809096562072 Mn
   0.6520357663163773    0.3597230204111307    0.3769960730607950 Mn
   0.6691458211018906    0.6369034193178053    0.1304625553253906 Mn
   0.0011017849643164    0.2604505906418371    0.7467287571114469 Mn
  -0.0098711511829976    0.2587491119194425    0.2522794961968681 Mn
   0.6672542281600300    0.8744500399629183    0.1254249060309997 Mn
   0.0040076002850104    0.0020896340299331    0.7412167926200235 Mn
   0.6672031801001239    0.8695458182401932    0.6281199304275573 Mn
   0.3413876219075138    0.7180478324846591    0.7528142458202247 Mn
   0.3383358275365168    0.3781199832446185    0.8782127481087810 Mn
   0.3333980197156945    0.6218281474383963    0.6228673843760575 Mn
   0.1692078226683353    0.1312258476760843   -0.0218419505924039 Mn
   0.1692647049989550    0.8613354478964254    0.0024876042938730 Mn
   0.0029874408993149    0.1323228371967335    0.6255992875296756 Mn
   0.6711082512933875    0.4931372094000027    0.4898651562179633 Mn
   0.6692298170960465    0.7539964449140104    0.2520180941145184 Mn
  -0.0020878280286993    0.6172844836086117    0.8815817540416533 Mn
   0.1588779216902215    0.3829849111697902    0.2499817679602569 Mn
   0.0044889893270644    0.3785646716835922    0.8770158226674014 Mn
   0.6647032488254145    0.2478161673855200    0.0063821798024110 Mn
   0.1682047484247707    0.1225177680194218    0.2540192753647861 Mn
   0.1625127472172521    0.1388123208537391    0.7463362383224933 Mn
  -0.0032133887882001    0.1329663211997120    0.3824923494436585 Pb
   0.4935816248560264    0.2406227715653117    0.3755784827058565 Pb
  -0.0214626624050001    0.3749688856897926    0.1237431568844217 Pb
   0.5059400281864721    0.2534152051645790    0.8839526764671352 Pb
   0.3333980502226464    0.3717604116516799    0.1338142251239310 Pb
   0.0165172554414638    0.6261794700111756    0.6361840265536556 Pb
   0.3400850305072369    0.8767245882394862    0.1270544823099565 Pb
   0.0139881568936756    0.8728552855111718    0.8667888655020812 Pb
   0.3302493931986802    0.1274794911251612    0.6162715947004157 Pb
   0.8298190908037488   -0.0027994088556756    0.6189138408539635 Pb
   0.8312420706643611    0.2547297645942636    0.6180851608308053 Pb
   0.3454462087841992    0.1361588600783175    0.8726430366175845 Pb
   0.5134022449792632    0.7540929124786392    0.3773729197474903 Pb
  -0.0027441693336074    0.1299587127472489    0.8704620440238877 Pb
   0.6721165632587165    0.8767533984019341    0.8761605287174936 Pb
   0.0180704676048074    0.7551623644971177    0.7526448249368630 Pb
   0.3467041468423214    0.7472504642174344    0.2517330316849893 Pb
   0.1676194441539508    0.8797382452802516    0.2468453963471200 Pb
   0.1728287264534632    0.8810211812186529    0.4939225335250275 Pb
   0.3352039935642798    0.2544244157151984    0.0106194853206674 Pb
   0.4977960706277301    0.1229290022437213    0.0074618011763368 Pb
   0.3348900949818236    0.0106512643223838    0.7441302670062663 Pb
   0.4937157069354612    0.6264188041930606    0.2510713572020607 Pb
   0.6831179535963637    0.0042392322262366    0.0010837051032756 Pb
   0.0036873088215146    0.7563743423813454    0.4969576729822889 Pb
   0.8373192348115177    0.1296938375268348    0.0025945078918571 Pb
   0.8427244058445351    0.1270033994918841    0.7443157516309147 Pb
  -0.0059681222764586    0.7533408107314812    0.0035606638418221 Pb
   0.0016525076625731    0.4980958941611459    0.7523665605703979 Pb
   0.1613002885950124    0.6194793366163968    0.0067556730678872 Pb
   0.6837742868336486   -0.0056245760938465    0.2625039024428877 Pb
   0.8293791728908976    0.6309516836157135    0.2755976023068409 Pb
  -0.0025931289908355    0.5036854783021075    0.2601797817462860 Pb
   0.6525854021065880    0.5004681201023964    0.2611251854224645 Pb
   0.1764726436534695    0.7503225201074589    0.6256250719983056 Pb
   0.1650084505310706    0.4976166598830698    0.6317539054369207 Pb
   0.1419974995624189    0.5097226734736574    0.3782001155447500 Pb
   0.6630369872201798    0.7427660702296566    0.0081748127795416 Pb
   0.6697506843878319    0.7452376974745536    0.7500498656868024 Pb
   0.1707800206528305    0.2561421724401741    0.8695498806420286 Pb
  -0.0121755220987846    0.2465658615862396    0.0046315735275856 Pb
   0.6720085923471651   -0.0019254136666284    0.7458135517596770 Pb
   0.1538360019123254    0.2488819854546035    0.1272963902804182 Pb
   0.1724461475674388   -0.0045693419834960    0.8726506388970521 Pb
   0.6686965276007261    0.7408422388270318    0.4987284169284575 Pb
  -0.0025728928224201    0.4976736697596760    0.0028178106742305 Pb
   0.3337696123201239    0.7398731443252055   -0.0082401576482646 Pb
   0.3322579304814785    0.7422675923687733    0.4973616015528643 Sn
   0.6735093324380369    0.2339312008151183    0.2421288222614869 Sn
   0.3281236427854655    0.6176549132041974    0.1301930219278996 Sn
   0.1710729106543815    0.7434975909593855    0.8788525620439571 Sn
   0.3476887671305304    0.8608636901289874    0.6157740901296361 Sn
   0.3533069402220239    0.0016517018421186    0.4944678980179028 Sn
   0.6696530059506114    0.2548639359952198    0.7518172669702530 Sn
   0.6656330010127228    0.3645927691783993    0.6187363845690104 Sn
   0.6758989696537930    0.3614651660841698    0.8783720529382516 Sn
  -0.0034435464491605    0.2506615903508375    0.5019410235429150 Sn
   0.6732430984193639    0.6135118282829573    0.8908706513138924 Sn
   0.6683139393455099    0.8820393174732304    0.3901550614976715 Sn
  -0.0188502689404393    0.0073393371850754    0.4960989106967191 Sn
   0.4969316665952645   -0.0031467948231432    0.1335054917874590 Sn
   0.3390626108270591    0.2598961277803914    0.5019928067329550 Sn
   0.6705646731969822    0.4886002162715892    0.0200711511437048 Sn
   0.3422874248224045    0.8749957134911187    0.8695125865577167 Sn
   0.3294559518027477    0.1245868661268782    0.1198400596988640 Sn
   0.3342131656750083    0.1112139004796889    0.3685161477601004 Sn
   0.5220370448499718   -0.0085914769735488    0.8633198662202051 Sn
   0.1452000588413728    0.7534580356004675    0.1344144022318896 Sn
   0.1718475218312853    0.4981250568419106    0.1302006906369661 Sn
   0.1637156078199241    0.2537145300086461    0.3781503827517425 Sn
   0.5093089295116372    0.7344116204470708    0.6239131997242532 Sn
   0.1657553558188125    0.0103424212737128    0.6138892577432135 Sn
   0.1577802703355107   -0.0098035312096877    0.3713515348016513 Sn
   0.8409829340249327    0.8773570932766167    0.0018112219680478 Sn
   0.8413083590137620    0.6224224062938968    0.7659417847987865 Sn
   0.8273470955364954    0.3704176076375126    0.2516257106925793 Sn
   0.8242604713242633    0.3779317808188116    0.0061578902026823 Sn
   0.5029592668133392    0.8650402743869270    0.7583156004829575 Sn
   0.6407097577290088    0.6081121596656370    0.6428780595519337 Sn
   0.4759872111322281    0.4972109975993804    0.8812562598327602 Sn
   0.4983902060955940    0.6150873700622423   -0.0070102091491874 Sn
  -0.0162897381268528    0.8802884110564859    0.1141658030833592 Sn
   0.7833697906141691    0.5403010579648617    0.6177219955440347 Sn
   0.0006849528543761    0.6251231801408390    0.3853046302588907 Sn
   0.1750639980605930    0.3729114349016625   -0.0000321164613149 Sn
  -0.0068968634894422    0.3757038778985086    0.6308973826081944 Sn
   0.1750639731853396    0.1324239875440292    0.4986892029020719 Sn
   0.1637951150109239    0.3746504566303689    0.7509338728819487 Sn
   0.1648734431765191    0.6200387868049132    0.5018249998887809 Sn
   0.8388526942054232    0.7380860330089872    0.8741001411874054 Sn
   0.4901810347920946    0.3930968417512682    0.4894803475869409 Sn
  -0.0258049106139440    0.3850334393690983    0.3768754053512251 Sn
   0.6559274413754530    0.4976430995184817    0.7487105046201300 Sn
   0.3206114739807716    0.4915235202048851    0.8657440366590884 Te
   0.6575028061831892    0.0071790467264820    0.6212201110464095 Te
   0.3379777603628614    0.7442511928661486    0.1245056612602356 Te
   0.3371525168966423    0.7518514866277354    0.3771020345668798 Te
   0.3441101036615750    0.7370448859225579    0.6380372888449175 Te
   0.3490632934508040    0.7531984423213113    0.8653525831820580 Te
   0.6746140888647020   -0.0070144315022018    0.1261154949658565 Te
   0.6657046633504908    0.0089986969469951    0.3857184115668164 Te
   0.3373834807390308    0.4945873946295289    0.6337072177893434 Te
   0.6732178103222534    0.2391027578705733    0.8865231611089259 Te
   0.6597837634053267    0.2599712999000210    0.1258982254581077 Te
   0.6672256599004669    0.2423441306622970    0.3766592058068906 Te
   0.6635724092789943    0.2343628513254521    0.6274894175890127 Te
   0.6516895664269430    0.4848702529279431    0.1370392317125964 Te
   0.6271908849329532    0.4739379780022484    0.3831650483475099 Te
   0.6379581530953738    0.4885365364440422    0.6009796157938641 Te
   0.6629545007363462    0.4929986887263250    0.8781282559312624 Te
   0.3057644192899847    0.5022290508068251    0.3863040705845907 Te
   0.6722721272637621    0.7490239878114783    0.1349184368638057 Te
   0.6911192395882427    0.0140701001915750    0.8746017349083175 Te
   0.3459911507080818    0.4992643282548261    0.1244125348076903 Te
  -0.0096806857697385    0.4987207645633964    0.6217676178894312 Te
   0.3307524655197728    0.2578825649508874    0.6298336132126291 Te
   0.6847749699700593    0.7627658330917032    0.3706161172032835 Te
  -0.0060781821919484    0.0036342154827977    0.3710930752585280 Te
   0.0027654950282121    0.0022279052032283    0.6273806761251353 Te
  -0.0043993508042696    0.0018812395434007    0.8762169906998595 Te
  -0.0201135877406140    0.2497164911663347    0.1350376546479897 Te
  -0.0239827380499705    0.2574800527951006    0.3699999035845012 Te
  -0.0000951318502291    0.2465449095574477    0.6332658859847525 Te
  -0.0028121204202833    0.2603053504894436    0.8657807222446168 Te
  -0.0109941648375893    0.5073078832797024    0.1324232359710807 Te
  -0.0262961963428327    0.5059707531777872    0.3894058617024657 Te
   0.0107480697510836    0.4963158552638984    0.8779790744243369 Te
  -0.0187265922349315    0.7397466444212673    0.1298059493148951 Te
  -0.0726649918687226    0.7374866187934950    0.3850347436115380 Te
  -0.0028539927507297    0.7676554359401305    0.6273614822831917 Te
   0.0012900209487799    0.7379763623805151    0.8777747664794006 Te
   0.3281427606039694    0.0027978275597373    0.1220921928008899 Te
   0.3417429584899454   -0.0100437758581258    0.3698670786019879 Te
   0.3461674522976413   -0.0020226260974991    0.6171539137369323 Te
   0.3450286922922310    0.0064204240441660    0.8754382565048181 Te
   0.3486397008648411    0.2469046468375645    0.1438351443541547 Te
   0.3264439202714363    0.2380740389970331    0.3473336798145896 Te
   0.3372112005135867    0.2641906053128906    0.8779871933580511 Te
   0.6684089377417145    0.7571540579325523    0.6264317302159483 Te
   0.8053716421187034    0.3690117126997918    0.1333973278895584 Te
   0.1668560737911788    0.1249645768753574    0.1415259203016401 Te
   0.4869937755802203    0.6138444210228930    0.6112339274910211 Te
   0.5008789983140965    0.6237395372723777    0.8704806043654290 Te
   0.5133453379351722    0.8772552191020694    0.1241788842474532 Te
   0.5018547299400069    0.8797954028156496    0.3618813622970746 Te
   0.5108553929469197    0.8722094461759922    0.6288589349969130 Te
   0.5059784422640234    0.8752912199574739    0.8885693740478885 Te
   0.8124326920205492    0.1390181435104328    0.1311768553850772 Te
   0.8133591582618677    0.1382738688062231    0.3913387024241959 Te
   0.8490759917107966    0.1255110235854852    0.6149090239375531 Te
   0.4887303487721421    0.6253951631602163    0.3783962951318598 Te
   0.8264239470614454    0.1391438174756824    0.8747368550768772 Te
   0.8062292408557464    0.3690397242299515    0.3751192288290482 Te
   0.8244784184102127    0.3822644300944373    0.6319125529493079 Te
   0.8441819448442346    0.3712491847534314    0.8796244017870479 Te
   0.8200834736170144    0.6248011836509076    0.1273022340217214 Te
   0.8172988907272016    0.6273896070175727    0.4164786384385609 Te
   0.8462074373312991    0.6478008239301750    0.6326512857282868 Te
   0.8417797313141198    0.6173576322976517    0.8895118563128067 Te
   0.8227299562160033    0.8589950813628442    0.1212648260262607 Te
   0.8408461268518925    0.8935658940202966    0.3440106148398630 Te
   0.0373597710853737   -0.0037263930643666    0.1094297847994123 Te
   0.5171655339177434    0.6141898976618155    0.1241938946535616 Te
   0.4903236460943783    0.3785953907396805    0.8849114266082563 Te
   0.4968050292292744    0.3675468227062365    0.6309269322189422 Te
   0.1709316521277311    0.1303055767202046    0.3657952828705968 Te
   0.1577861493390487    0.1300568943397042    0.6315152100588518 Te
   0.1693928786409028    0.1273466932301827    0.8649064055457996 Te
   0.1608524563314236    0.3777005466811490    0.1309665284054136 Te
   0.1412071770089741    0.3787655992854607    0.3661951819691677 Te
   0.1659729160639553    0.3690902814119891    0.6248087930909971 Te
   0.1642424175886254    0.3825385627217577    0.8785466969568390 Te
   0.1600890595972123    0.6241584570459231    0.1348994113240576 Te
   0.1647810901299085    0.6407157077420066    0.3745234722643919 Te
   0.1830145071269173    0.6246010441582835    0.6295774419656714 Te
   0.1532587939771142    0.6140366954404173    0.8805315873550965 Te
   0.1673813949779894    0.8678213377168768    0.1157608486623042 Te
   0.1923587197195901    0.8752530742070604    0.3710474485233480 Te
   0.1690043341912964    0.8810306809439552    0.6247389237310202 Te
   0.1781332559949028    0.8694523897822063    0.8885749373030741 Te
   0.5152615083409147    0.1263035325611231    0.1336660179280121 Te
   0.5175513182396310    0.1147934524362730    0.3674017904665227 Te
   0.4949666898234991    0.1423966274047406    0.6481733363191210 Te
   0.5250878470058102    0.1217862299026828    0.8774506278613050 Te
   0.5041441665282465    0.3830353292586842    0.1145312315090487 Te
   0.4938377439519160    0.3641216889832284    0.3711576364989778 Te
   0.6674810983285497    0.7458320073303095    0.8782064435471991 Te
   0.8421518156249821    0.7626055354127073    0.7502373116026122 Te
   0.1774151032912570    0.4933520858052215   -0.0034449257741103 Te
   0.8286556036801697    0.7546756231869158    0.2429749693983423 Te
   0.3381232176220941    0.3747523603508763    0.7580579434018239 Te
   0.3375559456811608    0.6124664402736475   -0.0008496523025322 Te
   0.3234320326129457    0.6114197659774218    0.2581913138931212 Te
   0.3281418279814852    0.6183691576060426    0.5052139803867531 Te
   0.3592333964304880    0.6066059396445943    0.7352826841098353 Te
   0.3241875267620586    0.8769983915065678   -0.0001994134228507 Te
   0.3516752545158724    0.8784032376435423    0.2548876086017662 Te
   0.3518959753091764    0.8713020429250690    0.4912394338516250 Te
   0.3324052974109504    0.8813316529470452    0.7434963278159886 Te
   0.3359022560554006    0.3794442018260875    0.5204301246311270 Te
   0.6675252449733459    0.1309936667394984    0.0174703643052196 Te
   0.6655674079269941    0.1237555457011364    0.5091118081213598 Te
   0.6712175220683981    0.1271933038411230    0.7447449668754444 Te
   0.6544499362958470    0.3647190347616699   -0.0035303862921713 Te
   0.6530486077488430    0.3682078166158407    0.2602045614162503 Te
   0.6567582705463421    0.3759030379721911    0.4918723596700813 Te
   0.6630967005931812    0.3740598079885689    0.7514827371128058 Te
   0.6750706899214181    0.6159717595742663    0.0175679088935350 Te
   0.6649961602195764    0.6342128935142737    0.2458004268041803 Te
   0.6279372119468916    0.5994993814772480    0.4835708834086133 Te
   0.6663367167352318    0.1172014595368469    0.2428823380249636 Te
   0.6765057752583111    0.6186758152656306    0.7585800086426010 Te
   0.3143687904882694    0.3855166292546280    0.2578014645563224 Te
   0.3148042221930592    0.1387803357949247    0.7467836199128094 Te
   0.8187033604883077    0.8740869166564557    0.6400671115171870 Te
   0.0147446955370013    0.1222865861095136   -0.0033080966649684 Te
   0.0177599888137444    0.1428191487864772    0.2571912627122960 Te
   0.0071222290956154    0.1310132512530530    0.5100446467822191 Te
   0.0109897123220953    0.1197181589216506    0.7411848791058736 Te
   0.0001871665273235    0.3712069496924906   -0.0070006788970513 Te
  -0.0029208084418803    0.3752571176197490    0.2488828978542862 Te
  -0.0070900765981653    0.3738148604787866    0.5042965487668004 Te
   0.0012723281847820    0.3715028798225170    0.7605417028848164 Te
   0.3441435397783181    0.3814240153409247   -0.0046113260143674 Te
  -0.0132389907644469    0.6230395500076756   -0.0014395989118110 Te
  -0.0098953602406217    0.6260917989534008    0.5102077665764210 Te
   0.0012136724756536    0.6261319832891158    0.7644022252422186 Te
   0.0192536187600432    0.8866907731801498   -0.0048292970371703 Te
  -0.0042993808862878    0.8746370125123789    0.2343726199594729 Te
  -0.0042380071730465    0.8838341714662088    0.5011217641339004 Te
  -0.0027984787935284    0.8880949359549062    0.7423654798693556 Te
   0.3244654695011689    0.1306013788799194   -0.0009748840550414 Te
   0.3581706503644354    0.1059674899984843    0.2467067494837031 Te
   0.3567345753008195    0.1321296674470705    0.4928026000669347 Te
  -0.0015849558866927    0.6348450737646658    0.2543687630803773 Te
   0.6689286525037204    0.8749751936564891    0.0075318128297686 Te
   0.6683157194773820    0.8688401052645012    0.2400938887732652 Te
   0.6561205347821180    0.8721769698024531    0.5127918092607663 Te
   0.4803815105654675    0.4953856839272697    0.2481486639671660 Te
   0.4590021120985548    0.5101767393637994    0.4803447168501432 Te
   0.4906580848529531    0.4900654866060615    0.7474020018669066 Te
   0.4970628344401883    0.7618070385944253    0.0067152274536602 Te
   0.5154242576679635    0.7577378222209520    0.2505765209916259 Te
   0.4985725812216795    0.7369087277177914    0.5031445255616916 Te
   0.4908541091093641    0.7423688669012841    0.7525754848101639 Te
   0.8578649075747807   -0.0025009226087039    0.0044855805825043 Te
   0.8470558161752917   -0.0183303245554122    0.2188510152349520 Te
   0.4996616465078323    0.4929459451553620    0.0086584599989107 Te
   0.8216024633224521   -0.0067650236844136    0.4933710154027290 Te
   0.8172718695612510    0.2557730657681245    0.0152317782811199 Te
   0.8338216687912693    0.2486928241180958    0.2544274923655374 Te
   0.8209650455032561    0.2602493585969550    0.4911115167769824 Te
   0.8461237659421899    0.2546957644939460    0.7505462632937289 Te
   0.8277118939323085    0.5014772252175386    0.0050193256531618 Te
   0.8255691680551039    0.5039151166401250    0.2524958039281742 Te
   0.8181092990010929    0.4959008619226525    0.5080969428695733 Te
   0.8284632274888114    0.4934067847280804    0.7629140339065280 Te
   0.8302716331800767    0.7374428244358012    0.0079821940187612 Te
   0.8498030662731072   -0.0044952608645252    0.7535177573188786 Te
   0.5002214178866526    0.2509408654700115    0.7569551404082383 Te
   0.5132437674188262    0.2468756020701359    0.5040590272733971 Te
   0.5038926431767119    0.2291649882452842    0.2477566486141331 Te
   0.6659743512792585    0.8744601528742333    0.7469577171067510 Te
   0.1673778205731845    0.0187373030306687   -0.0041270010365623 Te
   0.1752077184265910    0.0093030797819320    0.2540948053346392 Te
   0.1726920270209432    0.0104359339101171    0.4959927298053130 Te
   0.1570070332956219    0.0019842897070258    0.7461429874646924 Te
   0.1639661638847616    0.2429521922167295    0.0009463522410499 Te
   0.1486899462633192    0.2669711576679473    0.2536394260433422 Te
   0.1721763242302272    0.2535255523904639    0.5034664644241689 Te
   0.1531468932575544    0.2518327289198535    0.7435362376444915 Te
   0.1733768192909099    0.4972143538872667    0.2496340910542739 Te
   0.1598723605387784    0.4979013424634265    0.5048124196460188 Te
   0.1788965497743381    0.4960748711686069    0.7587138403772831 Te
   0.1655327126142631    0.7487595841170931    0.0030216273173632 Te
   0.1732131218448195    0.7508484123966441    0.2529145331921523 Te
   0.1713474019777548    0.7515750556675296    0.4998631498329605 Te
   0.1907810663534425    0.7456182217969265    0.7583017510078309 Te
   0.5066819394702562   -0.0094013663474479    0.0027417627650267 Te
   0.5106569709121598   -0.0063261282935740    0.2500440750155875 Te
   0.5105839992652385   -0.0165122410861849    0.4886717212899985 Te
   0.5024066083982535    0.0088337327137109    0.7465996557009416 Te
   0.5081558565168044    0.2559098936011080    0.0166630653073617 Te
   0.8320737189935510    0.7661664340439284    0.5235386286801088 Te
   0.8410232361334895    0.8735689298456587    0.8697086601962609 Te
