Ag64 Sn64 Sb64 Te96 Se96
1.0
  18.2575245139624620   -0.0083964025522569    0.0003864840316615
  -0.0111892016335629   24.1667338949338308   -0.0104305873934487
   0.0005179070291068   -0.0104094732488536   24.2984067112158755
Ag Sb Se Sn Te
64 64 96 64 96
direct
   0.8474761845508334    0.8878982502664157    0.2472534356074830 Ag
   0.6600335994277161    0.0065955821243600    0.7550579329144622 Ag
   0.1810246391482903    0.2510048364869695    0.1354876959859825 Ag
  -0.0087511564372037    0.6277169975031538    0.1304515898695205 Ag
   0.6805937764816167    0.2638655437536164    0.4861082214377843 Ag
   0.0133141974126423    0.3553079862652535    0.6341341076943283 Ag
   0.7964721277167984    0.1273781716189217    0.2371306746946871 Ag
   0.1898040549961068    0.2480608879260547    0.3693260802673737 Ag
   0.0025544452674953    0.1124332578811057    0.6225583148406894 Ag
   0.6779252453091489    0.5004401364448658    0.7642837400440550 Ag
   0.6625763189132911    0.7628000276032498    0.0206317817619752 Ag
   0.8498797008964839    0.7631263943705273    0.8642554800839597 Ag
   0.8050508123660842    0.7450429926716714    0.6196342107830659 Ag
   0.1737112950227545    0.5010859600225237    0.3499513082653479 Ag
   0.8144967883027735    0.5013925424175132    0.8757301937423414 Ag
   0.8300217776751999    0.5036157249041108    0.6234902125261698 Ag
   0.8195540037797648    0.4926042809202451    0.1290618903181845 Ag
   0.1850873938159560    0.3984920904001762   -0.0002187529805408 Ag
   0.8398387950159908    0.2568113018979450    0.3728512341036523 Ag
   0.1775924967587906    0.3706497939771120    0.7469254244650700 Ag
   0.1525097883082693    0.6307403398351898   -0.0133913150769207 Ag
   0.1519462723235138    0.7464172572173389    0.1305961725510235 Ag
   0.1809331573541865    0.6250419505979059    0.7499704959947686 Ag
   0.1679704546444469    0.8999473330232542    0.0228964460368357 Ag
   0.1907011707810950    0.8759038191984991    0.2470454522482524 Ag
   0.1690038804371570    0.7391619115935669    0.6230147377276872 Ag
   0.4853749256455424    0.7559210513931400    0.6301643420987919 Ag
   0.4816392901174743    0.7300534612258331    0.1309200464801241 Ag
   0.4921872277909534    0.0083561654922756    0.6200077501939737 Ag
   0.4915841961055104    0.4794605254720250    0.1291251822181057 Ag
   0.5079004786410558    0.2512509568508313    0.8785966980271610 Ag
   0.8481524839500904    0.1159098612791563    0.7426394203480317 Ag
   0.6401884846252059    0.0117636470901991    0.5016506309080051 Ag
  -0.0013163262396303    0.8706312698191274    0.6253679726092868 Ag
   0.6816754813920523    0.8666611076368013    0.1195269944467476 Ag
   0.6657747337441656    0.6144920444266813    0.6464258222969818 Ag
   0.6792078777354523    0.6350100099667730    0.3901567899225764 Ag
   0.8429906729587683    0.6494277861602160    0.2555458285628034 Ag
   0.6624234210267195    0.3796680463072837    0.6315553350176164 Ag
   0.6957976569672211    0.4013261948570891    0.1290152965103979 Ag
   0.0369192671317407    0.2711833854975515    0.7463937845395652 Ag
   0.6696694977609899    0.1354927218675491    0.8754728485427939 Ag
   0.6512449184485433    0.1278655980157496    0.1298760699755484 Ag
   0.3080069542511641    0.8566849280669441    0.3649745265448548 Ag
   0.1750554868439752   -0.0122822291568407    0.1144978499817214 Ag
   0.0132532325985358    0.7551444814959535    0.2564169411686613 Ag
   0.8694012322287273    0.3966599378831109    0.0172103849670317 Ag
   0.3159709796454702    0.3733033037461232    0.8877063853118060 Ag
   0.3196592130747349    0.0096214107387357    0.0047501065405357 Ag
   0.8297883117463914    0.3741632838575444    0.5039075008305876 Ag
   0.3382666526376421    0.3729186939853863    0.6227394160702903 Ag
   0.3292172894938775    0.7463656094546602    0.5014753008046422 Ag
   0.3377867142755342    0.7431893253989705    0.2650493925863888 Ag
  -0.0131070594104390    0.8784581114925307    0.8688369752427055 Ag
   0.3392737361997176    0.0987181222641885    0.1252778855837527 Ag
   0.3312453508039657    0.4940287148505087    0.4960363174887013 Ag
   0.3316916850154774    0.5021358678569042    0.2511144444767470 Ag
   0.3176964973942389    0.4913513176018463   -0.0169729089235472 Ag
   0.2947278535190794   -0.0215621210677609    0.2243674938404075 Ag
   0.4920940616985174    0.2448162886002885    0.1168952275000295 Ag
   0.3443097170541214    0.1118324226086175    0.6308480569364630 Ag
   0.3307541907556356    0.2400598520817806    0.2447229178979091 Ag
   0.3400493077817107    0.1372922087389778    0.8827304262820809 Ag
   0.3782036683800758    0.3350814279935178    0.1205067327040565 Ag
   0.1641200403268495    0.4931097565239822    0.8702420100730016 Sb
   0.1693668012381133    0.4980706207624458    0.6191524143370747 Sb
   0.4865653785318234   -0.0210126004942688    0.1213000963870890 Sb
   0.1833367549702823    0.2589956157171958    0.8857070196697679 Sb
   0.8189855262898840    0.8830956067460547    0.7423444356334430 Sb
   0.1668971802318011   -0.0083632521773128    0.6200381292403766 Sb
  -0.0091163458980432    0.0008395486544739   -0.0074517715006993 Sb
   0.5100721581852824    0.2495698096069247    0.6196598052216276 Sb
   0.6588506222928985    0.6292019155355043    0.1341508253224144 Sb
   0.6701229951116167    0.1319646017159766    0.3675732777068931 Sb
   0.3561264073412594    0.6236442827136388    0.3778789683686799 Sb
   0.3173509177120168    0.6123911323631661    0.1266611144706822 Sb
   0.3221157989531906    0.1094350800705593    0.3698688639618309 Sb
   0.0099539835482675    0.8617596116588482    0.1249932313641670 Sb
   0.0124714662507478    0.6332542840321086    0.8730346890821250 Sb
   0.0097996622501750    0.6313324336457166    0.3781100684266663 Sb
   0.4978668009793941    0.2392659288817562    0.3635850700760250 Sb
   0.0190749504578239    0.3804863272343842    0.1184325742585296 Sb
   0.8167702120403720    0.8619718926009515    0.5021296343139549 Sb
   0.8261997422149689    0.7533596275414004    0.1347769331541422 Sb
   0.8337524024978273    0.2472522092521749    0.1284830146638572 Sb
   0.8166313609723476   -0.0083134308325273    0.6200439981292718 Sb
   0.8235763326637806    0.0090943573157366    0.3652945870883981 Sb
   0.8284928096495910    0.0112251338407030    0.1273596112752084 Sb
   0.5017124017907406    0.4952469563090375    0.8817240347109665 Sb
   0.4978803606469427    0.4917149169961828    0.3765416612315352 Sb
   0.0059733768126077    0.1305906309173163    0.8708280248840045 Sb
   0.0151887645681037    0.1225732065604686    0.1270267400761345 Sb
   0.6629352299187157    0.8743792513516744    0.8773697660218872 Sb
   0.8404770741503200    0.6292304359644528    0.7564622663278093 Sb
   0.4901161948611650    0.1189380364692136    0.2455534746865448 Sb
   0.1547931280803005    0.6178226765439110    0.5088041567021757 Sb
   0.1631625565152267    0.3786008106612858    0.4983764523565067 Sb
   0.1793303072682723    0.3858509252774404    0.2409940580904784 Sb
   0.1599891660370432    0.1168550033656501    0.5049226428762373 Sb
   0.1589353991088693    0.1122594109670900    0.2529475423364572 Sb
   0.6619706708186016    0.5059601487798298    0.4977340021026479 Sb
   0.6874599228666218    0.2542000272332689    0.7444032802346204 Sb
   0.6531302037831200    0.0024745628700537    0.2510439688329177 Sb
   0.3250960706034042    0.7509965321984309    0.7615201775262980 Sb
   0.3099607635855195    0.7451746025317267    0.0072634488057497 Sb
   0.3498588470195330    0.4964122560266360    0.7408249422842961 Sb
   0.3542066268850910    0.2467451083447470    0.7387355828763082 Sb
   0.3229374366472055   -0.0082470226980851    0.7510234580017896 Sb
   0.3224690399614483   -0.0050211866052138    0.4824805411958808 Sb
   0.0019987464803679    0.7503044922302513    0.4992664613521607 Sb
  -0.0137870743086474    0.5039893427960682    0.2505517231756293 Sb
  -0.0019780086949826    0.5097967643510543   -0.0024938309561156 Sb
   0.0110877819866883    0.2419940770020114    0.4999543441267124 Sb
   0.0081111077557869    0.2473070150680002    0.2567714201401675 Sb
  -0.0102079103922770   -0.0086673332076664    0.4931349008154300 Sb
  -0.0057176744617698    0.0044937936193070    0.2482900824289827 Sb
   0.8362094773001516    0.8793599134434825   -0.0071025099623826 Sb
   0.4970570996056184    0.1223907534143531    0.4888767441280722 Sb
   0.5170343685646718    0.1211232752079561    0.7510548239061127 Sb
   0.6606185480807549    0.2652162701295216    0.2398504860210622 Sb
   0.8225460191247481    0.1430367256609394    0.0045358828444329 Sb
   0.4926112299631807    0.6349286785947682    0.5170573026558654 Sb
   0.8569446590942663    0.3808907843619254    0.7484412266003228 Sb
   0.5148539621241851    0.6245992032047897    0.2590868894792600 Sb
   0.4952061737503056    0.8581921124751202    0.2387801743757185 Sb
   0.4952201199505261    0.8714526634619170    0.4917096672501247 Sb
   0.8157934651478106    0.6270920863744769    0.0162335660257824 Sb
   0.5064789204162307    0.3819845532434779    0.7555891559304424 Sb
   0.8385743121606509    0.7649494187756503    0.2474878694437428 Se
  -0.0132000506078697    0.0100211346875830    0.8729418163185452 Se
  -0.0093131165496108    0.0031502406753684    0.3714480509263087 Se
   0.5122738100979076    0.4981612771764944    0.7509761530478292 Se
   0.5079626152992613    0.7484822615573198    0.0112659973160948 Se
   0.5044259395210874    0.7345958407003468    0.2472903061385280 Se
   0.8352459973524367    0.3770554594047541    0.3815004583853714 Se
   0.4861015143466388    0.7471990118547820    0.5078604262606419 Se
   0.8314253932765662    0.1214607329921846    0.3725362195335016 Se
   0.8440799429637876    0.1232443056468868    0.1301921826766606 Se
   0.4922518022467935    0.5065268815652189    0.4948129782856680 Se
   0.4903926940207325    0.8704966666556777    0.6037471431003437 Se
   0.8206184381976104   -0.0062191997113097    0.7440161323608263 Se
   0.8412407657237380    0.4939049657570103    0.2506277306170528 Se
   0.8399925040888842    0.7531468001637122    0.5041701993749516 Se
   0.8313324510724741    0.5012698356177389    0.5024421292284869 Se
   0.8156654181011511    0.0097308729844096    0.2507173560168486 Se
   0.1568491894325155    0.8818788884245375    0.6205793819833028 Se
   0.5017189240675378    0.2499093405456708    0.0016467968001488 Se
   0.3267009288121473    0.8791993597365418    0.7458343248510440 Se
   0.6788761318260443    0.1369934710622894    0.0109580703515271 Se
   0.6497479250390924    0.1273488656335762    0.2566469752213675 Se
   0.6681718601815843    0.3766675276480975    0.2456489088005429 Se
   0.6622002876216946    0.6383054502674138    0.0086147996889043 Se
   0.6770232153742813    0.6231888000899540    0.7583991064005614 Se
   0.8293263040070135    0.3875587403400572    0.8635207711163387 Se
   0.1518394663851268   -0.0071077297278789    0.2454653013012227 Se
   0.1572942477717376   -0.0010737563479539    0.4919732432736770 Se
   0.1615677143041757   -0.0009125479060367    0.7428845009931491 Se
   0.1717765604374576    0.2565702656563587   -0.0052560300850011 Se
   0.1558168304413056    0.2453958283091539    0.4863316088907836 Se
   0.1530145369532369    0.5078259655105811   -0.0117552494890658 Se
   0.1675856507128090    0.4950500005426622    0.2362971631752697 Se
   0.1687605920801307    0.4893074852269410    0.4994721524235727 Se
   0.1623268159271488    0.7455221187000961    0.0122901661124109 Se
   0.1802689721969435    0.7442979504208979    0.7573939710883660 Se
   0.4837845577774736    0.0105690677984656    0.5017260933855654 Se
   0.5042564498785526    0.0110307114522243    0.7391936666288094 Se
  -0.0061238206366909    0.2481704109369514    0.3678265766978301 Se
   0.4975365686195750    0.2362176065072147    0.2487387790483532 Se
  -0.0010401336967857    0.7516909531554746    0.1335964990214478 Se
   0.5008630118708502    0.8605681242323255    0.3663011553223051 Se
   0.6519175492872925    0.5056832339900101    0.8772409392473953 Se
   0.5038924884391759    0.3730367882769369    0.3737461210483016 Se
   0.6761877907539796    0.7510628275263195    0.1332616522621415 Se
   0.6777107028984258    0.7523768953903435    0.3847606821116823 Se
   0.6569151895460538    0.7540257128645727    0.6297214254475600 Se
   0.6680782870730264    0.7647328278163156    0.8733116154710944 Se
   0.5170801688127377    0.3661382467736660    0.1251916148401250 Se
   0.5126018955692128    0.1329092046201499    0.8844726824721090 Se
   0.6656180513463943    0.5081171156976413    0.3876211877701370 Se
   0.1631657493719899    0.1061491728282097    0.1330469387066575 Se
   0.5005355226651588    0.1400633028931306    0.6321224426047907 Se
   0.1780834855104102    0.1178490479472119    0.6167033614571968 Se
   0.1642590685193938    0.3822022396646862    0.8719657867153243 Se
   0.1701438569922432    0.6278836365421183    0.1285138749155321 Se
   0.1605519665034169    0.6229306430299384    0.6242263055777932 Se
   0.1611000590459684    0.6256623044002062    0.8703453930939659 Se
   0.1712847095204038    0.8657553157640392    0.1273772131376383 Se
   0.4848459420487843    0.1141799995127861    0.3745740361449164 Se
   0.1786855486798823    0.1254374074013975    0.3752615611216207 Se
   0.0217872594407079    0.5006934259096276    0.6239431901641854 Se
   0.6636371717533646    0.5098074240468764    0.1325144513148194 Se
   0.6842484255142415    0.2411788990276523    0.1306616151584223 Se
   0.1610631619407854    0.8671823063766142    0.3709424865573061 Se
   0.4885401746196690    0.8598772763604029    0.1267108987917041 Se
   0.0107406353928269    0.7466707178530801    0.3792850273664949 Se
   0.3375772017224279   -0.0202046606516696    0.1179654196015679 Se
   0.5037422733821642    0.6347488169929976    0.6285730683632619 Se
   0.5084645896120042    0.6147117602804617    0.3804466344764915 Se
   0.3200487232273077   -0.0199216335558169    0.3743006849011562 Se
   0.3502867401857200    0.2347843087722963    0.3651820918911863 Se
   0.6687080783757556    0.2542449522139074    0.8825416569027112 Se
   0.5119103139897292    0.6206413396247457    0.1392744531245149 Se
   0.3414244589795203    0.4960583600933307    0.6298763743442153 Se
   0.3384121930578388    0.8586298000760082    0.2460061080896983 Se
   0.3155089891568355    0.4913537594144952    0.8694999577662392 Se
   0.5020852686732971    0.3847338570256245    0.8774346935423237 Se
   0.3371102784759704    0.7416481645288806    0.1183128609010874 Se
   0.3493052155723320    0.7368739937555657    0.3786516878463043 Se
   0.3415482204013097    0.7466450530897124    0.8826605255338299 Se
   0.6548751263624313    0.0123224975867342    0.8744470498072003 Se
   0.3475865200113805    0.2529107266253364    0.6270349557635149 Se
   0.3354088221317006    0.3532143534309879    0.2393289044703309 Se
   0.6434806905526711    0.8815339664719111    0.4950023579317336 Se
   0.8300723678246698    0.8790110133555736    0.8820434954586754 Se
   0.8215846042076963    0.8648643027801923    0.6152274814920640 Se
  -0.0036362747246331    0.8882936366036983   -0.0059977710284213 Se
   0.3378873692030052    0.1240873320173231   -0.0041193263071726 Se
  -0.0040004869340169    0.1172521519934019    0.2499699720919737 Se
  -0.0146106075285047    0.8740776965071403    0.4983822105605240 Se
   0.0114994151418447    0.6276993089496034    0.7536441611840385 Se
   0.0011806723759795    0.6234550736449158    0.5027315948696842 Se
   0.0018232672397872    0.1154896874053006    0.5005002024992617 Se
   0.0104624058111529    0.3823553717440349    0.7511757756497095 Se
   0.0187652918089907    0.3869063147501646    0.0040486567771854 Se
   0.6672889203625271    0.7467264871525312    0.7504962897876596 Sn
   0.6529539001226518    0.7585616109058999    0.5075022769713551 Sn
   0.1776328817365029    0.1361616317153139    0.0172180366841612 Sn
   0.6749856389279997    0.7546796501532654    0.2577805640322838 Sn
   0.0026674943790044    0.1262911064966444    0.3760091628675582 Sn
   0.8323970952796513    0.4970306588914423    0.3798058369518813 Sn
   0.8426785306700013    0.7539958134270121    0.3711646978747438 Sn
   0.6463823626648476    0.5135435537384834    0.0103262868377838 Sn
  -0.0002594097542618    0.3713970803570747    0.3808531489592379 Sn
  -0.0071598849807176    0.3848801622142434    0.8765263141347805 Sn
   0.6611745767703486    0.2582883972255591   -0.0024593328881946 Sn
  -0.0068815167200637    0.6214300353886993    0.6295339855569644 Sn
   0.6472171076048627    0.0150279556052987   -0.0067770074826878 Sn
  -0.0015865820369060    0.8763061842596990    0.3729492935521901 Sn
   0.3287153502096499    0.2504653748806018    0.4881456034543347 Sn
   0.3380003583370655    0.2496344307234595    0.0067577513431705 Sn
   0.3421310087541294    0.3640559151176425    0.3549823705799965 Sn
  -0.0048752183011874    0.7584972887658137    0.0089397444714311 Sn
   0.3266577115946305    0.6207045869631918    0.6274814621818708 Sn
   0.3289991780309518    0.6137405851133578    0.8798076917189552 Sn
   0.3216978894063705    0.8545558912504945    0.1354777895816538 Sn
   0.0108254925794280    0.5042182302437279    0.7472588705610624 Sn
   0.6732390602941353    0.5037316563832822    0.2509516286521877 Sn
   0.1777294373483549    0.1246712015338762    0.7454604398517952 Sn
   0.8142958371065792    0.0061461161718607    0.8712882928342423 Sn
   0.8523995349855384    0.2595047594589809    0.6209426912162377 Sn
   0.8320921902866566    0.6214619922722613    0.5014911734456939 Sn
   0.1564302922520569   -0.0091606663708410    0.3653759599372448 Sn
   0.8321795605317983    0.3695397215095300    0.2593373765229743 Sn
   0.1512742293796959    0.0003299060778837    0.8690225071822116 Sn
   0.8348232026309670    0.1239628594840543    0.4970484177298031 Sn
   0.1858696186072669    0.2426680849796373    0.6140382571819443 Sn
   0.4892484235119423    0.8849052386591579    0.7267842915028344 Sn
   0.1752256242789386    0.5050537333559646    0.1115552559372620 Sn
   0.4866890998193883    0.8691451921021293   -0.0061231953102796 Sn
   0.5188578943244411    0.6229161732104860    0.7516262829078718 Sn
   0.1866566533588077    0.7460947292261354    0.3702930264696762 Sn
   0.1779757473582773    0.7472144271116541    0.8896168886413786 Sn
   0.8283120519918324    0.2650293640275053    0.8749643146466640 Sn
   0.4838310857624876   -0.0173633811425623    0.3748817413197693 Sn
   0.4940486556121881    0.0145410542490804    0.8661644434256419 Sn
   0.5023662392180821    0.3852460457436629    0.4976246993690827 Sn
   0.4927536518744405    0.3659507622667549    0.2449408538524560 Sn
   0.5018944895392876    0.3761961884887514    0.0142601036099104 Sn
   0.5062987325427096    0.5092451935452762    0.6213868072584875 Sn
   0.4867280538944710    0.1338811834017876   -0.0056231309684080 Sn
   0.5164320507223203    0.7405381227222212    0.3793402913627589 Sn
   0.1602557454538950    0.8725726004883823    0.7464051773245352 Sn
   0.5095498591711666    0.7484785677180588    0.8918885637800475 Sn
   0.1506785821257881    0.8744694968790884    0.4926951457962669 Sn
   0.1677216986904510    0.6261572760055033    0.2449607786488081 Sn
   0.3227941665086129    0.8708233405231065    0.6127811052567337 Sn
   0.4894563756395617    0.6357724258430032    0.0205618437456314 Sn
   0.3211992438661558    0.8716383519361099    0.8738316661880438 Sn
   0.0118092642289032    0.7469644731481464    0.7496052384646985 Sn
   0.6769655115481266    0.6294321114264508    0.8844328298919538 Sn
  -0.0087836295377677    0.0014708577582008    0.7477395175283577 Sn
   0.0079157856149801    0.2607782960348456   -0.0011063683188213 Sn
  -0.0073541735368962    0.4967260861453399    0.5044888397696790 Sn
   0.6657607268402613    0.3783682878610312    0.8829489823235690 Sn
   0.6701049018383360    0.3841230862555948    0.3769903800092486 Sn
   0.6679222797272608    0.1257948280513675    0.6301271234833999 Sn
   0.6572627848676635    0.8746096727125231    0.3716143737384611 Sn
   0.6571968432512668    0.8664775610000416    0.6189993301572213 Sn
   0.6645052878745401    0.1293438580943416    0.4961869378091393 Te
   0.6859160711398935    0.1254565906016013    0.7589117617366630 Te
   0.6645866227635023    0.3860474045657079    0.0132551660111504 Te
   0.6725811843564983    0.3795012551954962    0.5057548729130379 Te
   0.6741151690001201    0.3806324981470894    0.7511637654293979 Te
   0.4953997660956498    0.1250714750736414    0.1196051119105345 Te
   0.1487733225114828    0.8748977728336250    0.8707745917081082 Te
   0.8501605339882778    0.2516301272728298    0.7482828595911850 Te
   0.6849316692061119    0.6280011710060210    0.2661860176353323 Te
   0.6587166995836898    0.6336381613495324    0.5066239783031818 Te
   0.6580461327693681    0.8799571449977055    0.0031738129941203 Te
   0.6619250812328484    0.8787271554353595    0.2383014918988782 Te
   0.1722765518545354    0.6151144610723709    0.3795598023422417 Te
   0.6541752300823529    0.8894359956915356    0.7490124336634636 Te
   0.1622759085135012    0.0118614215016355   -0.0013311635683966 Te
   0.1733968546200508    0.3712785768995828    0.6257768102519201 Te
   0.1761710117492959    0.3655016119520800    0.3695428549889356 Te
   0.1791851599904979    0.3670157814776154    0.1157438472478741 Te
   0.1741701125219138    0.1311639930540770    0.8743740497354839 Te
   0.0003138071278080    0.6356675298156051    0.2511369448194818 Te
   0.5021891633358642    0.3762668150351899    0.6269327963648378 Te
   0.0013954734871785    0.8737738175607553    0.2486507824045080 Te
   0.3277806654842956    0.8670548197202727    0.4820709760967871 Te
   0.3265331155818345    0.0955616068579719    0.2440067658001538 Te
   0.8256292711836452    0.8798535429200786    0.3658494512487083 Te
   0.8363935629238509    0.8818348216603362    0.1239551661884091 Te
   0.8406559002974813    0.6446109352268259    0.8785882710977093 Te
   0.8245719636525035    0.6284609446968347    0.6279918182037380 Te
   0.8346425806876502    0.6273162872177328    0.3740585171130082 Te
   0.8274303114939900    0.6170938668206432    0.1379410723601826 Te
   0.3310720156424237    0.3759717443462439    0.5028990563382825 Te
   0.8579984444219522    0.3836910547710245    0.6229922192526360 Te
   0.3378010500968370    0.3724855488719773    0.7466296698774285 Te
   0.8436312125804872    0.3739692083973726    0.1296375928950294 Te
   0.8326707686479639    0.1333695199475094    0.8790577125640807 Te
   0.8441206781655485    0.1122192858301178    0.6260551430229045 Te
   0.3106511509157839    0.6153227247871560    0.0024313719791636 Te
   0.3384280305028576    0.6239022591323485    0.2512851161501951 Te
   0.4963060634525641    0.8784608533828464    0.8663283188692260 Te
   0.3259873490623365    0.6123864048463935    0.5022861152818895 Te
   0.3383495593542179    0.6245212119751453    0.7543530033773925 Te
   0.3145900621245776    0.8691094671314549   -0.0031685745457510 Te
   0.5055698659529780    0.6237390863023144    0.8806437799833930 Te
   0.3287619104457143    0.1233157297126389    0.5056004263664672 Te
  -0.0013269630849642    0.6333851447002838    0.0114776939816374 Te
  -0.0126699923736953    0.8769040960765878    0.7481453525025120 Te
   0.1733285413095116    0.2369774538854739    0.2531360900037384 Te
   0.1798445484545872    0.5063213973381500    0.7457703815658298 Te
   0.1887330722528953    0.2524208206921644    0.7510346391802069 Te
   0.0044185849491967    0.7607790129597234    0.8805754323486893 Te
   0.0151069002424678    0.7539433353064877    0.6231027940766787 Te
  -0.0270871439687207    0.5108955224100600    0.8743513703413516 Te
   0.3367345114931262    0.3745051312568225    0.0031394800948557 Te
   0.0143380661168619    0.5005181310691482    0.3741922473290218 Te
  -0.0051001191057998    0.5070082662183938    0.1243795308897875 Te
   0.0137435419799788    0.2578643787188020    0.8661078153797889 Te
   0.0187472530848433    0.2372620730932624    0.6278452604778130 Te
   0.4922745931635571    0.7553812050308062    0.7468328490579610 Te
   0.3367243263237635   -0.0035017149278042    0.6238682277662481 Te
   0.0172548767323935    0.2475565583737527    0.1286763390083440 Te
  -0.0030702405927386   -0.0094990607782664    0.6177232125244065 Te
   0.0004804878605755   -0.0054119308530214    0.1224066099717624 Te
   0.8336536839719981    0.7566797546008573    0.7465232148049089 Te
   0.8213332732636174   -0.0100714598500284    0.4955171976015903 Te
   0.8198814836771445    0.7538643518740012    0.0065279933415465 Te
   0.8312106935329401    0.5072630336760076    0.7431387773836666 Te
   0.8417678524130481    0.2744725224737565    0.0023816576822242 Te
   0.8323876715952943    0.2407298615420217    0.2549411087993603 Te
   0.8184725693252043    0.5051160779146505   -0.0057874721087215 Te
   0.8198191372061649    0.0099127743031128    0.0005546645374588 Te
   0.3234763107980913    0.0041511039631924    0.8722723374724970 Te
   0.3337373801024198    0.2247860363544939    0.1265947843792879 Te
   0.4997514236770459    0.4920678326087540    0.2505060401070295 Te
   0.0097801676723213    0.3752929845588676    0.2490467482528112 Te
   0.0051858421112149    0.1238240081249152    0.7432375535965430 Te
   0.8401841277163247    0.2505524537860198    0.4918845986260264 Te
   0.6707410464351060    0.5016854025050467    0.6225585402865634 Te
   0.1766020073889549    0.7541577857417884    0.2482515612705296 Te
   0.1695640336149370    0.7461519241558580    0.5039961937059491 Te
   0.4765478184794048   -0.0033291349459056   -0.0022386987373566 Te
   0.6801066489527620    0.2593853563346162    0.6201433461609676 Te
   0.6743764293001172    0.2577937405182032    0.3679067679562377 Te
   0.4852428785944055   -0.0105595984588127    0.2483879451209127 Te
  -0.0049660534269045    0.1305702315010945   -0.0004916163905890 Te
   0.6490133830029448    0.0025218502317915    0.6191594378531116 Te
   0.6519822057380129    0.0068855703943486    0.3806008201021553 Te
   0.6555466962350781    0.0106972684586596    0.1269751414860709 Te
   0.3246225032692605    0.7485924190192084    0.6245391918830028 Te
   0.5006873923975426    0.2513671458740608    0.4918240573811122 Te
   0.5206541514942742    0.2508929056259730    0.7602997041552665 Te
   0.4783627051898519    0.5054191709496270    0.0088185002054480 Te
   0.3311311392795904    0.4900359373158831    0.3678288352212079 Te
   0.3375749689512368    0.4918416216816952    0.1356012063649188 Te
   0.3507335213265321    0.2543748859618369    0.8821682952130895 Te
  -0.0074903436112730    0.3685490439215022    0.5085742678656494 Te
   0.3477889300457688    0.1192403263523657    0.7511480254636600 Te
