Mg42 Zn41 Co42 Cu25 Ni42 O192
1.0
  12.8877107745157797   -0.0002459145863760    0.0000489739239064
  -0.0003278255317141   17.1744083421721676   -0.0002180861400304
   0.0000652794003392   -0.0002181170678479   17.1826527778042824
Co Cu Mg Ni O Zn
42 25 42 42 192 41
direct
   0.0035574893532518    0.0007978583113656   -0.0002526460463647 Co
   0.6707611839193163    0.2477120980932359   -0.0006887715404618 Co
   0.6649108091910383    0.2485452734216971    0.2507387759045866 Co
   0.0009928407343502    0.3772484185387041    0.8722426120097644 Co
   0.0026180126572419    0.3764027264554878    0.6248994355934507 Co
   0.0007855408221879    0.3757098554926905    0.3761861024105272 Co
   0.0009858178388633    0.1232099791053058    0.8737059217063190 Co
   0.0026090500974318    0.1225390349285498    0.6239797326054263 Co
   0.6638515796181544    0.4992430902942772    0.7467969534654090 Co
   0.8355921671743399    0.7492878712465956    0.8752733327237565 Co
   0.8308993593707951    0.5004809598595795    0.3754947309082348 Co
   0.8335762738664895   -0.0009321345462980    0.8771940666094454 Co
   0.1686785164238361    0.6282909002122089    0.2528657097967552 Co
   0.6666974285846190   -0.0011207032107801    0.5010997139758849 Co
   0.1665619781740346    0.6239642630797014    0.7484304534195321 Co
   0.5000930798715054    0.0005272073273154    0.8755593934102643 Co
   0.4955222148852162   -0.0000247116731878    0.6245152801314972 Co
   0.4985223185095008    0.3752887811431563    0.2501471306039711 Co
   0.4987610233018779    0.3748891528795896    0.7489797881210067 Co
   0.1692011337846087    0.5000401953731863    0.8725157104308300 Co
   0.5074059642159034    0.6275265201857150    0.5000915390571815 Co
   0.1705049091952275    0.4989240250895378    0.1273728332086536 Co
   0.1681437931027932    0.2497033800611473    0.3749114142691132 Co
   0.1651087669214900   -0.0012877579737125    0.8773595049352532 Co
   0.8342370882846060    0.1219006797862171   -0.0018462763047056 Co
   0.8343975701505095    0.1213326688637931    0.5019037035772760 Co
   0.8318311311844917    0.3766300691205223    0.2516707824200539 Co
   0.4996414303592799    0.1260391445494101    0.2498287699035599 Co
  -0.0043066338353276    0.8746468525523433    0.3763553156341582 Co
  -0.0023125634447386    0.1219262503893178    0.1263018129977131 Co
   0.3319553485204446    0.8726579090049130    0.6241904115907986 Co
   0.6678863765955333    0.8806487218385606    0.6254647481086562 Co
   0.6667860851875754    0.1227132679248083    0.8746783447007497 Co
   0.3336765886118031    0.7498423326576252    0.2524807934281243 Co
   0.3360999237857469    0.8712184175584888    0.3748925377060857 Co
   0.3342705923961931    0.2503186992650651    0.2473996737970676 Co
   0.3322253037888990    0.2497968545758828    0.5001893496530421 Co
   0.3361710442269537    0.3743408309226683    0.1263106403504538 Co
   0.8337846501701430    0.6260152458175196    0.2502481090587491 Co
   0.3362140231924697    0.5030254454085727    0.5009274224722947 Co
   0.3298692941785195    0.7520590480922024    0.0008036525589310 Co
   0.3322477213620707    0.1253394987904545    0.6248724491597885 Co
   0.4996921009838631    0.2489305840719953    0.3757584530941933 Cu
   0.1661751226898911    0.8760954992058503    0.0014781462742191 Cu
   0.3371502760380605    0.4978645928162137   -0.0001655656067138 Cu
   0.5025801411515523    0.1241367455142327    0.0003241366795448 Cu
   0.0010498070740058    0.7502737681446259    0.0003359440415186 Cu
   0.0010074677064002    0.5008349127795477    0.7480923053231550 Cu
   0.1632334401146058    0.7498992987220015    0.3774275198066943 Cu
   0.6624977996603884    0.6275916511989021    0.1257322655417681 Cu
   0.6636386645758805    0.6257456698900136    0.6260091396114895 Cu
   0.1727013701302048   -0.0004418992355580    0.6234295287952754 Cu
   0.0002404065722104   -0.0009828974642609    0.7472297242637289 Cu
   0.8323508232673331    0.1247195567039256    0.2495172338954104 Cu
   0.3331685637597572    0.1255517828333664    0.1239737260709626 Cu
   0.8332878142387827    0.8757548155120481    0.5019697205815088 Cu
  -0.0008260425792405   -0.0009817369252004    0.2503106978682602 Cu
   0.0028681146897247    0.4968956013917223   -0.0028134361384840 Cu
   0.0028621108960961    0.8751291035271964    0.1223828362884675 Cu
   0.3306175176575691    0.7458896973300490    0.4989923918467551 Cu
   0.4993578917299576    0.5027208079143918    0.1274282562968129 Cu
   0.5025003842245828    0.7525754346216892    0.6235474661331939 Cu
   0.3361918590157558    0.2481143174953346    0.0006552493389510 Cu
   0.8359909729881333   -0.0003691317487702    0.6268777772827540 Cu
   0.3383452301991275    0.6262991624496290    0.3760294596520087 Cu
   0.3323216415802943    0.6255719757239692    0.6225045248623210 Cu
   0.1638230379651030    0.6271594519463004    0.5001013947748855 Cu
   0.8339539677111601    0.6244581933221696    0.7486060849539805 Mg
   0.0016715149820171    0.6239613177431867    0.8737772865393666 Mg
   0.8337717261848273    0.8744543190367540    0.0009417948964360 Mg
   0.3343435578593975    0.3752468235990339    0.3764353963109734 Mg
   0.8283521103363258    0.6243565789449370    0.5029738249621650 Mg
   0.8347353477561994    0.7478111530929967    0.1236242209338718 Mg
   0.6639688164318346    0.8740129467183629    0.1247592889177283 Mg
   0.1627192651441363    0.2502095405318339    0.1241613979441566 Mg
   0.6642876664969027    0.6259828837705166    0.8739014889915899 Mg
   0.8306199122119760    0.5002028151092466    0.6265729258997953 Mg
   0.8331572458919383    0.5027090809474365    0.1239649171925610 Mg
   0.8327600350570502    0.2489045302964682    0.3758946871233639 Mg
   0.1663967965054230    0.7504628280626100    0.8752892857801710 Mg
   0.6657097179013020    0.1232850926837802    0.6242167178003389 Mg
   0.4999352996621035    0.0001742227653567    0.1248733988951460 Mg
   0.3335259776376355    0.6246732878448851    0.8751215263889521 Mg
   0.6659671280940035    0.1239710521888711    0.3769187677297882 Mg
   0.4975659829834574    0.7509756992239173    0.8750568597849739 Mg
   0.4998168259382764    0.2498919495741725    0.6258305232305460 Mg
   0.5008040119032630    0.2486258068692743    0.8748173814798390 Mg
   0.8310453896887693    0.5010836855006524    0.8738895763439509 Mg
   0.3321900894191163    0.1250742355977299    0.8761100293813617 Mg
   0.8343092725127963    0.2503303168839954    0.1264390802117030 Mg
   0.8330737944750627    0.3769772779866559    0.7491749430319461 Mg
  -0.0003495641555107    0.2495388748286291    0.2516171907835408 Mg
   0.0004565354318874    0.2493256474950740    0.4997397103957539 Mg
  -0.0010615675327269    0.2500787216060921    0.7485447288255338 Mg
  -0.0053396540088354    0.7493720384799581    0.4990362420799952 Mg
   0.3335002445030361    0.0004911814663463    0.0026029559265603 Mg
   0.3370142950267779   -0.0015192455436356    0.2481130640645179 Mg
   0.6641351791901297   -0.0013064616370807    0.2499519234913470 Mg
   0.6681554720367822    0.2497888958111876    0.7493172361914879 Mg
   0.6668487653464854    0.7509640128811156    0.2498893031386285 Mg
   0.1645753081349693    0.1264018270142357    0.0024566878555841 Mg
   0.1678189469789505    0.1233167989639749    0.2477327968944888 Mg
   0.1674740612353643    0.6225900309412862   -0.0011427463134427 Mg
   0.1674571832432602    0.8744275577603808    0.2512679978188529 Mg
   0.1677242524222761    0.8726362801566140    0.4987917217441093 Mg
  -0.0006045730610717    0.7508496752880556    0.2515730181963495 Mg
   0.8317547385115405    0.3765330014180830    0.5007267542727645 Mg
   0.8306779512530323    0.3784268772641816   -0.0011180106950009 Mg
   0.4983748599987294    0.8739602539570483    0.4998241682333153 Mg
   0.1690576145471565    0.5003986146850209    0.6247512804580163 Ni
   0.6713790596713072    0.7536403798023180    0.5010301934518836 Ni
   0.8297681465639247    0.7514958694512857    0.3736219446768052 Ni
   0.6665823875445273    0.7489812172524448   -0.0000322394853106 Ni
   0.6655479624539196    0.4995539847721341    0.5017468997824801 Ni
   0.6628317712201975    0.5025274651043481   -0.0001532900425293 Ni
   0.4992913082884834    0.8764841704958543    0.7483220469183518 Ni
   0.6668614504453571    0.2481843381828729    0.5008718449094514 Ni
  -0.0057433923068340    0.6277423674374352    0.3771230160407369 Ni
   0.0003187973611572    0.6258458678763081    0.6252921986854710 Ni
   0.6665503931733573   -0.0004561338714843    0.7506240037831278 Ni
   0.6655356482643323   -0.0005775296364424    0.0005213759392442 Ni
   0.0011533222157493    0.8753713324394489    0.8749245276795521 Ni
   0.3332867759662050    0.4993539972496359    0.7476906238144516 Ni
   0.3367344031328126    0.5014106406541688    0.2533355193587153 Ni
   0.3329701157487313    0.3751542993756210    0.6241332342982046 Ni
   0.3343251926860540    0.3745469912547964    0.8733805970822903 Ni
   0.1688385656673610   -0.0010288449036770    0.1249159102133123 Ni
   0.8354578429903327    0.8754395730446809    0.7533298827435784 Ni
   0.3338638215318803    0.8743460422607143    0.1263432509989835 Ni
   0.0009627081204228    0.7505056938905120    0.7503722560810658 Ni
   0.6649572405447516    0.3733287883447859    0.6245708533102383 Ni
   0.6664498255677248    0.8756110794151274    0.3737184850833485 Ni
   0.0041774195809970   -0.0007019337731725    0.4992520259157883 Ni
   0.4990071872945131    0.8737708896411638    0.2512188664936084 Ni
   0.1671625312571393    0.1237182048515840    0.4986386883738896 Ni
   0.6698879750723321    0.6263727089345631    0.3757602211335766 Ni
   0.1651738807812808    0.8741500314860945    0.7488802036960123 Ni
   0.5010027240860069    0.5022348991929304    0.3770287052114007 Ni
   0.4990457631800346    0.4982697485763000    0.6237231160480200 Ni
   0.4983067986104073    0.7514389349872622    0.1263879885126212 Ni
   0.1638776443502737    0.7492065156242785    0.6243086426993074 Ni
   0.5064880085140691    0.7499317064137331    0.3771447211482547 Ni
   0.1665489415810141    0.3756841350439704    0.7489052254529797 Ni
   0.1672931430262971    0.3763762923620974    0.5003191755333750 Ni
   0.1666808573788618    0.7517203125405183    0.1249943904043982 Ni
   0.8313463407307289   -0.0012080778791355    0.1226638942197310 Ni
   0.4990233233388278    0.6278861515329617    0.2527420515132456 Ni
   0.4994391672282282    0.1235139077687722    0.5006857072856852 Ni
   0.5009654497222813   -0.0013170501815444    0.3738690152424400 Ni
   0.1648293651020126    0.1245398275247140    0.7508075788621376 Ni
   0.5025057499006259    0.2478163737092721    0.1243618140625827 Ni
   0.3358306536952977   -0.0046326669777243    0.1251491073687316 O
   0.3378837096740716   -0.0012252091572460    0.3703978149525237 O
   0.0022773205530898    0.7486416711948625    0.8773008579401997 O
  -0.0021013961618786    0.7485654842555338    0.6251784093375276 O
  -0.0122935402758904    0.7513977058393371    0.3748403993763817 O
   0.3282145968650071    0.0004304042482560    0.6254842218455929 O
   0.3330983449670006    0.0026374667634974    0.8785701769860202 O
   0.0015353821220894    0.7554697543838536    0.1237472618879542 O
   0.4972757437827098    0.1252371067519724    0.8718642295311616 O
   0.3358308323909401    0.2516489224423347    0.6247903905783464 O
   0.3334632208588914    0.2515055916212501    0.3747469613503684 O
   0.0002559445391800    0.5009028351228365    0.8645418877931208 O
   0.3360071243563030    0.2486071081593920    0.8771918887660870 O
   0.3389880109640195    0.4987029094747704    0.1327514055985550 O
   0.3354424270474372    0.4990582570726488    0.3769982863553123 O
   0.3336126543242209    0.4961391711464015    0.6234243794411303 O
   0.3340588667644794    0.4990336331410113    0.8694287260780832 O
   0.3315889271862903    0.7531231705656596    0.1251473547301182 O
   0.3484050966789892    0.7503542660630704    0.3797341951893707 O
   0.3232398948999338    0.7494840758696661    0.6190773212974363 O
   0.3322741859207757    0.7496315311175064    0.8757839888182612 O
   0.6642929985429412   -0.0026829892326228    0.1254313279629196 O
   0.6641718906126555   -0.0003657173238131    0.3728558450606894 O
   0.6561305750199170    0.0018754169696129    0.6264280663226962 O
   0.3308065904915662    0.2527945231995873    0.1223313134406446 O
   0.0006343241114628    0.5018948099079440    0.6294583092208617 O
  -0.0036482793986838    0.2516377026078665    0.1287125896288416 O
   0.0011067629981241    0.4982482086945704    0.1327791223223993 O
   0.5009164122982239    0.7508091715362163    0.2508930414634365 O
   0.5147805716568814    0.7518365799896882    0.5039607295313322 O
   0.4980834834224664    0.7530406754038690    0.7455867851202811 O
   0.8263231842105967   -0.0040063881453079    0.0012263247587237 O
   0.8302431630909387    0.0050713363782487    0.2452902531603075 O
   0.8338490491406751   -0.0038364474180381    0.5000195602461222 O
   0.8385149833983643   -0.0020293746436255    0.7559068090726085 O
   0.8349739786127562    0.2536719049999289    0.0019685754540001 O
   0.8343607039705297    0.2456577753825184    0.2511384804404936 O
   0.8340570872003387    0.2517207015156645    0.4999875039853511 O
   0.8328836458450330    0.2514064814964515    0.7474389607288350 O
   0.8233182321871518    0.4998467027202861   -0.0000542714649708 O
   0.8284606629167266    0.5025894247975139    0.2489098638266489 O
   0.8288341518003036    0.4990401017745482    0.5021474538788123 O
   0.8257303172205525    0.5003705584498559    0.7492476791191178 O
   0.8373155148124263    0.7508284213324601    0.0013182597613335 O
   0.8330626621703284    0.7477929657397873    0.2468483458233191 O
   0.8326933048083958    0.7533056179222419    0.4990393059607616 O
   0.8359251771495312    0.7495689938045218    0.7522546837878918 O
   0.0002010001809081   -0.0051439682175343    0.1135318289056129 O
  -0.0014754081433695   -0.0011065819959720    0.3801133908916843 O
   0.0204011437665043    0.0005608850199606    0.6168321311135262 O
   0.0005658593452604    0.0001264223701893    0.8876545713458818 O
   0.6656152502976933   -0.0001406470124536    0.8753003210215867 O
  -0.0029468050587371    0.2494536570517923    0.3751770209723488 O
  -0.0017985804947476    0.2498376935488317    0.6234455919434400 O
  -0.0039048487028907    0.2498952452589807    0.8725958957584825 O
  -0.0017630638404063    0.5020823929081164    0.3743540494013333 O
   0.6712311794784447    0.2482419028401797    0.1257999345977926 O
   0.6669479351206687    0.7486760131108393    0.1240532389500631 O
   0.6659968360496767    0.2480789205008553    0.6251428848278786 O
   0.8305243104549832    0.1254382868166265    0.3818039239414889 O
   0.8332814519448696    0.1159504811560127    0.6236163384056137 O
   0.8361621193996249    0.6226226252165383    0.6266876134679999 O
   0.1667997326506334    0.6247413426966791    0.8755504476409527 O
   0.8302320135241507    0.6263822549472668    0.3775916421383262 O
   0.8437831463506102    0.6251432161628484    0.1234891132756352 O
   0.4959234524284901    0.8790545394099581    0.6241518115635686 O
   0.4982611567302231    0.3714670069131352    0.8737935597483260 O
   0.1714379798477658    0.8758555277556094    0.1281461417578057 O
   0.8333448404950459    0.3793970035814854    0.8741412069432096 O
   0.4899218414766835    0.6321907175246866    0.1293846749784391 O
   0.1697836122437559    0.8671105816269489    0.3748419486793565 O
   0.5144810370398795    0.6264097584956662    0.3755168088320081 O
   0.4986535017787896    0.3784849332198631    0.3754651685217339 O
   0.1675839729790471    0.8702787779793075    0.6244550799503784 O
   0.1649009944906360    0.8732332744120100    0.8713452416162949 O
   0.8335112463531413    0.3781844511650208    0.6248243834978146 O
   0.5040673796610524    0.1235847171307087    0.1279625589015741 O
   0.5008068546362509    0.3682400530975546    0.1252317496349316 O
   0.8359368725581208    0.1230930646649920    0.8753353184333554 O
   0.5006303416428318    0.1214680552541773    0.3758392170646357 O
   0.8305424458223114    0.3776183088688910    0.1247443214922256 O
   0.5008753362699470    0.7512940740723628   -0.0002298241379687 O
   0.8330334591603444    0.3739823455205554    0.3764127074367630 O
   0.5019367344321852    0.8743911708554801    0.3759240591400097 O
   0.5008002211402669    0.8748863914494026    0.1261845041432584 O
   0.6683820729952384    0.2473880722637628    0.3767101379771594 O
   0.1694571496897662    0.6236423402602770    0.6213872131661580 O
   0.4992769597856849    0.6287686376415895    0.8717888917234020 O
   0.6676866832227732    0.2482354478069668    0.8724970424666996 O
   0.6609472490212622    0.5062160295967580    0.1226565597199444 O
   0.6662196142429968    0.5021633077329243    0.3788884163588643 O
   0.6650150490382956    0.4927004425388758    0.6234764736054498 O
   0.6647521481392358    0.5034603324768395    0.8742580369386506 O
   0.4989348442415749    0.1257945109589620    0.6243719808666666 O
   0.6687641966908130    0.7512861913755351    0.3748065824606617 O
   0.6763212636104309    0.7613216088063379    0.6238120411635433 O
   0.6643920622090227    0.7484621274049631    0.8759303101237987 O
   0.1592163997431095    0.1246443887668805    0.1253124033030205 O
   0.1697052573946095    0.1263126222081120    0.3726573163367694 O
   0.1687082902252131    0.1272635100218172    0.6244694514489839 O
   0.1674439863011053    0.1254715314471895    0.8760904793800469 O
   0.1684660898948313    0.3741495969586327    0.1261537824524681 O
   0.1683723712487087    0.3745249461921268    0.3775405568152236 O
   0.8293930245697330    0.8747776263143814    0.3653084650733719 O
   0.4975639886388095    0.8738724184554235    0.8736134356183711 O
   0.4992024755330320    0.3729201448919950    0.6252264418073793 O
   0.4926209525108590    0.6195166474575909    0.6232733520105211 O
   0.1671994511445968    0.3765405955221381    0.6243875989159681 O
   0.8354331742407719    0.1235806407442210    0.1197702868426042 O
   0.1686469193110918    0.3755236364901659    0.8734101983434467 O
   0.1683883711156864    0.6251244556023039    0.1238790995143519 O
   0.8267722335313507    0.8736413750262951    0.1242608921312364 O
   0.8334200602118622    0.6236958537053799    0.8725272062110814 O
   0.1523216943499041    0.6329231280743106    0.3800005929863999 O
   0.4989561454210831    0.4982744877131917    0.7474616114608581 O
   0.8362440246610465    0.8733435870076053    0.8771230371198587 O
   0.4994981730229052    0.5030506253161789    0.2555278048974472 O
   0.3286888145087924    0.1250260899181453    0.7515038032234590 O
   0.3365695281472348    0.3653089447169455   -0.0017172243088897 O
   0.3355291414928987    0.3753608063536891    0.2529058559414230 O
   0.3306141765066808    0.3745489483794693    0.5001262809183972 O
   0.3315898862151653    0.3750021695926452    0.7490222521722071 O
   0.3306914592454869    0.6306659211588411   -0.0029314643087782 O
   0.3333222882297368    0.6270725364490068    0.2607046373668291 O
   0.3514938297990952    0.6249200789332050    0.4894457443757438 O
   0.3305283674558405    0.6240308786606117    0.7538092544242379 O
   0.3315528313435974    0.8764396353451757    0.0016198101424155 O
   0.3342201382012789    0.8744062742099695    0.2506026620076945 O
   0.3324413616853599    0.8737627126304486    0.4994879907575854 O
   0.3314296289976112    0.8754909323892136    0.7482605304536574 O
   0.6733719364691831    0.1220235016140226   -0.0023910279303364 O
   0.6628468055140708    0.1232701612185955    0.2536285556990693 O
   0.3330734203633122    0.1254990625142606    0.5008063383009607 O
   0.3326349062578964    0.1242241409888765    0.2435700296770854 O
   0.3274901941135334    0.1277259941010783    0.0034091265596353 O
   0.5023597291362950    0.5005376808297821    0.5001803959555948 O
   0.8371255343378491    0.8848614070470574    0.6344296242850423 O
   0.0003439139363717    0.1156403217369665    0.0008663476131838 O
   0.0036229443976384    0.1213704717050192    0.2497431995508195 O
   0.0029738537976119    0.1251073975826595    0.5007468842795315 O
   0.0019668015207847    0.1266396221609606    0.7478773261507071 O
  -0.0039719810453362    0.3822724466307415   -0.0020656463732881 O
  -0.0017355070767696    0.3725115873936190    0.2534718229549464 O
   0.6649206055314958    0.1243722085222270    0.5013732653964438 O
   0.0002167712484102    0.3758295856501067    0.5009533821783029 O
   0.0057505781236495    0.6101361624473935   -0.0037494996039536 O
   0.0015064611368530    0.6291396277474025    0.2534108954602151 O
  -0.0135267368973945    0.6257935131757115    0.5014109189630175 O
   0.0008781483578640    0.6298539871311030    0.7494954912227143 O
   0.0005198461100158    0.8890468148354241   -0.0046894012376333 O
   0.0039231054003896    0.8770179061067878    0.2539659265472156 O
   0.0023283460330579    0.8740289522760772    0.4987464960790965 O
  -0.0003054130205348    0.3712701601511269    0.7479010751194066 O
   0.6688846869795649    0.1243659296011303    0.7481576455899149 O
   0.0012612265479188    0.8722553016798843    0.7523855354012224 O
   0.6657045931700233    0.3740498315986474    0.2506283694918346 O
   0.1682643392783576    0.5031407007973784    0.5009381715446040 O
   0.1725995115296105    0.4994624119400363    0.7468692398909763 O
   0.1609095752393070    0.7466986904061852    0.0003821057912264 O
   0.1664582118606834    0.7507896376349603    0.2470306884711488 O
   0.1546468733253121    0.7483757055258224    0.5034440018699717 O
   0.1648518985397141    0.7494358481857601    0.7495524671883017 O
   0.5001116033155042   -0.0023515910297223    0.2484550112416931 O
   0.4991529798018766   -0.0001870283405000    0.4981026418873559 O
   0.5002313406704829   -0.0014266374368071    0.7510147261317899 O
   0.5127290766235859    0.2424951435168706   -0.0008206445356759 O
   0.4989456879235838    0.2498148475512451    0.2457768920446211 O
   0.5014471301049446    0.2472193956470169    0.5033482955536486 O
   0.5032947896221872    0.2500997492960398    0.7495795836972037 O
   0.4957152496059533    0.5008861047198763   -0.0027921111621588 O
   0.6665071815219328    0.3770249216380066   -0.0006595322677006 O
   0.1734060781174369    0.5034383057546110    0.2527223744754603 O
   0.1831166537802910    0.4988076697138815    0.0012729326534314 O
   0.4988509514662736    0.0043246190878674    0.0017326985179754 O
   0.1644584282084614    0.2497020465365131    0.4987015579373986 O
   0.6681327763371162    0.3726540484086596    0.5017799952913334 O
   0.1641709371392949    0.2503117159256698    0.7505028211205174 O
   0.6680667431812107    0.3727088729268102    0.7480232102801680 O
   0.6634014269016225    0.6262049465917815   -0.0027656568600340 O
   0.6658848536391110    0.6287795265925776    0.2511473185947249 O
   0.6684890086129959    0.6255952062377234    0.5059999213611885 O
   0.6666478487334274    0.8735838595648672    0.0013952292070368 O
   0.6614175851322405    0.8744574573787663    0.2484247505912061 O
   0.6670233292294298    0.6262596176415732    0.7464055129439242 O
   0.6665502472342388    0.8777577469340172    0.7514177597911442 O
   0.1712604783993101    0.0040319775810239    0.0022881289438541 O
   0.1720293771382888   -0.0007878395464071    0.2485817406204529 O
   0.1685501583838003   -0.0010707479851620    0.4917162216878084 O
   0.1601400986812853   -0.0003296750961768    0.7568618838455788 O
   0.1511257720238451    0.2490150693689781    0.0022936139609907 O
   0.1651925195613394    0.2476660813063459    0.2478254899067747 O
   0.6669765158703662    0.8774194482982054    0.4982986188201770 O
   0.4995817042054507    0.8739866456113811    0.0002852252166284 Zn
   0.1684263296260059    0.3740054819505906    0.2514365490874338 Zn
   0.4976033529022620    0.6256184424736804    0.7471913094076162 Zn
   0.4970488228458212    0.6270019569520411    0.0011031992745819 Zn
   0.5000704274899292    0.3734041280317648    0.4998011633424141 Zn
   0.5013465715478731    0.3737651406994701    0.0001147665977317 Zn
   0.5005774320340959    0.1243778220496776    0.7493567262186914 Zn
   0.1687895499764351    0.3751900918319307    0.0004639801225942 Zn
   0.0003047593282493    0.5030344866495701    0.2529112769299906 Zn
   0.6643632149047345    0.5043710778038827    0.2508204618437274 Zn
   0.3313275166402766    0.7488360539735042    0.7482340573059344 Zn
   0.3327814074420019    0.2499023947937693    0.7499213828151250 Zn
   0.3300135747940935   -0.0002460192947974    0.7521300558417223 Zn
   0.3322243206529005   -0.0016640138048014    0.4965204017804152 Zn
  -0.0020693192111988    0.5030896540146867    0.5005982294121685 Zn
  -0.0058821455095669    0.2523301264494988   -0.0005425168604655 Zn
   0.8344611796063706    0.1241643939312285    0.7492421320828354 Zn
   0.6673028362190094    0.7513194356105751    0.7479601446448644 Zn
   0.8357884009915315    0.6226474480183610   -0.0011274421212698 Zn
   0.6658159475690508    0.3746048953549217    0.1254723508513326 Zn
   0.1672282724138502   -0.0004151213781369    0.3711928453711096 Zn
   0.6652979040105625    0.3766434042866122    0.8736688792127666 Zn
   0.6641191595279075    0.3741200346389854    0.3756859898709752 Zn
   0.6689615080799536    0.1232831637424605    0.1262836847908092 Zn
   0.3312566842951736    0.8752163133686829    0.8752726667584879 Zn
   0.3307326803950394    0.6253967035668848    0.1207430805213889 Zn
   0.3354921633719209    0.1259130981046685    0.3742714281792090 Zn
   0.0014074418371236    0.8769088572618307    0.6241630442567332 Zn
   0.0041940002221994    0.6225248226296868    0.1229389882569522 Zn
   0.8360190391842509    0.8749369465625104    0.2453143248122405 Zn
  -0.0016021494555662    0.3767151396790220    0.1273729788787095 Zn
   0.8352862373504411    0.7480224971381236    0.6263532025784239 Zn
   0.8325033444239934    0.2511941165770834    0.8742270978421339 Zn
   0.8340638948618927    0.2535632085760831    0.6230834349879607 Zn
   0.8321457597250096   -0.0003805721772319    0.3740513726268867 Zn
   0.4989235411305698    0.5012102821098964    0.8728912455931795 Zn
   0.1694218013311635    0.5031510567728507    0.3765881962281263 Zn
   0.1663822110902684    0.2499649016768658    0.8771341933676664 Zn
   0.1668964752691740    0.2499738243434268    0.6245383721441280 Zn
  -0.0025122332641853    0.1241504893274105    0.3746867538608738 Zn
   0.6667156488419557    0.8734512090297432    0.8760088025258141 Zn
