Hf39 Zr38 Ta38 Ti38 Nb39 N192
1.0
  13.3499465572150786    0.0010807174818953    0.0009205103900786
   0.0014409512099213   17.8004177942548125    0.0009545894641244
   0.0012273683905233    0.0009546261224366   17.8050791617980053
Hf N Nb Ta Ti Zr
39 192 39 38 38 38
direct
   0.4995914092869339    0.6261895617295563   -0.0000445418849279 Hf
   0.5026423430986912    0.7526353644127713    0.1267369039229918 Hf
   0.3302043128874522    0.7525968244290671    0.2518771341138217 Hf
   0.5004847330981871    0.5006372402894814    0.3764193434323765 Hf
   0.6664908963013985    0.0000937912037167    0.2528596412070070 Hf
   0.6660865646417772   -0.0005371302241071    0.4997715467569423 Hf
   0.6605981409655635    0.2470605613592099    0.2547652018923567 Hf
   0.6642185929999257    0.1225093382305079    0.1238707271349212 Hf
   0.6690869905921064    0.4993088791996912    0.5026683514235817 Hf
   0.6665771663168539    0.7524866900667365    0.5013243483491349 Hf
   0.6671593510471803    0.6271810710230730    0.3772591424212633 Hf
   0.3312335748729671    0.5024932943200706    0.7489595322226746 Hf
   0.1660968730737332    0.5005780695447025    0.8733519354228321 Hf
   0.1656993276041756    0.6249353478091492    0.0002401900841814 Hf
   0.1662478064272335    0.0003406750017955    0.8751871124339674 Hf
   0.1697732304456720   -0.0051940513802426    0.1219987602861375 Hf
   0.8337367138732305    0.8769652746119638   -0.0011334104839400 Hf
   0.5017406907741512    0.3756874768213698    0.2495376499470466 Hf
  -0.0027120345566120    0.1253283887197192    0.8749306105359341 Hf
   0.5025408691813251    0.6240845222978667    0.2497453697095188 Hf
   0.4997829278303051    0.8789558633815434    0.0015781213211604 Hf
   0.8305001785508848    0.3766530638705033    0.2496800756449979 Hf
   0.8314469556026799    0.3731961070271255   -0.0010377810680888 Hf
   0.1672993272465925    0.2509985524325621    0.8733531988580783 Hf
   0.4962163070418882    0.7509203791111240    0.6255366528690566 Hf
   0.3316540460078704    0.8781476865253665    0.8737606006368062 Hf
   0.3329292584065114    0.3771959062662223    0.1258457648368860 Hf
   0.3387649206142512    0.2469492771632361    0.5014581344895911 Hf
   0.0008923751649514   -0.0034187452794723    0.2503630329281558 Hf
  -0.0015519563341379    0.5028882065697279    0.7481156484248452 Hf
   0.8313029415210056    0.4994652964727095    0.8742825784238953 Hf
   0.3339664099388804    0.2505658654200659   -0.0015987117948984 Hf
   0.3344733205017552    0.4982595443360996   -0.0010334749917223 Hf
   0.3324050196723827   -0.0038726608395108    0.4988522818154447 Hf
   0.0007842578249105    0.7518341906728138    0.7492244614257934 Hf
   0.8325239597820420   -0.0041451177109731    0.6282880952627249 Hf
   0.0003877979292006    0.2460708375099470    0.0011171973504560 Hf
  -0.0024150673276817    0.3734490028729566    0.8731486526607920 Hf
   0.8303341013374199    0.2528630398810048    0.3786858339731250 Hf
   0.8319893809271278    0.7490089666014973    0.2496882048715338 N
  -0.0029796332791804    0.2526889370388802    0.3746717379263835 N
  -0.0054836864761687    0.1202147579087078    0.5004726430956661 N
   0.0013411489168185    0.3742850156525294   -0.0012722045366718 N
   0.0001539763806774    0.2464825300472654    0.1223455385405924 N
  -0.0055274436151679    0.1213211293915781    0.7525123256284300 N
  -0.0033181251761604    0.3760090633475288    0.2526432591688049 N
   0.0019605647052657    0.6241757218973857    0.0011882014625266 N
  -0.0029519896462810    0.2481096000933570    0.6254438364890903 N
   0.0022259280328527    0.3792541318761069    0.7503078726271762 N
   0.0004717755445971    0.1221026672384066    0.2462470203586783 N
  -0.0003469416053947    0.6264382973743187    0.2456710867166201 N
   0.0023371500511008    0.6253187308530215    0.4995336459174202 N
   0.0001767766079674    0.6269776738739211    0.7527852933733591 N
  -0.0017621003514408    0.2494512711114288    0.8764166502426458 N
  -0.0015747381734479    0.8779218180993204    0.0017286700241360 N
   0.0032565502987229    0.5046090322133883    0.1232343298828477 N
  -0.0020223896664704    0.3752118996858519    0.4972379916992141 N
  -0.0047698421673270    0.1234150303449263    0.0010835063357934 N
   0.5003642075580697    0.7518354471485289    0.7503359656684960 N
   0.0010261435648336   -0.0004046195976742    0.8744734711925287 N
   0.8302696806019866    0.7545508534054156    0.5049097083907989 N
   0.8309850527514931    0.7526413533971057    0.0029741795909109 N
   0.8312173038311721    0.5010982777658408    0.7506790109205939 N
   0.8339083217410247    0.7504392866756476    0.7466506856170649 N
   0.8312615264239499    0.4963743835537700    0.4966529887820917 N
   0.8353179593217539    0.4980618828480834    0.2487445386292335 N
   0.8304120427671324    0.4986805587886998    0.0005282450239410 N
   0.8313179579620158    0.2517168206762067    0.7527053247227957 N
   0.0015887231170972    0.8754272111436013    0.2475504848296961 N
   0.8359363004789905    0.8718234082755705    0.6260597461454973 N
   0.0040509067007971   -0.0025647775193615    0.1241969993739206 N
   0.8302767338290635    0.2519598769402546    0.2526228499790796 N
   0.8346709064186021    0.2475258389773258   -0.0024059079244705 N
   0.0060573318948352   -0.0035400301561599    0.3762775895992674 N
   0.8315076682925898   -0.0003540100756143    0.7486841225177358 N
   0.8342076671570321    0.0001708245576810    0.5036236446423616 N
   0.8335211753110636   -0.0001498434082190    0.2502552034044226 N
  -0.0004349025629749   -0.0020494810944599    0.6264865546948645 N
   0.8323004851573941    0.0020267153482701   -0.0013754277840737 N
   0.4996893600173205    0.7510066962701873    0.5008327399765984 N
   0.8276125823356332    0.2503852819394335    0.4998520265257997 N
   0.0014482759420552    0.8763441552287040    0.4940257323282309 N
   0.8370153285877617    0.8750699738396834    0.8728162887042469 N
   0.3374918217333028    0.1281035566322589   -0.0063627230902273 N
   0.1658128426302644   -0.0016361987587601    0.2507750657082228 N
   0.1653975208083964   -0.0044699812976766    0.5003916522075897 N
   0.1615641744592758   -0.0038863746480072    0.7488013939688729 N
   0.1666675778871109    0.2535924262819316   -0.0023146595571656 N
   0.1751925505870395    0.2495031172272882    0.2499579722915474 N
   0.1707151884401841    0.2519153003647885    0.5008655169212636 N
   0.1671817434065308    0.2536727313286223    0.7511125658096670 N
   0.1651944171308860    0.5006541326741921    0.0008755996195364 N
   0.1673158447172235    0.4991157173428028    0.2512257013591430 N
   0.1665002733048422    0.4982657308683783    0.5003213010612841 N
   0.1656711389938161    0.5021396451073087    0.7495323185858112 N
   0.1670018756328648    0.7474408189755455   -0.0003882641835180 N
   0.1693752785184383    0.7481672604686660    0.2501191917644958 N
   0.1700600631484875    0.7522404406108911    0.4994532900117754 N
   0.1680751310998116    0.7500082844825980    0.7478638197345822 N
   0.5036714311963918    0.0012888334273795    0.0042910582352664 N
   0.5020128507910487    0.0000364418493031    0.2477067516548253 N
   0.4994294477692821   -0.0044289402687111    0.5001486927103894 N
   0.5043002436474365    0.0037394684287852    0.7503946893956618 N
   0.4976966533819958    0.2489316871979544    0.0024246854370612 N
   0.4985693751996877    0.2479226591374164    0.2523494091435523 N
   0.5027799414905828    0.2492267528960724    0.5003949097163400 N
   0.4991689094723716    0.2466335979185430    0.7456128431712308 N
   0.5003246228941129    0.4982329383186995    0.0002119633211109 N
   0.4987963322418448    0.5001370765282885    0.2534694074899516 N
   0.5024732327954341    0.5028855010479688    0.5015340451598589 N
   0.5005142808968046    0.5005278406519648    0.7460196001728752 N
   0.1627019276445188   -0.0007246945225966   -0.0012213804957125 N
   0.6696665332462030    0.8759367446278540    0.7510545894501689 N
   0.6666920099996658    0.8754934260865747    0.4998477369193797 N
   0.6630650351075634    0.8754001151364181    0.2512928282963806 N
   0.3391025917842466    0.1258100808465090    0.2506646364696962 N
   0.3335881594241491    0.1219802221745102    0.5022700838077603 N
   0.3367139617338571    0.1251402640104053    0.7499828389036186 N
   0.3366349126371927    0.3749713704504988    0.0023209054181792 N
   0.3354785506062849    0.3714545118845016    0.2476165486170292 N
   0.3285165833785099    0.3733296447806471    0.4995373424039558 N
   0.3285980406982897    0.3783701746797070    0.7501966150503206 N
   0.3325828258040778    0.6237283566736278    0.0007053256640380 N
   0.3360638010182818    0.6274590719254304    0.2552926894490096 N
   0.3378086711747559    0.6297439549482935    0.5020824767493876 N
   0.3290105760787349    0.6277898707326869    0.7451453027213967 N
   0.3362923273887453    0.8763618278517330    0.0011977433945496 N
   0.3379749832755352    0.8738250522103115    0.2512272197417848 N
  -0.0001877434016552    0.8756386361528016    0.7516290764507323 N
   0.3336023760885501    0.8736514880773141    0.4996056031505835 N
   0.6642829098762421    0.1217930487584624    0.0004169256939601 N
   0.6627940156853882    0.1238403840654415    0.2517240301153797 N
   0.6695653053658319    0.1264445829003119    0.4995852727354914 N
   0.6631192952168148    0.1209384351300793    0.7468991587206592 N
   0.6637064631935894    0.3771005537077954   -0.0019650235276124 N
   0.6655805702799102    0.3720222153714320    0.2456844765686621 N
   0.6704372933704781    0.3738180669834764    0.4998980463187714 N
   0.6703007078965492    0.3778095615570138    0.7519646465488408 N
   0.6648778416597874    0.6244532341891970   -0.0004782457215906 N
   0.6653675046194684    0.6294172248757195    0.2530021688663365 N
   0.6643097409212581    0.6257793155043339    0.4991653027462603 N
   0.6704237640776345    0.6266931029576068    0.7487096091905119 N
   0.6661818290368073    0.8749660955870311    0.0006513800938947 N
   0.3285959134644947    0.8715504704982447    0.7476725519101400 N
   0.0014653885777996    0.4984895340371676    0.3756150367957017 N
   0.3305365957566654   -0.0018929441395222    0.3764862736900740 N
  -0.0008221758573158    0.5011782357456332    0.8754633577515827 N
   0.4981000157354872    0.1269916335423457    0.6285129737311583 N
   0.5020376804140146    0.1273781228316180    0.3716261689872020 N
   0.5000626470555446    0.1212500366411461    0.1247148495842220 N
   0.1656180715056761    0.8740525781939551    0.8696676569484867 N
   0.1737628444526406    0.8706072696555076    0.6225804263548728 N
   0.1705402492914903    0.8729494714792563    0.3788386451203815 N
   0.1672147904063952    0.8711596134151802    0.1249940889717008 N
   0.1609480289369984    0.6256154126704304    0.8728561034179284 N
   0.1710489828798098    0.6268866032651080    0.6279719463032580 N
   0.1716613735299607    0.6265115394863726    0.3762634399369773 N
   0.4936206340861446    0.1261914282901751    0.8739480574012837 N
   0.1624090067150357    0.6259955905216772    0.1236659033626733 N
   0.1632773692553872    0.3800370687303671    0.6277375640316972 N
   0.1624491128717187    0.3794743051875689    0.3785483190099487 N
   0.1687687301294610    0.3793817486786428    0.1217153289633324 N
   0.1665995310712401    0.1248367002231639    0.8745919654735871 N
   0.1707608223982695    0.1205767182794717    0.6250395720461869 N
   0.0055963075506240    0.5004599735935953    0.6268846088100741 N
   0.1615279563507121    0.1203258843953342    0.1251115016929437 N
   0.6621701296401851    0.7511310311280156    0.8743300388901508 N
   0.6686023298111466    0.7499333150207075    0.6262267521463355 N
   0.6641148002354367    0.7508127066182132    0.3765034386411040 N
   0.1626349642300947    0.3759031048985368    0.8724586912051705 N
   0.4993433648529622    0.3712389229178470    0.1231238497648038 N
   0.4983921406867849    0.3738261523623067    0.3729117645159920 N
   0.4977004388021932    0.3752802068355698    0.6248030642234337 N
   0.8454463040896133    0.8723935227820974    0.3825553845987977 N
   0.8384346301923268    0.8706668355336181    0.1252292761880919 N
   0.8360440490310627    0.6223210961174949    0.8697634265275227 N
   0.8340631803274593    0.6299121449512611    0.6278372360808517 N
   0.8326752163183608    0.6199828467325913    0.3757149651426128 N
   0.8400353156183676    0.6267841518217411    0.1240344978602411 N
   0.8313522712431894    0.3734072839405662    0.8724397702303861 N
   0.8307610468044009    0.3752407823224231    0.6234109588110269 N
   0.8384155732054934    0.3764440824409027    0.3768493300592209 N
   0.8301578196223224    0.3795268486371507    0.1242372379388564 N
   0.8325223152961614    0.1289531235274801    0.8742709927592440 N
   0.8280973293030409    0.1220813405675073    0.6256165858221233 N
   0.8291388064231421    0.1271817332204031    0.3786571413561257 N
   0.8336626770410689    0.1237518130578455    0.1215139009778302 N
   0.4965034225915510    0.8735081452880503    0.8771517724779241 N
   0.4950544635531823    0.8727826016477173    0.6223344399359932 N
   0.4983230718323264    0.8727559700934026    0.3767060558746279 N
   0.4957377023095136    0.8769683988329878    0.1274183039184279 N
   0.4997199247856229    0.6293996156976008    0.8759458875688164 N
   0.4953407092413651    0.6252747543605379    0.6223196023737548 N
   0.4996214011754381    0.6268098779122150    0.3761094279453200 N
   0.4994965697644096    0.6276950660435044    0.1251794440529527 N
   0.5042068461351319    0.3760331654008641    0.8782076003545998 N
   0.6706159121957643    0.7491565871357307    0.1264534998325396 N
   0.6684244021062916    0.4973409456073098    0.8738715258878578 N
   0.1717212333227295    0.1214287416414697    0.3751490084144935 N
   0.6635001281355540    0.4991011842000079    0.6268165187040075 N
   0.3311862839469868    0.7521891493696943    0.3772339539915873 N
   0.3318512967824292    0.7535307663322796    0.1271543125979354 N
   0.3307784254577044    0.5008452942750640    0.8745711439629800 N
   0.3348768214340989    0.5045768561528999    0.6273613061853656 N
   0.3312114137088276    0.5044093271179191    0.3760995704282629 N
   0.3312064965366923    0.2457826715407144    0.8752183455240732 N
   0.3360498647201257    0.2450669910752183    0.6228101392400870 N
   0.3380564700982402    0.2477488904456931    0.3734100754196299 N
   0.3352462498588008    0.2510396683757537    0.1249005195615345 N
   0.3285594253914778    0.0027285929080548    0.8741024063104141 N
   0.3292785604298116   -0.0035255968367356    0.6221963393925687 N
   0.5043591191201409    0.7512354092734930   -0.0003979340844543 N
   0.3355099940099937   -0.0039373896605803    0.1255013895863373 N
   0.0051907136083729    0.7521008792883876    0.8732134422610841 N
   0.0025982873969513    0.7508237517575340    0.6264960509926689 N
   0.0087397489861983    0.7531809540509680    0.3748330801194681 N
   0.0016247383025892    0.7502165504709867    0.1243267978111699 N
   0.3313405953400940    0.7507590425795430    0.6251106588587373 N
   0.3338528406849287    0.7548523403380800    0.8700956295333104 N
   0.3296151435359060    0.4993185486391710    0.1223485747682847 N
   0.5018129056643362    0.7512856604056899    0.2532973656070807 N
   0.6704661884394921    0.2523976387285258    0.8747661165405707 N
   0.6749182834304622    0.4953020445028313    0.1210366358551019 N
   0.6635885149312306    0.2471621648833182    0.3778120654830688 N
   0.6607875825196167    0.2493100188208363    0.1277356448959631 N
   0.6647535898696730    0.0014478073277743    0.8751329029970204 N
   0.6682764020377889    0.0039474809903028    0.6265971881646328 N
   0.6684963821710596    0.5024897238383612    0.3773411134149586 N
   0.6603628547407758    0.2471018623653515    0.6208201508043794 N
   0.6630806216289169    0.0016275591907349    0.1247716771118577 N
   0.6661768002487936    0.0040340414716011    0.3761087776664424 N
   0.1676514926849990    0.2483150795836484    0.1249747782919740 Nb
   0.3288866682357796    0.5005869344579281    0.2491869350672251 Nb
   0.8333814057084585    0.6261663228115089   -0.0020177656105062 Nb
   0.3344879201842423   -0.0008268794159523    0.7479352224803878 Nb
   0.8328901568080268    0.7483220067715145    0.8741431721491484 Nb
   0.0022348282585428    0.6267172642504422    0.3729600649491804 Nb
  -0.0001850621211180    0.2509091213051273    0.5023868915501354 Nb
   0.8366637844739926    0.6273026806399731    0.5009371259596602 Nb
  -0.0022755070370940    0.7509763890047911    0.5003320497943861 Nb
   0.8348414855582948    0.5017042292060890    0.6248302462822781 Nb
   0.0063768078788281    0.8730113322530335    0.6217758906988342 Nb
  -0.0034201513338479    0.3722148507131178    0.6246097915099219 Nb
   0.0073383591795777    0.5030537317701586    0.2511625734465566 Nb
   0.8393274051609256    0.7474364556968116    0.3787986653259081 Nb
   0.0053554488673937    0.2498499077552012    0.2469451226700717 Nb
  -0.0006955926592398    0.2523109485615747    0.7488711992039132 Nb
   0.3329408725939160    0.0034732160618382    0.0007924723578849 Nb
   0.6675912565719599    0.3753847739572187    0.3743325027987722 Nb
   0.1636940536613524    0.2537882818170653    0.6260226818690641 Nb
   0.1705564402754676    0.8732268524309303    0.2522360811858486 Nb
   0.1670012236071456    0.8731554864617671   -0.0011314072365834 Nb
   0.4950451440031434    0.0017948210779708    0.8763994514433376 Nb
   0.6695231293919879    0.6207836755089562    0.1255506301187409 Nb
   0.1657263125406228    0.6214665792598076    0.2514817586467275 Nb
   0.1644634265257086    0.3750877661183925    0.2480018733537685 Nb
   0.5003066754546340    0.2516548331750003    0.8730236976070149 Nb
   0.3299728862947814    0.6292660242946435    0.8713174264725960 Nb
   0.3310682271370289    0.1232958396989036    0.1201233993321726 Nb
   0.5039214870188894    0.5002553785162018    0.1274949025356254 Nb
   0.1692384112741544    0.1254391251833335    0.0023449139064484 Nb
   0.3339021491694005    0.3729455979117598    0.8764121921354047 Nb
   0.3301925738436874    0.3744887734981085    0.6248509641073962 Nb
   0.6662855766507979    0.4993991651252275    0.2479180010637891 Nb
   0.6743741744793109    0.8756082983939126    0.3755455407793014 Nb
   0.6632043129273131    0.2472361798875413    0.7494496325294685 Nb
   0.6655676414342201    0.8758378637472308    0.6260951219959242 Nb
   0.5028571120491323    0.1244283905017090    0.4993381126220401 Nb
   0.8327299474559584    0.8736807916062063    0.2570513267042474 Nb
   0.8347086734796034   -0.0027853847313452    0.3774400865009139 Nb
   0.0005820272573968    0.0018821228563032    0.0017276868925445 Ta
   0.1644979207921231   -0.0082895770409740    0.6268882146081736 Ta
   0.8343740877893042    0.4966177697095915    0.3739152006745061 Ta
   0.8395457367322156    0.5060652670394431    0.1219319461152967 Ta
   0.3348746410679165    0.7543581999208997    0.5017837235961231 Ta
   0.4940683153878895    0.7543286058533631    0.3796617005364307 Ta
   0.1626850438632828    0.3738901263685417    0.5084600290546329 Ta
   0.4953476706641085    0.2428365687704122    0.1257438673454832 Ta
   0.1726385717405614    0.7481635896452618    0.8705125095849420 Ta
   0.1727105497104666    0.5018308729378070    0.6266670602777903 Ta
   0.6633961558216629    0.5004157062499754    0.0028352901439021 Ta
   0.8331679022690642    0.8723956999745774    0.7482316654954129 Ta
   0.8350553956704070    0.8745554446937897    0.5007883771063253 Ta
   0.8350133384909419    0.3751347397409237    0.7465658993359174 Ta
   0.8282145791054514    0.1284656919145072    0.7509442377724019 Ta
   0.8292632150096306    0.1257691381547759    0.4989490264492479 Ta
   0.6708510015104044    0.7474443327711342   -0.0002772926687890 Ta
   0.6697099059247786    0.7562328792739985    0.2554230736345061 Ta
   0.4980628306788128    0.8743833936506514    0.2535583769218456 Ta
   0.6722967737928517    0.7528124588240825    0.7486933825093552 Ta
   0.4962481207628336    0.1200686729766566   -0.0018672671848805 Ta
   0.1683152191080543    0.8736915595253858    0.7432418693136644 Ta
   0.1682064669994288    0.8693914586328297    0.5002293943434570 Ta
   0.8337000875535319    0.7490111524461063    0.1259574962093929 Ta
   0.3394315124306919    0.2449066686655143    0.2481787387782312 Ta
   0.1672664193009074    0.3780764074453483   -0.0012521340639735 Ta
   0.0056845329435577    0.3754057680067469    0.3728107739359308 Ta
   0.3407365525310486    0.1248535403628192    0.3768127093079957 Ta
   0.6595804522123860    0.1282860834516319    0.6249773215643192 Ta
   0.0037284148336307    0.8758046277420187    0.8761108573353095 Ta
  -0.0027360977431576    0.5021652015958638    0.0016228163789000 Ta
   0.6590632977994181    0.3765079824856025    0.1215630579026227 Ta
   0.0108501786176567    0.8736924737064274    0.3717914269298976 Ta
   0.3367208111937339    0.1211975180816528    0.6285077613079531 Ta
  -0.0054022733109949    0.6281665053250525    0.8754829893609978 Ta
   0.6663893294648230    0.3720297051120989    0.8713701128109382 Ta
   0.0014491988433242   -0.0058788245056380    0.5001673442292438 Ta
   0.3333258824015542    0.6281895260334002    0.3778804774426522 Ta
   0.3299813211476491    0.8749364912937746    0.1245228552193955 Ti
   0.6632301347285120    0.1262081605548191    0.3774170709345609 Ti
   0.3305539776490687    0.8737191136768319    0.3766001597269824 Ti
   0.8328535577149281    0.6266389976798677    0.7476893342823664 Ti
   0.3328391042416873    0.8719244919351157    0.6246781999617502 Ti
   0.3318461337850229    0.6293071429525353    0.6247369975483051 Ti
   0.6686858544496894    0.5019947451369117    0.7474566746272104 Ti
   0.8332825561139668    0.3730309647379980    0.5003905132481944 Ti
   0.6628582028261610    0.2491991226726775    0.4976900245483283 Ti
   0.1693642942106472   -0.0042382728964708    0.3745471242752213 Ti
   0.4970159456408056    0.6265815437175429    0.5014071393788472 Ti
   0.5017288001993052    0.3741067599099412   -0.0003540476132430 Ti
   0.4990878451565313    0.1245586250800053    0.7519402731301854 Ti
   0.4983437628221518    0.1246214491342212    0.2496063201617724 Ti
  -0.0036492760325300   -0.0046984676905820    0.7490480500192336 Ti
   0.1691499288907468    0.6287025047712872    0.7494404146842796 Ti
   0.1663328680707026    0.3755941175713458    0.7471126131415373 Ti
   0.8307178157879377    0.1242784283001064   -0.0011994464106022 Ti
   0.4983765214114192    0.8729586981439806    0.4996844582355980 Ti
   0.5001876237270891    0.2483237375630686    0.6238573573782457 Ti
   0.1641329721962886    0.5030896571558056    0.1286900183794800 Ti
   0.0036213286308556    0.6257878719002614    0.1249619945879835 Ti
   0.0004562323299704    0.1237670871089075    0.1230517610575484 Ti
   0.8355267752054059    0.7520805180969115    0.6248001113671271 Ti
   0.0047678200458575    0.8724008327790641    0.1251806825358623 Ti
   0.8329072889596041    0.2499065473106169    0.8727270021158995 Ti
   0.4968784184029341    0.7506034936082207    0.8726001353540820 Ti
   0.6657264485614496    0.0014782293047002   -0.0012194723011187 Ti
   0.4974492653707046    0.5016970626585805    0.6245053974432353 Ti
   0.5024858549365828    0.2473399883184551    0.3776156857968793 Ti
   0.3300589393474384    0.7484951864201750    0.7479958051771560 Ti
   0.1698965491453668    0.7496148917787421    0.6255226824060783 Ti
   0.4958171708849028    0.0001901744498709    0.1257858033194731 Ti
   0.3348261395503899    0.1222544717483023    0.8723304515038512 Ti
   0.1658067947514517    0.5037392251277171    0.3723196730200095 Ti
   0.1657270726353294    0.7518716102295302    0.1261691495701019 Ti
   0.6652991578199680    0.0000477208378646    0.7501759878435029 Ti
   0.1690549234206213    0.7497296306260501    0.3738777233494495 Ti
   0.1661677740846596    0.1235830307594968    0.7486600210834357 Zr
   0.3344023411437574    0.2514909267296434    0.7482116614997815 Zr
   0.0002268023922039    0.7514451518628367    0.0000045520296943 Zr
   0.6646448111544354    0.2492942232618398   -0.0002067891872153 Zr
   0.3343731142205146    0.5022472039657426    0.5030845751365725 Zr
   0.1650250653048770    0.1232229450513665    0.5006916377104629 Zr
   0.1686452392110669    0.1246391763176372    0.2487304604279426 Zr
   0.3329632288350265    0.7514088742740047   -0.0010409748425177 Zr
  -0.0023762973443251    0.4997039531696522    0.5007924154670038 Zr
   0.0035803579610181    0.7507841031944973    0.2488857784101690 Zr
   0.3344047100850184   -0.0012583067801976    0.2502633073156137 Zr
   0.6690993983731028    0.6264403175196022    0.8726381518669122 Zr
   0.5011965425960403    0.3734594770334125    0.4998989503620617 Zr
   0.6680833728854884    0.6234784912221116    0.6248417921699975 Zr
   0.6646488678433596    0.3737293791634301    0.6257920116339255 Zr
   0.6620939497109128    0.1258587425673585    0.8734478210618002 Zr
   0.3288147640513366    0.6246315979438620    0.1290251550439204 Zr
   0.3290488918145742    0.3764522800731831    0.3727926730309267 Zr
   0.0007278133477030    0.6275817579742911    0.6260793070552249 Zr
   0.0031419822014702    0.3767160027399452    0.1263379640122098 Zr
  -0.0005173474770864    0.1235633891637279    0.6266890661365956 Zr
  -0.0004708820458800    0.1237697256738018    0.3753791469201475 Zr
   0.8295288016608722    0.2490141321578180    0.6251895888409006 Zr
   0.8326890601162676    0.2493152308532769    0.1253336367493470 Zr
   0.8323241729100320    0.0020212344548870    0.8728449808802090 Zr
   0.8359076176550819   -0.0019366289612737    0.1236382450281055 Zr
   0.5000845039246734    0.5006924393465156    0.8735008142661379 Zr
   0.4996050471663916   -0.0010057574717406    0.6256081239075189 Zr
   0.4993038335739327   -0.0003521909805802    0.3750714778687414 Zr
   0.1662159758619762    0.2509531497205195    0.3748772100852495 Zr
   0.6667859365319749    0.8764132087613670    0.1260502043512391 Zr
   0.8332446316678321    0.6229261422355558    0.2502061511417384 Zr
   0.8339133595779232    0.1256635637069415    0.2513464343571802 Zr
   0.4980097809194939    0.8770898125733970    0.7495150545037791 Zr
   0.4973445503874249    0.6272240153916542    0.7490672535256861 Zr
   0.4991983576379838    0.3738913581334973    0.7494856087176305 Zr
   0.1693157610770113    0.6280398193790181    0.5010076515311820 Zr
   0.6653622122174870    0.8762336586870764    0.8751839654589800 Zr
