Hf33 Zr33 Ti33 Nb33 Al27 V33 N192
1.0
  13.1127480466310189    0.0023629696436750   -0.0038979807557531
   0.0031506801014143   17.4774241217601372   -0.0001579524578554
  -0.0051973616637995   -0.0001579766962678   17.4722143774203609
Al Hf N Nb Ti V Zr
27 33 192 33 33 33 33
direct
   0.6676903195692295    0.8696368009778196    0.8709369006379637 Al
   0.6633152889796102    0.5028877103740660    0.5007162451370587 Al
   0.6624203908489738    0.5046826370070792    0.7544514934780300 Al
   0.6665273071756753    0.7439610076274773    0.5029108763232967 Al
   0.1679029236390595    0.1334053025060886   -0.0039291198289219 Al
   0.6614091300239714    0.3816336955845015    0.3808850067821694 Al
   0.1681860850192648    0.3822522897702599    0.5019359379322209 Al
   0.3258543486750933    0.8671831686993055    0.3748961354852199 Al
   0.4966286799436673    0.3725382157959365   -0.0056985579372060 Al
   0.4878147936204544    0.6290334197743357   -0.0075249080387259 Al
   0.6710405972177740   -0.0027618038582381    0.2492746597282638 Al
   0.3277655000844942    0.3734404329323101    0.8749064628312092 Al
   0.8364815466219351    0.8750869529941321    0.2477045257185780 Al
   0.1627460923999231    0.4925054289783353    0.8662500986594633 Al
   0.1654796034407236    0.7501100760664052    0.1384564695689577 Al
   0.1764289208650357    0.7396948477416621    0.8689002406663358 Al
   0.8264605670513132    0.7462784552292312    0.8710317606443035 Al
   0.8364099062091163    0.7436495294533432    0.6158007425810639 Al
   0.4962889209160684    0.2525107129976071    0.1161860359142143 Al
   0.4998513723650352    0.2522482281084051    0.3733843518163494 Al
   0.4936851633437835    0.4995090630255217    0.8747711244940658 Al
   0.8322683654080025    0.3836970772209546    0.5017607784367005 Al
   0.3273458151917917    0.2525670980584527    0.7602081107066038 Al
   0.5024700936883023    0.1297451859503474    0.2487415401466645 Al
   0.0014425352390165    0.7455457723640873    0.7507600638433917 Al
  -0.0010726115854919    0.0072407757641428    0.7472994341694758 Al
   0.3220026905600848    0.2555429983810988   -0.0130962267291881 Al
   0.1700433437755332    0.8723705080351807    0.7483141525003426 Hf
   0.4979227303721521    0.1228766763725940    0.5009735986729538 Hf
   0.3248311805033374    0.8698206720539278    0.1292547792563451 Hf
   0.5018860178512561    0.3770474349838721    0.2512017231977318 Hf
   0.5000829022425625    0.6241180286952680    0.5027628085231237 Hf
   0.4986566896795719    0.6239545723609248    0.7513227729401478 Hf
   0.4983598133543413    0.8655078375926245    0.0009892804057985 Hf
   0.4952582724268619    0.8674277773301354    0.5033142921734521 Hf
   0.3315728801074250    0.3792936996138335    0.3775251667908593 Hf
   0.8372450295391622    0.3765315466267004    0.7490104752799449 Hf
   0.3274746829964740    0.1235691132291097    0.3740859222404934 Hf
   0.8364796231536592    0.6302262563245453    0.2485951809251928 Hf
   0.3273982521783771    0.4979821207494219   -0.0059052763387997 Hf
   0.1652938442741863    0.0026064965054479    0.8722268044711473 Hf
  -0.0011250349199019    0.3810455989336758    0.6269797848522672 Hf
   0.0044135927125508    0.3811010293742643    0.3772287464851691 Hf
   0.0054223632476880    0.4955510581174431   -0.0001388410858922 Hf
   0.0024765327368066    0.1225786086138253    0.3729195346313129 Hf
   0.0016448801723259    0.1257705382581445    0.1248663974090729 Hf
   0.0065145540243084    0.2534351398963837    0.2469575167275946 Hf
   0.4969754758866581   -0.0020723618131348    0.3733809547792030 Hf
   0.4988098245348966   -0.0005328623363927    0.8696592817620320 Hf
   0.4936032662214880    0.2483724999175047    0.6272390376982669 Hf
   0.8376663889739810    0.7508284247126257    0.3816341785055054 Hf
   0.8373338767192896    0.2525517484050655    0.8768512969511353 Hf
   0.1714383525979311    0.6249261345954729    0.0011300882043004 Hf
   0.0028916976984741    0.6249134303496704    0.8726502539186400 Hf
   0.4996874875612045    0.8702236332488430    0.2494779212090124 Hf
   0.6736720239751757   -0.0062638895194927    0.7471438228870846 Hf
   0.3290723799290983    0.2522017373839294    0.2484137206019612 Hf
   0.6632706216506036    0.6305141649676463    0.1256298991540342 Hf
   0.6685127536905110    0.8700221320082108    0.3743236389029514 Hf
   0.3255216695194085   -0.0075017653959848    0.5002908121778775 Hf
   0.8406130258147185    0.2522978408517811    0.7521195641579893 N
   0.8354286783003414    0.5004286258384569   -0.0024861222182056 N
   0.8402813036037886    0.5065293677366570    0.2511965477703677 N
   0.1733811721773242    0.2531127792096831    0.7562719396159632 N
   0.1690176725445348    0.2524628243255091    0.2516316890148201 N
   0.8228217277270932    0.4953123297293415    0.5038647309298414 N
   0.8339445792461165    0.2574004962825246    0.5025466332347023 N
   0.8288170663188540    0.5005325341770062    0.7442288764188828 N
   0.8349276833045578    0.7441456583556314   -0.0067844721772672 N
   0.1636687585050339    0.2629477984750081    0.4994465581807624 N
   0.6680201538754973    0.1209271296112541    0.7511097367571610 N
   0.1630819284583054    0.4973244411700670    0.2529571854020538 N
   0.1671409510569472    0.4974495117508737   -0.0050845372034553 N
   0.4981898238516111   -0.0037484957484146    0.5002475610197630 N
   0.6694051485141937    0.1248373356008712    0.4996613140846060 N
   0.1724123001501143    0.2501858391310348   -0.0047002492864625 N
  -0.0009633415790342   -0.0002879618074257    0.8652874568054136 N
  -0.0042460304347985   -0.0000374119061525    0.6309713269299846 N
   0.6669094338740574    0.8632473743067142    0.5003061602537524 N
   0.0013710856391445   -0.0004940452374732    0.3749721041955100 N
   0.0038289332036581   -0.0016606472195616    0.1279508510416701 N
   0.3359882361202660    0.8750138215634053    0.7430227771346536 N
   0.8368595031023890    0.7502573443352647    0.7532777773070793 N
   0.8379072749864950    0.2510858493316067    0.2468924064826346 N
   0.8318552215722738    0.7475973848898183    0.5053769049111726 N
   0.6649348172988724    0.8682273196277933    0.7569626616381284 N
   0.1660490332584540    0.0087208637927686   -0.0001389375633957 N
   0.6708309618974087    0.1256871874505215    0.0045994154066481 N
   0.1600742675365848    0.0009252394665130    0.2497080563288075 N
   0.1620351978029512   -0.0037321492829909    0.4939223020512846 N
   0.6580267508332442    0.1168236144448558    0.2474468665831967 N
   0.1564060026672775    0.0010673716257653    0.7495288637579154 N
   0.8332484024564748    0.7590058787571671    0.2498733179729902 N
   0.8416084864377148    0.2510543011750160    0.0016372608543214 N
   0.8463611206091814   -0.0032468787544825    0.7475057677857224 N
   0.6684193111982869    0.6214966685808607    0.5005310600963201 N
   0.4979659045589844    0.5024558902354714    0.2547202762511757 N
   0.6645307575460878    0.6196838836034622    0.7506851454068714 N
   0.6575022455418077    0.6231730505662514   -0.0040326695982552 N
   0.1588054428746523    0.7453133025985872    0.7568256903346197 N
  -0.0036322394342898    0.2533124817783411    0.1227593076940058 N
   0.6648374389220493    0.6280846103958950    0.2523038729634598 N
   0.5055707638740995    0.5006766672051820    0.5019907572962541 N
   0.4998592616660750   -0.0016430226993033   -0.0016896992577957 N
   0.4880229944312158    0.2504617866966123    0.7539388949431823 N
   0.4974485547545842    0.2498759956798588    0.4929340565180937 N
   0.4999564841562547    0.2468963389698553    0.2547231566748379 N
   0.4939046872894838    0.2589437474389123    0.0017279531441904 N
   0.5047986235109452   -0.0056447724204326    0.7464262407918527 N
   0.5044147734615304    0.0040310342756152    0.2516033255525257 N
   0.4951062676381237    0.4938068011402036   -0.0066342838547606 N
   0.6676902311498816    0.3851003788520545    0.7519634991443317 N
   0.5020588979398330    0.5013041123089784    0.7560619404062882 N
   0.1684801381397987    0.7471574987856702    0.4964424212675217 N
   0.8406948605136770    0.0021151248913002    0.5013187710584301 N
   0.8288817078153886   -0.0081644272322723    0.2546185113769087 N
   0.1684698147027076    0.4977385261566258    0.5030093399674682 N
   0.1664849896356668    0.4988165246054374    0.7542006714182439 N
   0.6664436147775802    0.3755812551016237    0.2610171490251162 N
   0.8350755448918428    0.0009485881383999   -0.0015661013038226 N
   0.5056536086808490    0.7489369978199728    0.7451079925037264 N
   0.5088698160446302    0.7462929638386134    0.5003497924503248 N
   0.6641339045363082    0.8716680166710346   -0.0038823123112470 N
   0.4992960330864648    0.7452051291497971    0.2506084265685257 N
   0.6677664868711930    0.3836713291431433    0.4948586400521806 N
   0.4936389531764486    0.7401873357126100    0.0004951488526446 N
   0.1679310514653643    0.7474137197429328   -0.0162287885876323 N
   0.6703928657114919    0.8797577761414186    0.2487070081261739 N
   0.1694848229684670    0.7541411214025264    0.2493609208134256 N
   0.6591221502382220    0.3739932124058481   -0.0020751071667204 N
   0.0050838835457756    0.2523542427616820    0.3751374988128149 N
   0.3321202607148321    0.0031733240582774    0.8712089887072790 N
   0.0026437417091577    0.2558360239722832    0.8770018898928514 N
   0.4969178860237606    0.3779075935179598    0.6288601242101497 N
   0.5053396600187218    0.3719799329771694    0.3753661431465918 N
   0.4983405655679615    0.3694925493837600    0.1196185585346662 N
   0.4956766728097837    0.1280528144669538    0.8752835606249971 N
   0.4916932835081346    0.1215462310378056    0.6228908408092301 N
   0.4985315879495735    0.1296715016673477    0.3685240136172853 N
   0.5011386214180951    0.1349773617255146    0.1320134780815749 N
   0.1662234039163847    0.8704408754009254    0.8722793800365360 N
   0.4960106040825529    0.3778720608606451    0.8822381154622077 N
   0.1713191956174459    0.8719515430541792    0.6225146095898614 N
   0.1608737022385792    0.8693212210174769    0.1304952938000848 N
   0.1691520121900652    0.6236946704682402    0.8720386214767530 N
   0.1674013329547427    0.6204399487777211    0.6261764465426312 N
   0.1651740526138699    0.6256457130614701    0.3783459093866980 N
   0.1653087859934532    0.6313053935377508    0.1242713808130775 N
   0.1729201536586373    0.3805389386298999    0.8751206125242353 N
   0.1614768142430679    0.3799113875876551    0.6206404250598792 N
   0.1673438810526079    0.3784433171632684    0.3811909141042585 N
   0.1776091497339562    0.8732334044255057    0.3729613961536954 N
   0.4950096326416210    0.6300078689867123    0.1220529861659065 N
   0.5044356272935548    0.6228104460847300    0.3742660445799213 N
   0.5006143349281958    0.6247669616015876    0.6268332442346916 N
   0.8355530695375301    0.8748566993629737    0.3672477593615994 N
   0.8331427803896182    0.8687461168794401    0.1346722610490608 N
   0.8306871269395961    0.6325018884454544    0.8767373274178547 N
   0.8343992358133295    0.6310402395221945    0.6219733578072854 N
   0.8349303950035935    0.6285260178551548    0.3743851031483469 N
   0.8364223165992263    0.6334598637001988    0.1215987795525768 N
   0.8352672068984829    0.3757996762812601    0.8752695793519742 N
   0.8332677450432499    0.3807605614193434    0.6179488754978362 N
   0.8274353961912514    0.3782630709163773    0.3844440032405024 N
   0.8404366429211850    0.3743288827706239    0.1227162132152290 N
   0.8374337319058965    0.1225360764610749    0.8774880704672626 N
   0.8348826727993462    0.1172239553709900    0.6200525495788745 N
   0.8373249166203733    0.1215148293102683    0.3786955357831386 N
   0.8333631614671287    0.1272977501887544    0.1226676881523114 N
   0.5107078256648233    0.8713382674039953    0.8724197959209806 N
   0.4958057133671849    0.8711826666524921    0.6257850320624979 N
   0.4940369074227020    0.8724079273754600    0.3753242314807779 N
   0.4998769841300486    0.8692541589345352    0.1257842306745205 N
   0.4959630418219830    0.6153157514477391    0.8803293918498972 N
   0.1593645028112306    0.3831045130528092    0.1207421758665918 N
  -0.0008996988753810    0.2560979561094566    0.6358426370425225 N
   0.1697831825362898    0.1306957203894798    0.8798619222728752 N
   0.1670911604155915    0.1252586138235464    0.3712979944106984 N
   0.3350844642530056    0.5013703669179900    0.3804178345468596 N
   0.3238911666533638    0.5048103691321905    0.1208361192324773 N
   0.3324382540384531    0.2569152875031448    0.8749386599251298 N
   0.3297720973995017    0.2499722381063582    0.6381761969283964 N
   0.3413279259662677    0.2509909728373039    0.3749523461211295 N
   0.3390128599569897    0.2522448257978386    0.1200188615088722 N
   0.3286138428858094    0.8686955425118467    0.4944422282959089 N
   0.3367483668817046   -0.0030431452767459    0.6226597652069407 N
   0.3325031711839345    0.5043704754792842    0.6290321515383498 N
   0.3291387054827283   -0.0064250075112795    0.3758115113848749 N
  -0.0046413496593604    0.7479024887227840    0.8684358036933149 N
  -0.0098153089112978    0.7454625711412807    0.6296770311499010 N
   0.0049119681010579    0.7485723720700741    0.3788395542636869 N
   0.0121444296014921    0.7503928428520413    0.1229499937091652 N
   0.0105873755043598    0.4982223408427914    0.8701659747957542 N
  -0.0012157004435183    0.5046879595095007    0.6293666490479844 N
   0.0061492943995930    0.5042262771682651    0.3731542504381763 N
   0.0085069130809735    0.5039939636242896    0.1252966426516848 N
   0.3282760401913126   -0.0023140838839687    0.1258309298467951 N
   0.3362208799660594    0.4942768617151135    0.8707024298356184 N
   0.3217204432003072    0.7470261009633001    0.1222213353096598 N
   0.3348812624385141    0.7557483992119554    0.3784823390638942 N
   0.1643137890685401    0.1254244932735232    0.1198378941497797 N
   0.6723984647068104    0.7504080167464161    0.8694312445529827 N
   0.6767761664977427    0.7423333413461025    0.6188363880468246 N
   0.6679406301113210    0.7449635366736332    0.3848405916075694 N
   0.6671187420651342    0.7531578197819262    0.1251066477285719 N
   0.6589625087941734    0.5016211941464603    0.8673919707042475 N
   0.6655842684861806    0.5082331244929269    0.6210950588875042 N
   0.6627479136028513    0.4963888165201888    0.3861674251362137 N
   0.6658283171134588    0.5035666427617940    0.1243519561508501 N
   0.6648110901303510    0.2528507564389293    0.8752812011744084 N
   0.6612436696764986    0.2546585765689141    0.6258511014197766 N
   0.6570221869652986    0.2563031254448259    0.3741837135256534 N
   0.6582852567432932    0.2483930639722029    0.1251302852120529 N
   0.6703223587414627   -0.0107248805980604    0.8740615303047202 N
   0.6693894068577189   -0.0052013812027075    0.6256639489370400 N
   0.6679508703998616   -0.0033475400824031    0.3674566517071381 N
   0.6676882129814952   -0.0026263932517769    0.1345811045635430 N
   0.3258536266153009    0.7414631544443488    0.8739820206265871 N
   0.3391455779589254    0.7475325168726599    0.6206469062475660 N
   0.1722483538267466    0.1266270767766445    0.6299969558275182 N
   0.3285468114981066    0.8734562796097005    0.2578806495858399 N
   0.8236387114417700    0.8657157092253317    0.8759819102430917 N
   0.3295182644348468    0.6207261531345809    0.7493374118167826 N
   0.3324501998506275    0.8706072557403994    0.0011411960626831 N
   0.8310804746652186    0.8643161848594725    0.6238352591477404 N
   0.0104548045874305    0.1305959444416666   -0.0003436840415589 N
   0.0044790663902866    0.1239997301185625    0.2484665343509248 N
   0.0077227563503518    0.1228837798003751    0.7500396283131491 N
  -0.0001911464535675    0.3734705814944024    0.0000050941044606 N
   0.0065742773136706    0.3796135507571742    0.2493291190686187 N
  -0.0067432929449053    0.3789044655081996    0.5013891768832619 N
   0.0025818090641402    0.3785412406436566    0.7533412167114484 N
   0.0020560762127504    0.6226100603358997   -0.0000938600077515 N
   0.0006077950116483    0.6235056712821740    0.2496990858302541 N
   0.0065415002915004    0.6322731943238918    0.5013645141125747 N
   0.0058239007325944    0.6293260184579038    0.7482411363776246 N
   0.0005418652835939    0.8734465781632929    0.0054438328173215 N
  -0.0041432989525363    0.1208787538836174    0.4986040501253652 N
   0.0083746739767077    0.8726400619126159    0.4987929366409631 N
  -0.0072272908425648    0.8788846315566180    0.2482380435097099 N
   0.3377951483178597    0.6249174811694173    0.2475336525255663 N
   0.3316989926622482    0.6260013301366352    0.5048113482665461 N
   0.3280011492216462    0.3723955226075167    0.7609284031523126 N
   0.3209950181532642    0.3800696378368094    0.5029543247185881 N
   0.3301105214701474    0.3748941373351798    0.2499642402381329 N
   0.3390067709343260    0.6226267764468452   -0.0030870279317357 N
   0.3286448402684438    0.1369252566513717    0.7515018820288216 N
   0.3336428768260883    0.1220270374270752    0.5017984110983494 N
   0.3396475431791361    0.1264291384490100    0.2503051916678704 N
   0.3235387569556336    0.1374046224730393   -0.0040073231375807 N
   0.0016352951300516    0.8646338675541341    0.7510718944955853 N
   0.3316496909246844    0.3695112672766911   -0.0098282956146887 N
   0.3367314075831542    0.7461895051552252    0.7464449417029813 Nb
   0.0056146542762393    0.1319591288018276    0.8745947307529289 Nb
   0.0023595998572189    0.1316950383850238    0.6234872749495702 Nb
   0.6738645529624048    0.2513167345126699   -0.0002933201920832 Nb
   0.6742178211190701    0.2459902386766026    0.2471836895089848 Nb
   0.6632762762919876    0.2500469127364836    0.7496594201510307 Nb
   0.8387811488183882    0.5071522250147691    0.3754394579443378 Nb
   0.6664226906941295    0.5054846192401498    0.2585717101411414 Nb
   0.8326571293166779    0.2449337696310288    0.6268489284213510 Nb
   0.6628928031259826    0.7511699361436311    0.2516203563014628 Nb
   0.8342424194791960    0.8725118711170742    0.7484899629001620 Nb
   0.1649987676489277    0.6207881454733087    0.2498617164548962 Nb
   0.1631011784214388    0.2508934652268054    0.6286691293545658 Nb
   0.1619563695548931    0.2576220951840368    0.1234552591664171 Nb
   0.1624676725594796    0.8728040522238398   -0.0004666580619488 Nb
   0.8410468551446045    0.8771377260094206    0.4963315470793433 Nb
   0.8405816544892697    0.6181930885789582    0.5000027571401887 Nb
   0.4968879695885481    0.1230644268108638    0.7473312205555105 Nb
   0.4891723437465266    0.3791081989137275    0.5027548983590489 Nb
   0.3343931470216160    0.7455811344776596    0.2499445846730899 Nb
   0.4964495476718560    0.7429876416505572    0.8690506031004684 Nb
   0.8338903541686052    0.1223977079082189    0.2491685721146395 Nb
   0.0127559722286139    0.8769747826489757    0.3761292422262949 Nb
   0.6648316494355772    0.1249154770136228    0.6271961543343033 Nb
  -0.0016404781346241    0.5087759020124272    0.5020144211226814 Nb
   0.6671049639078420    0.8680474405930673    0.6299039816072990 Nb
   0.3272223914521748    0.5026663420128745    0.2504885559068797 Nb
   0.3292608020295015    0.2515086006272290    0.5065987889733570 Nb
   0.3342255669510915    0.0071306288528846    0.7447776453559865 Nb
   0.3237629076105325   -0.0027401315219937    0.2519352990851507 Nb
  -0.0037790830276681    0.8707409592058246    0.8768231857121231 Nb
  -0.0020600751532171    0.2478754613881903    0.5071301565442775 Nb
   0.0027137503087590    0.7481784652052909    0.0002816535335023 Nb
   0.5018822438431424    0.2506798556240863    0.8746723013852136 Ti
   0.4980200716592206   -0.0036561411835095    0.6270256656524681 Ti
   0.1615296212329485    0.3755059463808492    0.7518907751589605 Ti
   0.1671865126373084    0.7489807994668091    0.3757785325770358 Ti
   0.1663047790859895    0.5041729171637516    0.6301383055708326 Ti
   0.1669569042176169    0.5039603777904084    0.3769314911881246 Ti
   0.6669470551640723    0.3732833685523180    0.8756150501801402 Ti
   0.1688419302096419    0.2541877564502071    0.3759983798615706 Ti
   0.1625997790213959   -0.0051171519577544    0.1284470231372480 Ti
   0.6658288229653628    0.6214270122446574    0.3751335652120598 Ti
   0.0052782286811451    0.2553313016994640    0.0007453951628474 Ti
   0.0004243304912204   -0.0034406711979007    0.4995836555159376 Ti
   0.8371571184814799    0.3727699606256822    0.0000256110884139 Ti
   0.4978677669348822    0.8700659573500923    0.7444016358602682 Ti
   0.1673185611200779    0.6226816628496956    0.5012068664868197 Ti
   0.4950476357264016    0.5036660935761040    0.6271157206423895 Ti
   0.8382009410907151    0.1280188161151223    0.0002158549455355 Ti
   0.5012583927823492    0.7441518805477985    0.3740455671729896 Ti
   0.3308382973088120    0.6264554579458301    0.1268069444698788 Ti
   0.3319833767749146    0.6236515317431263    0.6270296876490649 Ti
   0.1676739414132259    0.1311995843848177    0.7540297439395133 Ti
   0.0050670053785438    0.6243492408042621    0.3783202183451714 Ti
   0.0033254202692557    0.6227540657922682    0.6242466052008021 Ti
   0.6728118514322411    0.1278254779374463    0.1256664301497087 Ti
   0.3323876323808491    0.1303624220080086    0.8703023014433775 Ti
   0.3303654262132646    0.7463653220350009   -0.0009586741734347 Ti
   0.8381194488790334   -0.0041132200552650    0.8737226313148069 Ti
   0.6664670425070268    0.7457720468633483    0.7445231828766863 Ti
   0.8403930526668375   -0.0017948445883271    0.3764527263958583 Ti
   0.1671693417696170    0.1221622595760236    0.2483737010793816 Ti
   0.5020343414405004    0.7474057918723718    0.6250329107838941 Ti
   0.3336818025677146    0.5039725815924324    0.5048592104074815 Ti
   0.8334156034349179    0.2510004607931652    0.1225145258732171 Ti
   0.0067717714616602   -0.0053468833882186    0.2521288659124578 V
   0.5015502150289748    0.6248191953415794    0.2513483110912627 V
   0.1656720394783511    0.8663789073342049    0.4967737810208653 V
   0.1711850451508999    0.6152817355745509    0.7490875894393316 V
   0.3300379175015132    0.7498477883741851    0.5027566709765898 V
   0.0091062390392266    0.7522751097719187    0.4974924877682072 V
   0.0061638778321107    0.5060086550320905    0.7465442376793880 V
   0.0139128448919922    0.2538083352709128    0.7585530354388339 V
   0.0113813830378160    0.5019295058192181    0.2437079796999544 V
   0.1621373384384542    0.3820778333208820    0.2445401051442217 V
   0.1538342065724761    0.3713454315624730   -0.0045416446447120 V
   0.1557225185090077    0.8840087195735585    0.2537187110866045 V
   0.3246634174835366    0.5051833682968895    0.7507138033081754 V
   0.4977633976597106    0.5041956762113466    0.3741731487212370 V
   0.8418923813382404    0.7500163056156148    0.1214038646018431 V
   0.0093637232755331    0.3799522875770477    0.1273585440240445 V
   0.0058438298477539    0.8754794514797377    0.1283832064276198 V
   0.8365022725007666    0.1239721197984174    0.5048386204839612 V
   0.3302441256566029    0.1258948740929923    0.6303304503254341 V
   0.8338177504989370    0.5112901915942822    0.6243843323816595 V
   0.8350113207606221   -0.0037747924040767    0.6216184957642515 V
   0.3272064125695420    0.6194795396733099    0.8654014487793017 V
   0.0124076598668024    0.3714575979420063    0.8731198493189597 V
   0.4945020561602244    0.7467835219944069    0.1304576040355238 V
   0.3339092612257576    0.8658610619997064    0.6200342850585298 V
   0.0018818146579421    0.6278039380788190    0.1231137271781252 V
   0.1599756348186592    0.5025648258313014    0.1331095721048504 V
   0.1553570401429790    0.2593993347541060    0.8735614190778954 V
   0.6665058776515205    0.8664997572052299    0.1268648203166479 V
   0.1598352515541462   -0.0080198441155291    0.3694835756829077 V
   0.6655291332978398    0.6278238833624031    0.8738385064574323 V
   0.8375675874442171    0.6279756150052123    0.0015964551831726 V
   0.6694946056544950    0.6221184551954988    0.6236781968221551 V
   0.3372419492447552    0.8694666144889794    0.8710312303455621 Zr
  -0.0023561660527726    0.8717551874687443    0.6236001648959650 Zr
   0.3278760601081350    0.1263021760624259    0.1241906009058958 Zr
   0.3236827625826963    0.3783058665951304    0.1196859852360849 Zr
   0.6713306451586581    0.1240926587271250    0.3730608251914289 Zr
   0.3269652311747643    0.3790046150376798    0.6319329309209242 Zr
   0.3338877621327992    0.6279805092808824    0.3762762062516725 Zr
   0.3296621574917342    0.0016216206008772   -0.0014083752470100 Zr
   0.6702769188446880    0.3746285943352798    0.1260029216006011 Zr
   0.6679577729898771    0.1242854143970707    0.8766240121618084 Zr
   0.6661791052454510    0.3838909749601956    0.6243277566971197 Zr
   0.0034446190893733    0.7520722704478190    0.2499033736897081 Zr
   0.8396598544017577    0.1253616764163081    0.7474141154652716 Zr
   0.6733464525031345   -0.0048089040599797    0.5016128658617894 Zr
   0.4971548919641233    0.3773622191511696    0.7574425721711152 Zr
   0.8369278254867486    0.3805554841309437    0.2514773667048580 Zr
   0.4981742629020751    0.1315124890337602    0.0006992663188633 Zr
   0.8326997044487627    0.6256322352132847    0.7465139068680540 Zr
   0.8343505876463052    0.8691979131388236    0.0059725946390626 Zr
   0.1671450227151256   -0.0004002915378691    0.6229402363202033 Zr
   0.1678937299075393    0.7445101499276949    0.6236426328863391 Zr
   0.5007578590270533   -0.0003678589707305    0.1273464825262552 Zr
   0.4947327567125497    0.5042785429871817    0.1259114463474071 Zr
   0.1651333873145184    0.1298679572820401    0.5006437010049196 Zr
   0.8362151412671083   -0.0027164940205559    0.1301486445754465 Zr
   0.8340391629378962    0.2498274756830836    0.3764189012754758 Zr
   0.6643892178517140    0.7455257286168692   -0.0027718644248303 Zr
   0.8406506153052338    0.5043622951559431    0.1241552095139935 Zr
   0.6657488879333440    0.5002882863717586   -0.0066148318840199 Zr
   0.6671780239793643    0.2537066612822619    0.5011879619653493 Zr
   0.8364777703363058    0.5016247626422549    0.8722768547702869 Zr
   0.6693788554169875   -0.0019102027090378    0.0038031261293554 Zr
   0.0012097786591201    0.0013958396979727   -0.0026455760820946 Zr
