Mn29 Sn129 Ge29 Sb5 Te192
1.0
  18.9104254172370680   -0.0167840661748041   -0.0127053277489628
  -0.0222908469785896   25.1821775892707045    0.0042965159836030
  -0.0168982586626452    0.0043071381057786   25.1955602067233038
Ge Mn Sb Sn Te
29 29 5 129 192
direct
   0.1497845580097345    0.6147790152921946    0.2220191676510237 Ge
   0.6814403873852738    0.7541054165715615    0.5010032187495208 Ge
   0.6767472582321244    0.2354586797192686    0.2348430207049093 Ge
   0.2670412026248219    0.4231171705008704    0.8728594109443726 Ge
   0.0162828708643923    0.8951416489439182    0.6768136540730628 Ge
   0.6969884956313466   -0.0318937873854842    0.5413583085061002 Ge
   0.1543380252910943    0.1112947269105046    0.5233774451889139 Ge
  -0.0296024779694921    0.8679575146421338    0.3622984539136744 Ge
   0.3189059666704123    0.6325013654211025    0.8669848393366703 Ge
   0.1482660997230720    0.3891647192865175    0.5151792824225339 Ge
   0.0425170806039211    0.6178357694764084    0.1517372899547418 Ge
   0.1896531010938021    0.8942282228192319    0.7796752361868970 Ge
   0.4973046673158616    0.6339126715129951    0.5002180405465192 Ge
   0.4978419168163652    0.6282014355268284    0.7299806778380139 Ge
   0.6605526539790755    0.7328905747795857    0.2431509484604904 Ge
   0.8097642363281886    0.0963112641469089    0.2502418916289926 Ge
   0.4894908643800647    0.8701033969568772    0.0201505128187118 Ge
   0.3234777190313834    0.1388176996002387    0.3553795133050895 Ge
   0.4798769942787584    0.0147570883636775    0.1198120021616432 Ge
   0.8081229678104116    0.8556610668681678    0.2410531252146625 Ge
   0.7880451245256059   -0.0822969451353809    0.5896256072898490 Ge
   0.1652414801955482    0.7655460911734658    0.1395119708761505 Ge
  -0.0010012917984367    0.2608701390651614   -0.0140207441692023 Ge
   0.4784336483193282    0.7602903764804758    0.8856089115721909 Ge
   0.1699417036000737    0.4944309489527674    0.8784889264858334 Ge
   0.5091610144770438    0.5055227714920442    0.3520270619490649 Ge
   0.3515494316069389    0.0052212187074625    0.0084190017146486 Ge
  -0.0214604745306281    0.5172209953036460   -0.0051735010707448 Ge
   0.5247809841330513    0.7610823118983171    0.1439635143705122 Ge
  -0.0084284399905018    0.8883070576847775    0.8939436041622172 Mn
   0.5095647414524227    0.2386893279013343    0.3675067705742303 Mn
   0.1647084281389563    0.1253917086926082    0.7568112085813071 Mn
   0.8229823800294468    0.3683687427962040    0.0036583632599591 Mn
   0.1662696781760374    0.6347459017653020   -0.0050482661872739 Mn
   0.4967796478157114   -0.0007964419325584    0.3829557045193417 Mn
   0.8177208082332073   -0.0088898981408221    0.3764857611740100 Mn
   0.8389538606961399    0.7450954710717622    0.6302418112898910 Mn
   0.8366704789060972    0.2428800161877361    0.8781793782946500 Mn
   0.4931314323844707    0.8821500924562996    0.5004052651270662 Mn
   0.8373633576183110    0.3682024720901380    0.7390627752875564 Mn
   0.1645074590401760    0.2536763573506765    0.1220003222474058 Mn
  -0.0075915548636921    0.8686197449170600    0.1269261843047975 Mn
  -0.0031864506903298   -0.0007793739917188    0.0161068235018229 Mn
   0.3407511427557406    0.8788375245856594    0.6250041409129998 Mn
   0.6546771246835486    0.8835157225062578    0.6169849505096342 Mn
   0.6634916124766854    0.4980260106628207    0.0088065731246319 Mn
   0.3367024305188501    0.0025256347969916    0.5043402827310516 Mn
   0.6567057515860860    0.8748034022739333    0.3775080658788759 Mn
   0.2915046742013611    0.2797452245682196    0.7505355760877628 Mn
   0.6654229610096880   -0.0033092307117496    0.7565426118928913 Mn
  -0.0465231941817442    0.0204022121913530    0.7407258921197962 Mn
   0.6297507286885701    0.8633156795093910    0.1333296498415160 Mn
   0.6816389774915529    0.1137095565838989    0.8772674762990084 Mn
   0.0155173359310350    0.4994252664067628    0.2535163224566823 Mn
   0.6621756299409992    0.6242917478431670    0.8716414411127569 Mn
  -0.0073373086745608    0.2437194860008310    0.7565552773854358 Mn
   0.3708145446832232    0.8826346976908850    0.8667212278307772 Mn
  -0.0012927849909581    0.7529812373503210    0.5068124660472473 Mn
   0.6262787692666494    0.3494325997414935    0.1129723371974890 Sb
   0.8498965699003054    0.1037648428738877    0.7661363122679709 Sb
  -0.0062741720499184    0.7515979046428868   -0.0080344405727591 Sb
   0.2195708264287233    0.3715700116997662    0.7867740223705704 Sb
   0.1404764583471112    0.6220315352067072    0.4736135248511888 Sb
   0.6573362263303820    0.3693164104730535    0.8707172598720172 Sn
   0.8741611330041273    0.4977464763996518    0.1062527062478047 Sn
   0.8258140766769234    0.2313626666022536    0.6322406708043785 Sn
   0.8505331644371676    0.4994000058479323    0.3756943500552323 Sn
   0.8287121468077960    0.2387444027304600    0.3716053903217730 Sn
   0.8494909647034758    0.2483197534471456    0.1281371459449710 Sn
   0.8666153793698563    0.0154558134249330    0.8418546209227917 Sn
   0.3246239158242832    0.1383744472857545    0.6221534214544513 Sn
   0.6766351471034101    0.6264322861896338    0.3762594555833778 Sn
   0.8182852580689234   -0.0153727205547103    0.1294696303465110 Sn
   0.6658327148463495    0.6456230872269821    0.6258254099040048 Sn
   0.5158194793029888    0.7532210759261680    0.6186257711562211 Sn
   0.6680904873908077    0.3730830769245845    0.6147136323756764 Sn
   0.5124747119076173    0.5239209631192557    0.8597055578114046 Sn
   0.5089537880503328    0.4985925724349716    0.6093736158867110 Sn
   0.5226679374743814    0.5015773643125752    0.1116090764069864 Sn
   0.5170140456686143    0.2539299143832744    0.8643045818361963 Sn
   0.4885417926573195    0.2526230582208079    0.6289600241764194 Sn
   0.5279129936478276    0.2579008681831955    0.1156562674414767 Sn
   0.6747679188458819    0.6254414737984186    0.1146374515067603 Sn
   0.4999896443518761    0.7484738806270398    0.3816434947660586 Sn
   0.6827961200598828    0.3597294359948149    0.3595605598564561 Sn
   0.8254178112027480    0.4945583335850012    0.8743828927006743 Sn
   0.3146856905689238    0.3860066245199718    0.0984685329743076 Sn
   0.3511617088754028    0.3739969107614965    0.3650771090157477 Sn
   0.3365627109424330    0.1376370482495000    0.1167390706616365 Sn
   0.3274060326447486    0.3808918844499006    0.6091823222099032 Sn
   0.3492068879324930    0.6473506767279664    0.1164195606817575 Sn
   0.3558458646697104    0.6263326102858078    0.3635927189809393 Sn
   0.3243945256674191    0.6355476686533774    0.6115657931361643 Sn
   0.3166216432686507    0.8849911702610390    0.1120234237665765 Sn
   0.3187976780860512    0.8805409236469675    0.3855346905337840 Sn
  -0.0006976733233419    0.6382232021269330    0.8844518830758670 Sn
   0.0076499671926322    0.6225022226295592    0.6418009651323821 Sn
   0.0297931286426635    0.6287888082607868    0.3917291601172085 Sn
   0.6693892919602208    0.0966530746868962    0.1198659617333714 Sn
   0.6682089850709116    0.1078884594738507    0.3774522552430546 Sn
  -0.0366594196925794    0.3775692491608649    0.8722055034777195 Sn
  -0.0065754405991764    0.3724158056292750    0.6286242506047592 Sn
   0.0227379286289980    0.3724415542107105    0.3722026118495487 Sn
  -0.0083491979633312    0.3719211285552462    0.1240910880406155 Sn
   0.0148798512127476    0.1244357004147616    0.8913392003141467 Sn
  -0.0189023106821987    0.1185953431649053    0.6321176161335103 Sn
   0.0027612236409350    0.1068399160697647    0.3812296917267792 Sn
  -0.0007162325601369    0.1212819646614081    0.1395705175912707 Sn
   0.8307412697745961    0.7477971301705338    0.8723440395040366 Sn
   0.6612064185116027    0.1221661383130212    0.6208097539513586 Sn
   0.8208762138216795    0.7503815244250676    0.3771127533255024 Sn
   0.3456158614159671    0.1339545510899348    0.8734478751068857 Sn
   0.8529565224225568    0.7328355918769123    0.1299011992400476 Sn
   0.8323867304235677    0.4979844515401021    0.6288293729126023 Sn
   0.5132727913288885    0.0016871561378323    0.8891187531814589 Sn
   0.6829894034000098    0.8749152715453228    0.8611378616433811 Sn
   0.1643423817412322    0.7653797111776995    0.8727008972939619 Sn
   0.3053665350316828    0.7555780282410616    0.7439529975872438 Sn
   0.6801146246982087   -0.0175784939872919   -0.0023014838019750 Sn
   0.6445169486154071   -0.0177301861479757    0.2541373531797660 Sn
   0.6637047423618234    0.2483669808184016   -0.0059216482563474 Sn
   0.6616914933667868    0.2449220378214064    0.4925423960336147 Sn
   0.6872323528721491    0.2278694949049515    0.7494270984915291 Sn
   0.6953620248410000    0.4856139458812858    0.2450722819721487 Sn
   0.6712808205337734    0.5080010345003541    0.4828210395723446 Sn
   0.6643463914321325    0.4935747984622629    0.7425088047476635 Sn
   0.6439213590734464    0.7427334075210801   -0.0007843871834733 Sn
   0.6576825708939136    0.7504144862104845    0.7548419858212136 Sn
   0.1659015635555158    0.1365060614098743    0.0015995635606323 Sn
   0.1591478603166636    0.1356851717701011    0.2510780872248928 Sn
   0.1421521433701700    0.3955338806757585    0.0087945676847432 Sn
   0.1851035302562792    0.3773224413668271    0.2558689919300199 Sn
   0.3340097564943687    0.7573727319225181    0.5008620876384678 Sn
   0.3289756992269671    0.7538994581017090    0.2475547502573913 Sn
   0.3125445452473101    0.7650769730173667   -0.0065692358791382 Sn
   0.3337892468703673    0.5087528406329300    0.7434252985455960 Sn
   0.4824450850975632   -0.0069840178903751    0.6439466296828654 Sn
  -0.0212586929222504   -0.0022969356055513    0.2539041081408274 Sn
   0.0007259738750045   -0.0162720897650733    0.5014376408967532 Sn
   0.0013736060241194    0.2486495490559192    0.2555264622871594 Sn
   0.0141069742683409    0.2448594044491503    0.4991510293771045 Sn
   0.0002447499656661    0.5036461570354428    0.5088345767149962 Sn
   0.0079452215376062    0.4846429307088675    0.7642259415928895 Sn
   0.1602461335801558    0.6382636043169214    0.7567391093827649 Sn
   0.0035785552782412    0.7460507349644812    0.2538687246067352 Sn
   0.3199095245300285    0.0035086868435861    0.2625463813208622 Sn
   0.3287911321819637    0.0055870306881399    0.7538529527806817 Sn
   0.3180221787764128    0.2597298444629614   -0.0159627320168647 Sn
   0.3435829568245593    0.2582937297147045    0.2333323846381249 Sn
   0.3392645935313110    0.2385655731027341    0.4927441817618581 Sn
   0.3342367733059953    0.5124101435239649   -0.0081745536007907 Sn
   0.3515710824015728    0.4984942054987720    0.4888708649678121 Sn
  -0.0127053209360726    0.7545541321801392    0.7481278119163466 Sn
   0.1580354552351652    0.8797655944888260    0.0084396892079326 Sn
   0.3501947118208996    0.5078055137512618    0.2360849769138121 Sn
   0.1607596858482850    0.8727540537100865    0.5038482911451002 Sn
   0.8192492099314715    0.8704699301756160    0.0080314919506984 Sn
   0.8402910795264106    0.8702724448802348    0.4988472595886354 Sn
   0.8315713108838965    0.8753165823570906    0.7612089060735711 Sn
   0.1494174835774712    0.0118521817042114    0.1328169894725852 Sn
   0.1733091054973977    0.0105993268449716    0.3815828485210182 Sn
   0.1650017680127485   -0.0027368437556992    0.6426972357710476 Sn
   0.1742544630127093    0.2582362327743850    0.3818351938356863 Sn
   0.1480065740215543    0.2451630119723693    0.6200722791915732 Sn
   0.1867633138757130    0.2745964062401891    0.8602444520794960 Sn
   0.1874692495999546    0.5041439229940274    0.1203732843651020 Sn
   0.1743997957336582    0.5093027487237847    0.3811728137600363 Sn
   0.1717965428650039    0.4965694371315642    0.6400689173614589 Sn
   0.1564360878594271    0.7634788725508037    0.3811114750547117 Sn
   0.1483659641335472    0.8789210638757849    0.2576833772184696 Sn
   0.1549975941058555    0.7638010070378144    0.6265222702717264 Sn
   0.8203474784737234    0.6143627333733898    0.7513916077918531 Sn
   0.8252001213971938    0.6258027075209583    0.5018485315482829 Sn
   0.1855089240570662    0.0130710246912196    0.8936858946278643 Sn
   0.8292092116884997    0.6215944683947543   -0.0059200984472004 Sn
   0.5004008893390004    0.1171593702231747    0.2497042303649801 Sn
   0.8385965728840513    0.6150042423038664    0.2465649217996645 Sn
   0.4910845960664494    0.1151377943471757    0.4937728476545062 Sn
   0.4815259076999325    0.1121126568668927    0.7427703662166520 Sn
   0.4912854133208568    0.3763059283646576   -0.0229813978905512 Sn
   0.5088548369609353    0.3758448392838285    0.4784982635060454 Sn
   0.5208482850998667    0.3672589366352830    0.7382347270476257 Sn
   0.4854866516655524    0.6273106137683678   -0.0110571753461413 Sn
   0.5174767934251665    0.3607047426845210    0.2391609443603509 Sn
   0.5074622669366936    0.6159531545440264    0.2323414613911503 Sn
   0.8318428810166018    0.3629607796140221    0.4930802062544569 Sn
   0.8494929787373106    0.3674453916366509    0.2451115754242916 Sn
   0.8234839272081175    0.1180795490934345    0.4962376396182340 Sn
   0.5124124788453096    0.1245484402776550   -0.0095803352483798 Sn
   0.5050592035126941    0.8645149896568315    0.7549452679443253 Sn
   0.4766436298747913    0.8712457462688735    0.2672979518462837 Sn
   0.8416753196662781    0.1263779838982803    0.0147019182365041 Sn
   0.6416857987540900   -0.0009832123652919    0.6391497471855913 Te
   0.3139821446095471    0.7650365211728118    0.1211743599773018 Te
   0.3494807053196362    0.5229351480310034    0.8692093621584044 Te
   0.3295187617936370    0.5097075000400298    0.6188462620118295 Te
   0.3331530199321834    0.7643826063324343    0.6236156640495372 Te
   0.3333438170841889    0.7757754627390440    0.8662259343736219 Te
   0.6558072642424257   -0.0263192651986028    0.1316297147940864 Te
   0.6584972994579013   -0.0125900620781480    0.3789501647003758 Te
   0.3344189433452884    0.7620535566565092    0.3785669600264506 Te
   0.6801722596487439    0.4916005326359818    0.3636164557619297 Te
   0.6828857699155636    0.2293579070673969    0.1182826609594370 Te
   0.6612720862863850    0.2375867016689898    0.3704371037790078 Te
   0.6676942110817120    0.2474988881662611    0.6200744387988913 Te
   0.6844943010220967    0.2293287131010651    0.8785029799882542 Te
   0.6797043769747433    0.5022059034564221    0.1194095236630927 Te
   0.6717067331185090    0.5055817257645305    0.6222843379475219 Te
   0.6671877743995257    0.5072101133105056    0.8691062952995002 Te
   0.3613767799477924    0.4982844982752412    0.3611099380112968 Te
   0.6723913141979188    0.7562528057596830    0.1316976223614665 Te
   0.6865126696933228   -0.0006507393308615    0.8684989311306817 Te
   0.3464819085364496    0.5126400730109169    0.1142841994628979 Te
  -0.0127479584100822    0.2387058805806676    0.6409900803152240 Te
   0.3252288859161429    0.2554614403975625    0.6442627748357216 Te
   0.6612600449487863    0.7607655871807529    0.3863649791151391 Te
  -0.0255466474194415   -0.0168080039171897    0.3774360090336544 Te
  -0.0044044385962272   -0.0046710909427413    0.6371944477798125 Te
  -0.0007626273479260    0.0029010986128060    0.9040377736485641 Te
   0.0116185067113052    0.2480115708689091    0.1339004148922707 Te
   0.0065849244165361    0.2456944670256919    0.3780044399926641 Te
  -0.0104954353516395    0.2457398654181311    0.8736226279772993 Te
   0.0281007395458517    0.5095127450204882    0.1377931726324822 Te
   0.0143374617697971    0.5034392607333806    0.3703625722073719 Te
   0.0043105426323682    0.4988394153694490    0.6342190382572908 Te
  -0.0087870892946768    0.5099332641734013    0.8896969665755375 Te
   0.0094911073431767    0.7560153034533960    0.1289780145806599 Te
  -0.0102059752504955    0.7587629813655775    0.3911062131085722 Te
  -0.0051031902689683    0.7405681974196747    0.6212385453842112 Te
  -0.0065631191445987    0.7746208428529293    0.8733867466454803 Te
   0.3311348275862852    0.0057976477618595    0.1232130463188747 Te
   0.3411842537270961   -0.0003205144640111    0.3880201253579473 Te
   0.3307064539696100   -0.0055029731597330    0.6191656223590880 Te
   0.3448551351895725   -0.0089350764235751    0.8713877682132695 Te
   0.3165078180551997    0.2563373701377961    0.1057337030174116 Te
   0.3522720125592619    0.2442324177665118    0.3647318382234331 Te
   0.3414574598339140    0.2554685881228240    0.8537147879874004 Te
   0.6887952036298827    0.7726628577616067    0.6162918738433493 Te
   0.8339226493167818    0.1283188897759640    0.8864445765850252 Te
   0.1694097116761803    0.1392884216316678    0.1227751792700741 Te
   0.4974132910681874    0.6276866194183042    0.6122620323089037 Te
   0.5106468342234134    0.6442241322424149    0.8735069582641836 Te
   0.4833023203795178    0.8703535441403115    0.1352062612647556 Te
   0.5063228802516341    0.8831366935366060    0.3849909716751353 Te
   0.4996956399665515    0.8765208466550769    0.6156565837127116 Te
   0.5162232150063409    0.8702060799046610    0.8764504982093284 Te
   0.8343080334480182    0.1132149352780254    0.1416663294435697 Te
   0.8316852257556629    0.1058058979330293    0.3681227010715534 Te
   0.8225850393688922    0.1119229341334588    0.6168952121815064 Te
   0.5175767967830857    0.6171464156298314    0.3628689822951183 Te
  -0.0092460406247355   -0.0157157980310270    0.1299103483436708 Te
   0.8450856911363263    0.3710786169657058    0.3702170312786255 Te
   0.8330741275712651    0.3699834096179866    0.6280808957587546 Te
   0.8139790164984848    0.3558194339202392    0.8888669538626311 Te
   0.8439024908464994    0.6146236391921269    0.1191948737092791 Te
   0.8353706567860344    0.6237026271874235    0.3786434082650103 Te
   0.8236513267300309    0.6329536192784644    0.6306171869995997 Te
   0.8168387586247456    0.6212512330957618    0.8721979455181140 Te
   0.8417679504750244    0.8626809975079704    0.1310146344008842 Te
   0.8093514493046478    0.8763631993591047    0.3814085095337472 Te
   0.8346263878341446    0.3719790013499992    0.1163392283767723 Te
   0.5128166565837000    0.6379874814569521    0.1142947086609869 Te
   0.5008663516960585    0.3819750090224445    0.8597041158575722 Te
   0.5067950196801002    0.3738147546339141    0.6129182899920465 Te
   0.1767653200485974    0.1323853439884193    0.3759069873826786 Te
   0.1585421913450753    0.1209302256783022    0.6408972268738381 Te
   0.1729390147017018    0.1338718150774738    0.8728592955054780 Te
   0.1614625906485311    0.3688717593944190    0.1236770340717837 Te
   0.1827038124319476    0.3806232241258533    0.3793093211687831 Te
   0.1612901551281165    0.3730458167419539    0.6238763011487464 Te
   0.1201233452182745    0.3832747686297146    0.8893364516360213 Te
   0.1807533190748284    0.6334796838311438    0.1091106683789299 Te
   0.1871940812122420    0.6331418936699056    0.3631555160092352 Te
   0.1692658081057914    0.6318205555394425    0.6378823788449571 Te
   0.1676593279393714    0.6414704815773873    0.8806900283849044 Te
   0.1450947790309495    0.8772873625511569    0.1316030904746989 Te
   0.1509482294169397    0.8827049717653135    0.3794214028532322 Te
   0.1882767543573679    0.8807525308566528    0.6222021671473560 Te
   0.1458469065168498    0.8893845975477177    0.8850841690327067 Te
   0.5049854631456809    0.1210094926391307    0.1190984328304728 Te
   0.4968041363943363    0.1190084710370976    0.3746360152309012 Te
   0.4903533478252089    0.1261506249846212    0.6234823789907622 Te
   0.5145676346271004    0.1202726854405349    0.8675387814769857 Te
   0.4765920678489349    0.3773266671745959    0.1060458410299338 Te
   0.5144826775693881    0.3529109837276170    0.3613271788388807 Te
   0.6710765661789629    0.7432960733077210    0.8786197964699963 Te
   0.8286642558067610    0.7447511969104592    0.7446318962700048 Te
   0.1705234934035653    0.5084715560109903    0.2509201858520472 Te
   0.8305163983572640    0.7483740784605376    0.2550930486611950 Te
   0.3580632656102740    0.3793550254753588    0.7339927412839874 Te
   0.3212566043186010    0.6402436881822235   -0.0146067440963785 Te
   0.3416974194211985    0.6315123335958361    0.2392145383229240 Te
   0.3556447948728327    0.6279248068223807    0.4886467490152603 Te
   0.3347421711647217    0.6388573352838638    0.7559255177390360 Te
   0.3425727404836520    0.8891029623002660   -0.0163484278002996 Te
   0.3191006321682536    0.8802502134063487    0.2551784035675652 Te
   0.3427836351977340    0.8852867869370741    0.5091399907000107 Te
   0.3430174133918950    0.8824635700702602    0.7466892870582174 Te
   0.3439083217542138    0.3762993601761319    0.4921838863338732 Te
   0.6691555042443272    0.1089688494795850   -0.0092968136619943 Te
   0.6616339372947661    0.1186587497099570    0.4980896351760188 Te
   0.6816431550038858    0.1103686848312280    0.7638690256235996 Te
   0.6684892159572798    0.3791724843466260    0.0003676574630360 Te
   0.6784799872829552    0.3576231657156147    0.2321090704986820 Te
   0.6743308121574564    0.3755251476060662    0.4896880853473125 Te
   0.6868018414344669    0.3709423720606933    0.7492602997058448 Te
   0.6681323453088321    0.6113699868828542   -0.0125899265441920 Te
   0.6752438980355109    0.6259458097783738    0.2454990490194581 Te
   0.6562203611705030    0.6403752936108548    0.5023351866544882 Te
   0.6668044483534451    0.1168766209865091    0.2464524122526632 Te
   0.6564354754382571    0.6269027358543692    0.7547074096126871 Te
   0.3423748474595802    0.3780295802056637    0.2371375301314358 Te
   0.3177086056334588    0.1237202843355835    0.7505939067127653 Te
   0.8880040209253793    0.8540284750279793    0.6510331030106048 Te
  -0.0009610827696658    0.1151167446773887    0.0156700119924643 Te
  -0.0035977463504308    0.1234842461687722    0.2605731165976301 Te
   0.0137493018269319    0.1156565421380609    0.5031694140650189 Te
   0.0081035388209909    0.1243332251727756    0.7607833243393533 Te
  -0.0242660906221358    0.3709097200297597    0.0036934582060032 Te
   0.0140242749184163    0.3865954542401097    0.2516117366399029 Te
   0.0061970120679071    0.3760754187022949    0.5010162976570725 Te
  -0.0114351935893808    0.3599297229682433    0.7522364179521450 Te
   0.3179877186363447    0.3789785330060257   -0.0251237308322072 Te
   0.0115935619350386    0.6218267779499601    0.0046196811361180 Te
  -0.0091103468250916    0.6349063109085363    0.5108845136217208 Te
  -0.0045725129122751    0.6303087332877013    0.7635938609176071 Te
  -0.0047859508412577    0.8818212941554736    0.0103214137665739 Te
  -0.0161165386278203    0.8686997636706315    0.2493585494480539 Te
   0.0003418555591977    0.8658560460737859    0.5114130503386713 Te
  -0.0107879674291771    0.9175531326961097    0.7795118560150135 Te
   0.3389432180720575    0.1162624899029081   -0.0067099964154612 Te
   0.3326460364301596    0.1294487315757570    0.2472888594875237 Te
   0.3201701199996784    0.1178813626843106    0.5045924474100176 Te
   0.0058729680846473    0.6179955127039563    0.2608593366193377 Te
   0.6483071845194399    0.8642076624690300    0.0205401993474204 Te
   0.6584335069381577    0.8622515600008160    0.2527545918510418 Te
   0.6465140031413261    0.8727404640952097    0.4980822640049295 Te
   0.5215689489667046    0.4894161411036483    0.2418924052064748 Te
   0.5124176226479212    0.5035089637927769    0.4860017566573928 Te
   0.4993734072747420    0.5152076497941961    0.7365931766845032 Te
   0.4840355426238822    0.7570701533665039   -0.0016302324217329 Te
   0.5097020254839629    0.7457257253015858    0.2519824865145410 Te
   0.4969085115036280    0.7636225303798300    0.5008898335644743 Te
   0.5000785856161292    0.7454883306490121    0.7404000141260201 Te
   0.8395931675267376   -0.0023212025186504    0.0114828118873120 Te
   0.8183519263596236   -0.0162124368532302    0.2623587807634487 Te
   0.5155396510604958    0.5010505593943636   -0.0069700991716210 Te
   0.8306305844837300   -0.0042244862030938    0.4905726519521299 Te
   0.8407336700487547    0.2513529524481868   -0.0032168041971683 Te
   0.8293409923972141    0.2426177416740786    0.2522015638275013 Te
   0.8417719482839739    0.2433730027444173    0.4964434373969662 Te
   0.8421037903981885    0.2567651099527761    0.7628963961927505 Te
   0.8147418923097358    0.4845471009422921   -0.0054704778551233 Te
   0.8632468283691276    0.4966474866906528    0.2449178683033269 Te
   0.8388826304220591    0.4997140829580463    0.5034227014952140 Te
   0.8421952067760393    0.4800126272755902    0.7543195389761788 Te
   0.8364078129597845    0.7430945043128566    0.0009858567415692 Te
   0.8153419146850580   -0.0089292828108024    0.7275931045458692 Te
   0.5211434280965769    0.2402473829402515    0.7465649639109850 Te
   0.4982111709591778    0.2449210380286928    0.4822839729957181 Te
   0.5144665955244900    0.2397326917485307    0.2499951963232907 Te
   0.6704985997806727    0.8801989260298498    0.7339712400038874 Te
   0.1529258833259773    0.0028998985865683    0.0141750304386298 Te
   0.1565084541460964    0.0070505470464547    0.2554655025063949 Te
   0.1769011399310097    0.0028404750455355    0.5023643678351905 Te
   0.1680756712393318    0.0089537942370047    0.7650001684076472 Te
   0.1467179866222703    0.2565127918386408    0.0032695921427022 Te
   0.1756696046482054    0.2553376949244235    0.2403076187282159 Te
   0.1757787888841292    0.2487693720376098    0.5020839062470289 Te
   0.1485723863507414    0.2399036624214239    0.7503410298766536 Te
   0.1739221553165027    0.5182011246642380   -0.0089131343920794 Te
   0.1659392030687189    0.4997916169817248    0.5061612094820283 Te
   0.1629117873548440    0.5130447057339192    0.7678245017022399 Te
   0.1512373633093209    0.7500831251288480   -0.0019647071654137 Te
   0.1635558809613593    0.7494764020680809    0.2503872442324632 Te
   0.1529496284522921    0.7463120603527847    0.5018045476468136 Te
   0.1462447161518417    0.7897765307553609    0.7512053359263778 Te
   0.5020542257451308   -0.0091439694694893    0.0122173638709728 Te
   0.4875871463700374   -0.0055546442731861    0.2673680311217028 Te
   0.4887384183776738   -0.0043570408281838    0.4962612101053778 Te
   0.5167015586884660   -0.0067456141312292    0.7630158477033101 Te
   0.5000335786915417    0.2502121614025099   -0.0099343856988650 Te
   0.8404156422171964    0.7530567955552828    0.5148556277700896 Te
   0.8382762208735149    0.8771900724129618    0.8880447372327990 Te
