Hf39 Ta38 Ti38 Nb38 Cr39 C96 N96
1.0
  13.1768812308399319    0.0000609122096548    0.0004258870232849
   0.0000811966463836   17.5636449497813736    0.0008207534572510
   0.0005677058731140    0.0008207443932503   17.5554683918922692
C Cr Hf N Nb Ta Ti
96 39 39 96 38 38 38
direct
   0.8234578009464902    0.8764857776871585    0.8750792894325626 C
   0.6661494524320928    0.3766941972747879    0.0004253087361979 C
   0.6570648138187304    0.3714906465512979    0.4988106879562561 C
   0.6638916766499907    0.6253054295042857    0.2467816058975179 C
   0.6672088669120910    0.8721066344534059    0.0011008474696091 C
   0.1736122022662511    0.0022589462677603    0.2506446859205235 C
   0.1707903339653673    0.2508596417643880   -0.0040074232131835 C
   0.1710047085975349    0.2448599814414423    0.2528771876993676 C
   0.1732574099590108    0.2477093590385205    0.7468355664922068 C
   0.1639561780590828    0.4987385611821603    0.0046836570046531 C
   0.6679102070294571    0.1262768926592039    0.7452972243564301 C
   0.1649252381956044    0.4991518447826196    0.7516469649335653 C
   0.4994089566460164   -0.0007987043981847    0.0017158527407440 C
   0.4965493259965730   -0.0020101029816180    0.2524180739956059 C
   0.5003130061308902    0.2500775272421328   -0.0001029574351002 C
   0.5023549778846954    0.5052787061350504   -0.0017970650448126 C
   0.4926584976998091    0.4947553932080778    0.4983393813879724 C
   0.5009380398582952    0.4962472734819744    0.7540986504482097 C
   0.4950938735716434    0.7514590943885052    0.2500918727135341 C
   0.4971275171424565    0.7529354374038958    0.4989866338308674 C
   0.8317994439147113   -0.0029169425687737   -0.0013307421862315 C
   0.1742595044996716    0.7495057475587261    0.2538427037265772 C
   0.6573711581975766    0.1228293027019805    0.2501961566729830 C
   0.6642483879246430    0.1255585967936564    0.0056230200807691 C
   0.3370175946720375    0.8771868448248360    0.7481287421749817 C
   0.0022087753316980    0.1246491253834247   -0.0012632154154238 C
   0.0073217424036668    0.1231894741815604    0.2546769636634595 C
   0.0017161900950657    0.1217242313544488    0.4956904669628099 C
   0.0038967041189746    0.3786832361244963    0.0000094444456347 C
  -0.0017887490408436    0.3781754400151683    0.2494004079337482 C
  -0.0017745646670230    0.3707565164774698    0.7521196487346103 C
   0.0033816043732354    0.6266139834285622    0.2515573471174056 C
  -0.0012259285229485    0.6308617729222459    0.7487423657914387 C
  -0.0019821260364887    0.8728194694562659    0.0021878907910654 C
   0.0014901996147065    0.8708106959025234    0.2535646060708193 C
   0.0033998233103852    0.8750953977540543    0.4998932396915841 C
  -0.0042124482347297    0.8794161486780551    0.7451967182522395 C
   0.3398892255299308    0.1199952149893063    0.2574374699105481 C
   0.3337363591089883    0.1281594884267344    0.7472424694092114 C
   0.3384024580817351    0.3748802679527407    0.5028559452779358 C
   0.3388290088304513    0.3683321643014565    0.7461146618573569 C
   0.3333861610637920    0.6288035584295045    0.2527324604374037 C
   0.3334049863710686    0.6290256054791524    0.4951649281382522 C
   0.3368242126799749    0.6274973768836724    0.7515600890508862 C
   0.3333439568257779    0.8741819305247618    0.0048846744297096 C
   0.3276601496809382    0.8727431980144894    0.4928647212288640 C
   0.8318985549601309   -0.0039167260587583    0.2508610457371800 C
   0.8303068047501495    0.2530423577875985    0.2502831339686380 C
   0.4918480380315720    0.2532974280371169    0.7473612445409717 C
   0.8334540671475335    0.5075573823535237    0.0037695873470528 C
   0.6645683171817862    0.7473755550880340    0.3742560981834530 C
   0.6574981235842312    0.7540861615218739    0.8763052566199313 C
   0.1602015193445541    0.1219813686328722    0.1306557111041545 C
   0.1661704739320051    0.1289671514173597    0.6215649754356211 C
   0.1681070082380947    0.3812781657475375    0.1250819659154835 C
   0.8280658304737117    0.2513206890965720    0.5029627563000583 C
   0.1732861157361176    0.3691740225207918    0.6224904324769289 C
   0.1669117200678986    0.6305682751996721    0.3722792629658694 C
   0.1644300251284370    0.6243396375757464    0.6223684985342909 C
   0.1748080521710508    0.8691149097230276    0.1277723157056672 C
   0.1646210419515441    0.8792539113455562    0.6168214559391065 C
   0.1692773134768762    0.8780173572818225    0.8759779151387510 C
   0.5043860753307861    0.1182030897849316    0.1310248190054569 C
   0.4997239390447615    0.1240302696070768    0.8724339442629248 C
   0.4923765133346772    0.3714280726157655    0.6248199746637053 C
   0.5038870964080141    0.6249895637206125    0.1218472740816902 C
   0.4970332294081770    0.8779139136285782    0.1291513022273100 C
   0.5023909147656754    0.8829707896603564    0.6253587940510477 C
   0.8296175884426553    0.1238558949086912    0.3748059949749206 C
   0.8275999649503106    0.1214837669400052    0.6268012828181095 C
   0.8305554156320231    0.6267068518634159    0.6213115691146286 C
   0.6668888759384911    0.2488909626090548    0.8760351168890037 C
   0.6677745347308985   -0.0031809555311326    0.8733645767307240 C
   0.1680490320857919    0.3756422495990497    0.3778833387630067 C
   0.6576019332181129    0.0039722618970680    0.3759538051929656 C
   0.8334636580761799    0.4992445662756309    0.4982714878565073 C
   0.8303968127712091    0.7444244390525797    0.0045913820494891 C
   0.6692827953909507    0.0051214320426991    0.6232741910505759 C
   0.8344965441855976    0.7523517217789637    0.7429945569201064 C
  -0.0015024759738832    0.2473564488454001    0.1254501990020839 C
   0.0013493935359990    0.2459189287475089    0.6270285432913640 C
   0.0024837976166011    0.2452353533697100    0.8722381075656458 C
  -0.0000204238866176    0.5019363215180757    0.3717934081451726 C
  -0.0078003969180295    0.7532914399507167    0.6270309081872333 C
   0.0020234602248167    0.7503470206428071    0.8699713356051004 C
   0.8328926945415411    0.7509832193559678    0.5043544426941279 C
   0.3249110306549503    0.0002795339071386    0.8725366004411320 C
   0.3407270670420044   -0.0078307761954793    0.1288415535535101 C
   0.6589623831555768   -0.0010331057336454    0.1256398001608331 C
   0.3372893793826320    0.7534373954023926    0.6191903674379238 C
   0.3321884113443387    0.7544146503376178    0.1327923499446976 C
   0.3402189494606641    0.7487648174824810    0.8737949988857665 C
   0.3330651203139618    0.4939924016276195    0.6176502215869615 C
   0.3331732243310667    0.5016147532599310    0.3767904793083557 C
   0.3307670470597321    0.5008456199282021    0.1299811319283216 C
   0.3363313179771559    0.4994511634417186    0.8759187807787833 C
   0.5008348171921497    0.7526327211181093    0.8742884299610864 Cr
  -0.0061823682536360    0.1209405468024882    0.3747951789008569 Cr
   0.8301891982675492    0.0038441645678053    0.6247481792803855 Cr
   0.8322999697550321    0.5044487436875594    0.1197884225021839 Cr
   0.8340706910061754    0.7490014765570302    0.6229547698768342 Cr
   0.0051012793333074    0.1260269978827830    0.1277679099714854 Cr
   0.0025072318296969    0.1243893409468778    0.8743378482561802 Cr
   0.6538746612575462    0.1147420412547347    0.1286580363482418 Cr
   0.3345224603968824    0.3767417985899240    0.6214952470300907 Cr
   0.3383392746507742    0.8755759856334688    0.1252732400649253 Cr
   0.3315932708345645    0.8707376744458659    0.3766607886855088 Cr
   0.6623281063623941    0.1192189092747823    0.3705302088933322 Cr
   0.6676379028064833    0.1214526217112402    0.6256864596911265 Cr
   0.6630507012307064    0.6244935448547619    0.1255751853859284 Cr
   0.4927087024616423    0.4999119896214907    0.8752283358341725 Cr
   0.3386363330333912    0.1180142106187338    0.3696105671572553 Cr
   0.5093721487021269    0.0021901091790208    0.6243558143557550 Cr
   0.6659784846930092    0.8731663625344643    0.8774139528683764 Cr
   0.4982376427619646   -0.0023945605618578    0.1315773598024517 Cr
   0.1698649885418833    0.2510513257101670    0.6263033577373710 Cr
   0.1662171066060057    0.0012494023465964    0.8735661583530873 Cr
   0.8317304562839380    0.6236259173170637    0.0045394859469632 Cr
   0.4993637312990710    0.6219208269052644    0.0041470288895479 Cr
   0.4909585222899908    0.3728621974661886    0.7468123256913555 Cr
   0.4933546794525678    0.3793665499010117    0.5078359345679982 Cr
   0.5034762596998634    0.1218036986323998    0.4992845220985371 Cr
   0.1712467135776079    0.4952103485047774    0.1250360731447048 Cr
   0.5008913966624869    0.1102938885350645    0.2467207931507229 Cr
   0.1654536801250500    0.1222501339005398    0.2510117584068103 Cr
   0.3344680303927257    0.7526463098675684    0.4958644133123824 Cr
   0.3308257022039782    0.7512227653069010    0.2510312966569406 Cr
   0.3353628761505519    0.4969761093055567    0.4999276256156338 Cr
   0.3314526740300773    0.2538367727869562    0.7457190980974721 Cr
  -0.0094182033822098    0.7529473500889723    0.7460174837721401 Cr
  -0.0040468744466135    0.0008238356273409    0.7494831340512108 Cr
   0.5000497727399720    0.0057601622614459    0.3686353186377703 Cr
   0.1804759919801189    0.7536783775643442    0.1392846042846503 Cr
   0.1697661241991487    0.8726227053217941    0.4985672645062834 Cr
   0.1721998305436912    0.7495026944094267    0.3742057285144703 Cr
  -0.0015292798224730    0.4973903505535781    0.7514827359223726 Hf
   0.3355411989681647    0.6252978388608776    0.6212623706691114 Hf
   0.1710429098318182    0.2450498256014871    0.3775605814465533 Hf
   0.1673530547403543    0.2510756751600127    0.1252234464427211 Hf
   0.5017382210089602    0.2489369559360151    0.1256669430265881 Hf
   0.3327651136797182    0.0021693090181789    0.4979166380242449 Hf
   0.6662645933193201    0.3796410381144976    0.1265342362581607 Hf
   0.3369833931038536    0.2471286470134845    0.2534686591055743 Hf
   0.6604892658881762    0.6271190079263087    0.8793165900500678 Hf
   0.1632184548834203    0.8787210029134044    0.7469222651291656 Hf
   0.3343808602846215    0.4988223952784200    0.0024048286505506 Hf
   0.3338198899935608    0.4980665716814541    0.7486913382474099 Hf
   0.0005966986475253    0.0003958531614057    0.0002242190502743 Hf
   0.8302218960883220    0.6267178576603686    0.7480422983429987 Hf
   0.8325579308369528    0.6251292581152317    0.2484513034881774 Hf
   0.6636314400529373    0.2470750385178139    0.2495857764967655 Hf
   0.8357735940882348    0.3789288612214141   -0.0000841815990786 Hf
   0.8324121713283387    0.1253798586102186    0.0017279846672732 Hf
   0.4996454545811172    0.8790266967000216    0.4971383246163393 Hf
   0.6650016843476746    0.4996496486335580    0.4983985145068886 Hf
   0.6648265954394037    0.4950096446920767    0.7515429335067082 Hf
   0.4991553303123044    0.6265111189738372    0.4988268186895588 Hf
   0.1667736734838899    0.7529727205123763    0.6209836797902404 Hf
   0.1685700513458675    0.6238367494761371    0.0032487054362092 Hf
   0.8285560097884218    0.2501849270670111    0.3769270481466425 Hf
   0.0016200514701656    0.5011591458376988    0.4981342165498189 Hf
   0.3372871613492917    0.7491091785049602    0.0017352015645754 Hf
   0.6640383511371020    0.8751737423414475    0.3725874233310879 Hf
   0.8309247336557032    0.7509310583792089    0.8758419466955816 Hf
   0.0036283820828134    0.0004956918985914    0.2511745583088456 Hf
   0.0017690358098239    0.6260316274267863    0.1255128052243156 Hf
   0.0015061897082078    0.2475476842701943    0.2517964430726766 Hf
   0.5005461700780998   -0.0041872979020305    0.8714555420815011 Hf
  -0.0000668881819815    0.6236705329166398    0.8763378373805794 Hf
   0.8349859744658376    0.7476953861823438    0.3757438808415380 Hf
   0.0001441624710931    0.2504732187789949   -0.0015480029348418 Hf
   0.3335353306327863    0.1194037984091495    0.1314414977848209 Hf
  -0.0019888294476568    0.8779856261679084    0.8720494946489050 Hf
   0.0020365851261356    0.2491090212408470    0.5017868027011556 Hf
   0.8316541967812344    0.4970596450120598    0.7514189988105855 N
  -0.0009253453456971    0.4974903841181387    0.8780459315911537 N
  -0.0053356033701875    0.5001826999199378    0.6242843410869029 N
   0.8339428000933274    0.7503558932472805    0.2484401115169783 N
   0.8331185356155602    0.6229351360374275    0.3751847121612031 N
   0.8286429454619665    0.6223726078105956    0.1212022102314834 N
  -0.0004410545910016    0.2473968870308960    0.3777767731452558 N
   0.8302830297542392    0.6218019728691715    0.8802447491162255 N
   0.0027693569337787    0.0016269791148254    0.3796103363596711 N
  -0.0085231929635560   -0.0000067883395863    0.6285427820186997 N
   0.8379350710944289    0.3785589930046280    0.8728435912876049 N
   0.0021603753024432    0.0058737105495414    0.8690829719006011 N
   0.0004147492310034    0.0041374406195332    0.1253567894770534 N
  -0.0034112071138063    0.5000820908170456    0.1249106454152388 N
   0.5003274279308889    0.3715131931268744    0.3734857835691493 N
   0.8341306845329504    0.2506780452633181    0.7460322200925876 N
   0.1687093128432569    0.5041787890504897    0.2443845224237049 N
   0.1732558329909585    0.4979687198699255    0.4958680389965874 N
   0.1685275926690634    0.7487235143119166    0.0018452559265005 N
   0.1689646962360143    0.7553915029736886    0.4931576612236202 N
   0.1663223186070815    0.7530104702585267    0.7498598104820731 N
   0.8367737751696930    0.8726234870687138    0.3758585099854623 N
   0.4979518095234309   -0.0009980851553979    0.7415967250761606 N
   0.8306805123410309    0.4997615394986112    0.2477446875770782 N
   0.5001463597533311    0.2539051545860167    0.2544639893581909 N
   0.8273896609216040    0.8684422343102235    0.1269603515451281 N
   0.5005778525199820    0.4995597739060943    0.2500068665623024 N
   0.5031510987745323    0.7429703478477551   -0.0007522495355054 N
   0.4994120206417734    0.7513219335664572    0.7548197232537566 N
   0.8365553515124915   -0.0038822538552457    0.5063118666016597 N
   0.8407112997427585    0.0049292466082616    0.7459312064341653 N
   0.0010680494213351    0.7489914530399120    0.1293055081849331 N
   0.4979129839193199    0.2437769755141188    0.4972201986910433 N
   0.8289850420806536    0.2520901142923653   -0.0010959129458709 N
   0.3394332081080500    0.0028990035744369    0.6234219232508138 N
   0.8308813380521731    0.3751956008089492    0.6265999560066631 N
   0.6671987670316007    0.7462991326708325    0.1265541190995199 N
   0.6750516156316997    0.7490852364703170    0.6214013574989321 N
   0.1793908119015214    0.1214612461153613    0.3742481383487282 N
   0.4943708099432665    0.8805299977264670    0.3716815674524243 N
   0.1583956956289808    0.1202973937729883    0.8719202701364547 N
   0.1694770026185851    0.3749725637869349    0.8777862321776202 N
   0.1688163094562449    0.6293454819757680    0.1274955955002229 N
   0.1692358829435959    0.6249318709222318    0.8786184843173980 N
   0.4971993907904778    0.6253546279424825    0.8782543754382418 N
   0.5071217711240374    0.6255121001911013    0.6279412676277534 N
   0.1734743469613370    0.8705067546396874    0.3809677052303785 N
   0.5020073499101226    0.6214781837886925    0.3737129365788284 N
   0.5000480169345831    0.1218495193369690    0.3761501482274238 N
   0.5084852688547188    0.1193166945759999    0.6181160847370603 N
   0.4976898387275874    0.3776884852861866    0.1288084872437629 N
   0.6674096968928594    0.5016061945734505    0.8772854956651521 N
   0.0077321407708274    0.7509305196282001    0.3755784410956905 N
   0.6695791179939123    0.5017009207269489    0.6250954532650194 N
   0.5059578602468733    0.8685433676803112    0.8721671867189686 N
   0.3424664703695177   -0.0000662956933779    0.3740057663104200 N
   0.4959174592432306    0.3819440970963965    0.8683787161752852 N
   0.3369459626234471    0.2523192674355875    0.1243362989334996 N
   0.3403153521452045    0.2462034618031800    0.3789557677124402 N
   0.8283790529475424    0.3789846766185657    0.3743905662260424 N
   0.3262136678331607    0.2553457310267336    0.6273021954864397 N
   0.3273417019255421    0.2532520156782316    0.8718741415550465 N
   0.3260692558992219    0.7543459293958480    0.3755086356807202 N
   0.8340758523910592    0.3834245561677847    0.1266078743093240 N
   0.8398852683368312    0.1241574218557127    0.8715526155751920 N
   0.8386701046733998    0.1245351353101889    0.1253773532365659 N
   0.6659012230973600    0.2500375547609311    0.1246421589099656 N
   0.6596230113815960    0.2482892495981920    0.3765818059086850 N
   0.6646827695548165    0.2410638290004664    0.6207990964978176 N
   0.6690490587812864    0.5065174141397500    0.1262996574869119 N
   0.6660591949348266    0.5005576874979907    0.3711683351317496 N
   0.1733282405942789    0.2477855595986128    0.5045565741198420 N
   0.4999791288197808    0.0069387228060587    0.5008233830805838 N
   0.3392871652143459    0.6245150770231604    0.0019693148316846 N
   0.3350367797223675    0.1287691478999440    0.0032350368124883 N
   0.6695691854861868    0.3742768164286753    0.7481651034684866 N
  -0.0036636800375764    0.6276868169015293    0.4965499965159201 N
  -0.0024438670835054    0.6227198184137288    0.0014230624757600 N
   0.6638171600301962    0.6257214418066365    0.0065656908679654 N
   0.3386786613264168    0.8708031258670621    0.2582048893157692 N
   0.3389435387345321    0.1266265663138904    0.4933133895475458 N
   0.6677074193875161    0.6267134490297628    0.4989614600029468 N
   0.6625458405282956    0.6242647167022785    0.7487337459790430 N
   0.6570237200418830    0.1270974292126585    0.4961855918546956 N
   0.6661001232804192    0.8692688727989537    0.2478967069035480 N
  -0.0006371374534741    0.3756669660320438    0.4983527810395339 N
  -0.0014325496659786    0.1190152626393610    0.7529760948746189 N
   0.3316949470098513    0.3724785282188949    0.0012831087335783 N
   0.6615504624857025    0.8764981613372912    0.7535075164969246 N
   0.1668182852067814   -0.0026460737763793   -0.0065233279837531 N
   0.3394695603071215    0.3777622549473933    0.2515040190581296 N
   0.1656222215087055   -0.0014316763080588    0.4984595541209343 N
   0.1606055792661627    0.0032646216021246    0.7535014723415386 N
   0.8346549829797323    0.8807941970820132    0.6207022580518643 N
   0.6710080062069521    0.8740293878094828    0.4982736965786330 N
   0.6642117230140878    0.3786235105131827    0.2521772212777935 N
   0.6723397137808496    0.0035440854299055    0.7460167731341892 Nb
   0.8299134933164325    0.1244813403372207    0.4993126310338792 Nb
  -0.0050274605339020    0.7510911561279666    0.0001209568554321 Nb
   0.6584170685942191    0.2502234291008774    0.7509682020291901 Nb
   0.8327031757831711    0.1231462897028944    0.2497798533990547 Nb
   0.5006002165116830    0.8767815948637244    0.0058004869681044 Nb
   0.6665831046616905    0.0048939722845603    0.5000619731234428 Nb
   0.8261114649850687   -0.0028363526201226    0.1263442893162035 Nb
   0.6607733015358911    0.0012698861866494    0.2489842781964892 Nb
   0.3368336956572200   -0.0042217033110888    0.0029470749467109 Nb
   0.1767468368678357    0.0018967005615639    0.3704886250728355 Nb
   0.5010444529611925    0.2495456623452820    0.8742539843955452 Nb
   0.4947711541724944    0.2504695459393861    0.6257421975417568 Nb
   0.6567231071028475    0.3682793849780984    0.6208447421887284 Nb
   0.6658813328678920    0.3712263513527385    0.8767183982931560 Nb
   0.8333654540799753    0.8746271514194817    0.7456278259629601 Nb
   0.8246439188980723    0.0031488117864975    0.3752365855904838 Nb
   0.1630686791519205    0.0025743472059425    0.6238877229878134 Nb
   0.6680789363817298    0.8801936724295638    0.6256922375925998 Nb
   0.1639428948795253    0.1252256175431829    0.0026963916035024 Nb
   0.1666972615855221    0.3738170556176952    0.2504808376942583 Nb
   0.1703574587980245    0.4963611688064719    0.6234142627955825 Nb
   0.3314329434957868    0.1228231960840817    0.8718488695789137 Nb
   0.0070150125427788    0.3684191120065523    0.6275880901410900 Nb
   0.4955902708081866    0.7515446652959243    0.3739221039767566 Nb
   0.1727240934380045    0.6286327395330488    0.4955264016262977 Nb
   0.1658763758253343    0.6234594495099042    0.7475437981130927 Nb
   0.1699500375093194    0.3713757120938046    0.7466608250957127 Nb
   0.6682951101980397    0.7551122716619043    0.7487216714735832 Nb
   0.5036140909974269    0.3775464926445737   -0.0027690123127355 Nb
   0.0062938722876406    0.8710085378510508    0.1268125647596977 Nb
   0.8358432140895196    0.2502851968737811    0.1289220234163900 Nb
   0.8337627325552005    0.2506337838330995    0.8692670813563345 Nb
   0.3309788601603014    0.1282203505332929    0.6238250713705773 Nb
   0.1742488918790714    0.8731968624182153    0.2516614812579678 Nb
   0.4969816316216508    0.4928040006398351    0.6245576477714948 Nb
   0.1748009284422996   -0.0039250426032132    0.1282614847793341 Nb
   0.5031665192368302    0.7574242342553372    0.6223177773493264 Nb
   0.3308604392836362    0.0017359156725744    0.7484847557098689 Ta
   0.3334117808025002    0.2529194720884556   -0.0044622053180814 Ta
   0.6595203440429251    0.3753675478817106    0.3783962208379919 Ta
   0.8307653740607499    0.5002253439697587    0.6202265900948228 Ta
   0.6659427879417996    0.1249835224878913    0.8736971787951344 Ta
   0.3319448812458562    0.3795179561505557    0.3810569452416100 Ta
   0.0030082728974183   -0.0014113387689947    0.5002963186696319 Ta
  -0.0006727948811123    0.1236271395802006    0.6231091227666481 Ta
   0.8280086854043383   -0.0030052917182066    0.8737888057599668 Ta
   0.0028007174611919    0.3795349792928225    0.3723609916788417 Ta
   0.3324279295816095    0.8748423861492580    0.8755556125423478 Ta
  -0.0038730365751290    0.7530602581901646    0.5030498537426065 Ta
   0.3324032287785058    0.8754968714627078    0.6194366611453803 Ta
  -0.0016829911842249    0.6314343949473995    0.6263308342782942 Ta
   0.3325908479595828    0.6262350666897847    0.1319413882483772 Ta
   0.0087861792340250    0.8726029639150183    0.3775510034548810 Ta
   0.0027106834325508    0.5010535126252362    0.2472566922430380 Ta
   0.3340161921199407    0.3751502381040774    0.8697733440573925 Ta
   0.0062124630623263    0.2471711155693828    0.7513969827298861 Ta
   0.1703819324262209    0.5034635009421382    0.3718500399473567 Ta
   0.1662422087959963    0.7514532951128781    0.8715158740821194 Ta
   0.8313629794847808    0.2472264773455981    0.6239081447301362 Ta
   0.4978334070618040    0.6285762363131294    0.2486764020628051 Ta
   0.6642660059678165    0.5028130017925276   -0.0004521751159571 Ta
   0.1709185741278264    0.1283148239808037    0.7447566587314537 Ta
   0.6653798832671252    0.5048207290456639    0.2501906898173860 Ta
   0.6659096745287411    0.7515214872323178    0.0028255675428661 Ta
   0.4986396982969193    0.1294640636134823    0.7464595443347860 Ta
   0.6646416805522815   -0.0024491806207745    0.0022786723727356 Ta
   0.3386565600211026    0.7509951372189869    0.7498301625168847 Ta
   0.4919543879766920    0.4973376087085624    0.3769309534459402 Ta
   0.5003641608893225    0.6218213580162147    0.7528684900383633 Ta
   0.8360629387987238    0.8728226755286735    0.2465617530237618 Ta
   0.5008143167669055    0.2409231320773496    0.3779022797588015 Ta
   0.1666998961126772    0.8701876890926264    0.0037763294276540 Ta
   0.3368044191181172    0.2514859716752709    0.5053763692270626 Ta
   0.4961385992328326    0.7528432367663033    0.1296179007931268 Ta
   0.5037656100014276    0.1225259341859258    0.0034617671914887 Ta
   0.6614919832804621    0.7473187804050290    0.2503838302789664 Ti
   0.4975366723196647    0.3800443866228649    0.2496589886932123 Ti
   0.0050517474148990    0.6260771259693890    0.3714462108641021 Ti
   0.0046028216616141    0.3749338658845457    0.8759239172355031 Ti
   0.6680032183950630    0.7500845596599242    0.4993016225908088 Ti
   0.6699396552072121    0.6294647102245822    0.6222236935193959 Ti
   0.1658030211113067    0.1228464640547301    0.4999745566007427 Ti
   0.1632812102360615    0.3782072912449225    0.0014235698572764 Ti
   0.1698250400738268    0.4980676874036234    0.8767832825051797 Ti
   0.8301341152379319    0.7478564960728112    0.1240597319070109 Ti
   0.8344668498726728    0.5001972514907608    0.8816962439089550 Ti
   0.1698362046728268    0.6300722004135273    0.2517111255371845 Ti
   0.8359634254874558    0.5011098833096084    0.3765293944139135 Ti
   0.0022296820483566    0.3771896647644524    0.1248444974532892 Ti
   0.1743966251988307    0.3743211803724117    0.5027309798334816 Ti
   0.3313118117311808    0.3813384421805081    0.1291587881613417 Ti
   0.1637104853997123    0.2468856096913146    0.8748909343221041 Ti
   0.6673644062664905    0.6284734164629068    0.3731535995684742 Ti
   0.8335164596666458    0.8731661655667449    0.5030346217243210 Ti
   0.3315886757523168    0.5032162080321975    0.2496216544752147 Ti
   0.8307813347322272    0.8736613511655670    0.0016103653192610 Ti
   0.3374760663015695   -0.0016827508802583    0.2524397914037609 Ti
   0.8308450509340285    0.6270371913518472    0.4999902244608077 Ti
   0.8363712983997370    0.3727809172807241    0.7517212553870967 Ti
   0.8276502678506334    0.3744413515863796    0.5012580425567501 Ti
   0.6657783262738984    0.2494962166401953    0.0010294209576001 Ti
   0.0096874578937027    0.7490064161118771    0.2498220133351764 Ti
   0.8363989126153640    0.3769761553372819    0.2486523830276954 Ti
   0.8303437758739459    0.1256311144250703    0.7469238176992883 Ti
   0.3380134899324400    0.6235542581904104    0.8736882638723071 Ti
   0.3295131135234751    0.6292887248472071    0.3743671134366474 Ti
   0.6631617407030868    0.2492510477307796    0.5007143716940097 Ti
   0.5001896046105887    0.8763477976687538    0.7454043366991437 Ti
   0.0039874368332115    0.4980248955013673    0.0032066561383665 Ti
   0.6597808450443741    0.8758740151888855    0.1265251308960486 Ti
   0.4942241024093470    0.8753557335377186    0.2498172370680007 Ti
  -0.0034659145270829    0.8760619858723883    0.6253351879600272 Ti
   0.4973152570753718    0.5039555345619973    0.1239277523338107 Ti
