Li47 Mg29 Zn29 Co29 Cu29 Ni29 O192
1.0
  12.7655955433689865   -0.0005678983928470   -0.0065121945221394
  -0.0007576359452840   17.0331722431826336    0.0086964127826225
  -0.0086819077872990    0.0086971056382612   16.9984894837994744
Co Cu Li Mg Ni O Zn
29 29 47 29 29 192 29
direct
   0.8348007083270166    0.7443345277956247    0.1176987033237645 Co
  -0.0053523305038345    0.1289506039795895    0.1212124156604923 Co
   0.3265585171105590    0.2569144334800303   -0.0013917517229249 Co
   0.3352770415968089    0.2504593457036962    0.2498215729074589 Co
   0.1732909159693832    0.6319312481649133    0.4966969293761214 Co
   0.5032111783769579    0.0062207628572496    0.8761943458115959 Co
   0.3315340662316567    0.4942628903966997    0.0147623173033306 Co
   0.1657286393406102    0.2500554489013510    0.8744388890570636 Co
   0.3321071289699711    0.1255519975499863    0.1206630747064034 Co
   0.8357453717501382    0.2464499031323574    0.6241977390518439 Co
   0.8336460695908442    0.2567516385979856    0.8680691354734108 Co
   0.6640327692028519    0.7439682785472114   -0.0015937378276608 Co
   0.8292283251535616    0.4915521367504356    0.8739095084273349 Co
  -0.0080670658704536    0.3851455182242079    0.6241258511354889 Co
   0.0051289973198828    0.1168737614192700    0.6256542759558107 Co
  -0.0058781376247322    0.8722228759228665    0.1150639746149410 Co
   0.1642131147609201    0.2498607295797133    0.3772457553110231 Co
   0.4939849658592672   -0.0109413956570871    0.6140237381443800 Co
   0.6679582340319057    0.5040038602964173    0.2472045450054029 Co
   0.6616702585790877    0.6179683147448295    0.8812058313187401 Co
   0.8291855859154857    0.6250178991303217    0.7522851583292863 Co
   0.8314754824608680    0.6297841027566531    0.2441770252886785 Co
   0.8372925678875336    0.6175787636403832    0.0055162559090525 Co
   0.6620809616352878    0.1192906641154936    0.3798793762298553 Co
   0.5056987917642302    0.8730890928555656   -0.0001292176408629 Co
   0.6720442339753426    0.3762550092779845    0.1294790591040978 Co
   0.5062780315561668    0.6188991297019159    0.7483628050495449 Co
   0.3226887437290388    0.0020757855316460    0.0045009322827632 Co
   0.6734381165626788    0.3815922036957250    0.3771156710496176 Co
   0.5004281810965905    0.8670739805953275    0.4927318250908617 Cu
   0.8303349040581198    0.5071512958301582    0.3752002149522664 Cu
   0.8277807120597551    0.3712528268967453    0.5028572117243760 Cu
   0.4984841034008786    0.1237710738994166    0.2484869085242564 Cu
   0.8363224899072670   -0.0059886855623871    0.6313406211177931 Cu
   0.1633500434240213    0.3758300244785658    0.7480704561122756 Cu
   0.4985911891399515    0.2570070134830912    0.6233759922268535 Cu
   0.1584614667913781   -0.0002317263874415    0.1206229454884481 Cu
   0.5000344001386876    0.1255842130562943    0.5038814083094633 Cu
   0.4982628887016246    0.6189160595847750    0.0035517587984606 Cu
   0.8288830620864316    0.0078504259846531    0.1233325023884741 Cu
   0.6656759853576153    0.8719146941115794    0.8726482219269897 Cu
   0.8244888202781325    0.7612196280215983    0.3713919958127770 Cu
   0.3314452624406325    0.3763928810395802    0.8739125101272703 Cu
   0.3324080438742139    0.3760478503487432    0.6284878082090738 Cu
   0.4965987240992947    0.8751937083938270    0.7594001799825918 Cu
   0.3317763940182391    0.0026063697812693    0.7509453533312884 Cu
   0.3402807674268267    0.3747732410357128    0.3710152811539157 Cu
   0.3380035814231909    0.4976997072805972    0.2477001284265389 Cu
   0.3356369280746082    0.5009316716044857    0.7467276729702297 Cu
   0.3382720253462262    0.8744499437325405    0.1206620414761308 Cu
  -0.0000981894237805    0.7524409320522284    0.5094575362357161 Cu
   0.6702624731928005    0.1306690534246311    0.1282443225252756 Cu
   0.3367045061603364    0.6232334199001995    0.6192227774512515 Cu
  -0.0033338045923997    0.8760466195845620    0.3750154216463698 Cu
  -0.0016375299478297    0.6238067137774471    0.8775980287455114 Cu
   0.6694954453002336    0.0059769420343687   -0.0025660864662174 Cu
  -0.0107761195831671    0.2505371458304942    0.2511911101738822 Cu
   0.6693824204924079    0.6256987107253903    0.6221697771761900 Cu
   0.8232739366100665    0.3759115655654726    0.7507445277469198 Li
   0.8472819650069592    0.8794891180110034    0.7555579387872760 Li
   0.6587286292831730    0.6237268221860770    0.1288528399188993 Li
   0.3332086485712590    0.6279485681217962    0.8862697681542235 Li
   0.8289598055280232    0.3660961717837508    0.2453965225461278 Li
   0.6558610808338819    0.8744314469336343    0.3628755653275496 Li
   0.6660189081318387    0.3759519720382054    0.8602550750593168 Li
   0.3471213060417577    0.8712822783193609    0.3822750184141302 Li
   0.1832457897282004    0.7566912860628343    0.3743135051193775 Li
   0.1616702438332966    0.4980870195538167    0.1256142609908775 Li
   0.3153151140349988    0.3804846694651549    0.1283818130520082 Li
   0.5046734303751224    0.5016683841028271    0.1286033838060249 Li
   0.5009424149967866    0.5108421846130143    0.3789501932912937 Li
   0.5100882600090094    0.5042037532595728    0.6163240453711815 Li
   0.4893178619072874    0.7380469820140887    0.8752333996383890 Li
   0.0105800449080808    0.8799684367590412    0.8713155049363612 Li
   0.8345442415984851    0.4957123526510292    0.1196042692173778 Li
  -0.0009721206798288    0.6289974070372011    0.6194488142188079 Li
   0.0061993414975906    0.6160682137416643    0.1274294944402838 Li
   0.8286458834390285    0.5118719389116406    0.6273554418618684 Li
  -0.0013585386502971    0.3749751885809328    0.8845123861388613 Li
   0.1722267955082034   -0.0084874616728662    0.6194716554487042 Li
   0.8394127375113428    0.1198182909025123    0.7495312933323173 Li
   0.0027390429782836    0.0037920138331450   -0.0032930949798891 Li
   0.3467709969686707    0.7510851321668048    0.4980665519296244 Li
   0.1646204193609499    0.1125306566089169    0.5054622388265128 Li
   0.1589232229225209    0.1273438729947088   -0.0019731638058901 Li
   0.6618809928323434    0.7447637334407569    0.7522525125335791 Li
   0.6579233026060927    0.7507811898396859    0.5015417711051193 Li
   0.6693543604983211    0.4968980143745851    0.7429366033737314 Li
   0.6671710962837742    0.5103966840195518    0.5024138773321254 Li
   0.6698091343971913    0.2464525715625727    0.5033694370520434 Li
   0.6780719559639790    0.2445342034137253    0.2516306708258882 Li
   0.1527968884105151    0.8746414611933517   -0.0020631707926048 Li
   0.6759298577278821    0.0051647996697172    0.7477722733444215 Li
   0.6565083297302957   -0.0088816583568838    0.4975716141824840 Li
   0.6649951149426685   -0.0013592735433593    0.2536599864413704 Li
   0.3349914077185933    0.7381907893871831    0.7549403317387272 Li
   0.3517025742382044    0.5016106183355846    0.4964948801844947 Li
   0.3318533388760646    0.2517415924351208    0.7496084303624788 Li
   0.1602377458042117    0.3794885435920116    0.0114559617786647 Li
   0.8392913778507155    0.1254011836031784    0.2508384556183474 Li
   0.5117810743882999    0.8698463827727738    0.2497303242273193 Li
   0.0028757798809465    0.7526552470338065    0.7563379440760248 Li
   0.5006813783555781    0.6266721136213507    0.2540838289225025 Li
   0.5101034042305710    0.3740517979804052    0.7455474982361915 Li
   0.3322668123573927   -0.0131587773910722    0.4972900209659075 Li
   0.3279176947749318    0.1269934049876460    0.8769502998724612 Mg
   0.8286168406302024    0.2384776450035782    0.3776613382485022 Mg
   0.6722380195413253    0.8745657281991283    0.1247679454769050 Mg
   0.0069773981776783   -0.0051626340148134    0.5045389200837720 Mg
   0.8327782289403027    0.7507079709332263    0.6345713370122604 Mg
  -0.0001184320853280    0.2540735230806183   -0.0034367729602137 Mg
  -0.0011514467447754    0.3790962864025196    0.1254923205468989 Mg
  -0.0076361468668840    0.5010363963026574    0.2481856661344760 Mg
  -0.0125604326925705    0.3725026335648543    0.3731814273815746 Mg
   0.6704383096488650    0.2570122712022717   -0.0015254757269951 Mg
   0.3306693200751674    0.8726562881784832    0.8791134281633493 Mg
   0.0045244560115081    0.7474464671424972   -0.0025630256794542 Mg
   0.3361870291577803    0.6209717927120095    0.1286033103871198 Mg
   0.1675400421711594    0.1213081350099331    0.7475516406182154 Mg
   0.3357036058722973   -0.0030031651898322    0.2487055310726642 Mg
   0.3338912292037661    0.1202728114740205    0.3807914792898974 Mg
   0.0000410175845806    0.2429049335450228    0.5022015412459232 Mg
   0.8329036964771984    0.1136205854583181    0.5031797091058655 Mg
  -0.0074496656933956    0.5054783436838259    0.4980925325352337 Mg
   0.1675584549205100    0.7470978592085945    0.1225228408761155 Mg
   0.1619176744919427    0.3784794217451771    0.2494366159579310 Mg
   0.5093424395359043    0.0005850560641784    0.1265397006908585 Mg
   0.8348840788127510    0.8764640151502554   -0.0066883739716220 Mg
   0.1672907734052371    0.2541512435471305    0.1221686923131180 Mg
   0.1683384817067555    0.6210949633392131    0.0041444929297018 Mg
   0.1619492266014851    0.8734888320355052    0.2461457455901392 Mg
   0.8343572024257014    0.1286128526058441   -0.0020150225751606 Mg
   0.1671727343131666    0.6222558030166068    0.2463028252530680 Mg
   0.1605136106102455   -0.0019673358157615    0.8791007545737861 Mg
   0.6648793056563381    0.6328447431574515    0.3723731687395773 Ni
   0.1644942386477046    0.2486450295644358    0.6256051268482301 Ni
   0.0050281518733251    0.8721084350252455    0.6334883885529138 Ni
   0.3327817005755120    0.7477661802503620   -0.0008251752313204 Ni
   0.1683238838195794    0.8734389214770076    0.7531877949160117 Ni
   0.3294600067324773    0.1252089234743252    0.6220625297447420 Ni
   0.5012942352680528    0.7498184786552597    0.1242729562624267 Ni
  -0.0063695453947143    0.5040787944446302    0.7486730177297428 Ni
   0.3351044049065579    0.8691339347217870    0.6265701231806804 Ni
   0.0021584939682980    0.4970684920803750    0.0060759640338593 Ni
   0.8332194239775965    0.3767579893870784    0.0003176174397572 Ni
   0.5064096951861475    0.6232694314284668    0.4970265046213973 Ni
   0.8261801520256377    0.6349026967265083    0.4990673254393461 Ni
   0.5057187250105668    0.3838876290963890    0.4998324365541925 Ni
   0.8295755639741871    0.8760903825086461    0.2415969114770046 Ni
   0.5009303835117542    0.3755356416909454    0.0006873462036663 Ni
   0.1735530151309821    0.8716160362772333    0.5025547126655682 Ni
   0.0022670356624775   -0.0028523301914294    0.7508385009415768 Ni
   0.8321431700727748    0.2519502624339966    0.1281754960508792 Ni
   0.8379800489130163    0.0001825065048817    0.8691688738208684 Ni
   0.6627986808559269    0.7532370899271882    0.2450134796680455 Ni
   0.6638640524505982    0.4958589755342477    0.0052935707156802 Ni
   0.4986419616940653    0.2562867809657149    0.8700644060684634 Ni
   0.8317910751286105    0.7472578330660120    0.8724611283690076 Ni
   0.4986046024036968   -0.0060527415520949    0.3723781392551043 Ni
  -0.0000347925500967    0.1236209821745034    0.8765548705602997 Ni
   0.5027341640795883    0.7544292526289093    0.3714562618574091 Ni
   0.0013148813365156    0.1217964600998031    0.3785401856644046 Ni
   0.5095059962408471    0.2478715441949359    0.3797276214257494 Ni
   0.6365466913393638   -0.0002737544880659    0.6315252159232096 O
   0.6641909740684691    0.0146118406567708    0.8838196288038344 O
  -0.0012590071589480    0.7519018478526838    0.6357117580605952 O
  -0.0064684746550490    0.7376019937645536    0.8779126309174203 O
   0.6693917429166247    0.2543936567266823    0.1257444994330990 O
   0.3478418930835880    0.0010644513328659    0.1177234892032655 O
   0.3320070857471496    0.0016425580761359    0.3686099530384797 O
   0.6676466785958111    0.2303404851959322    0.3761929600973085 O
   0.3335953282910841    0.4995546182277302    0.8614137237239066 O
   0.3360011485895003    0.0006986274176646    0.8934054133492597 O
   0.3310212530809458    0.2469150113363069    0.1268981837334243 O
   0.3337758629518950    0.7534602501771961    0.1225040954292606 O
   0.3350042147122633    0.2554598428231222    0.3711105019061804 O
   0.3207544205709563    0.2579696531220627    0.6256045276674637 O
   0.3271632249283586    0.2501357974384257    0.8738136903973859 O
   0.6735210738809211    0.0005392322302739    0.1125501663181110 O
   0.3364441900768491    0.7533264921018825    0.8805509200061538 O
   0.3376606578124383    0.4983699775246966    0.1347262110189375 O
   0.3394220465772113    0.7448208812761370    0.6272585002683849 O
   0.3379488758632881    0.7531322525860320    0.3693682813722050 O
   0.3381479457204468    0.4881756581346813    0.3633305154289457 O
   0.3279353591393461    0.4941081673095691    0.6324911366700636 O
   0.3512785585977894    0.0008066138116733    0.6211448192775556 O
   0.6644435854684937    0.0077331564561354    0.3733353800955039 O
  -0.0022877096960740    0.2450123600651744    0.3789793447510829 O
  -0.0011943750273347    0.7490277651902139    0.1200410966730635 O
   0.8351466074628016   -0.0024185089807420    0.7464079512508683 O
   0.8342409394225452    0.2539553626734340   -0.0039797329303511 O
   0.8355385258584802    0.2464883215799909    0.2527480401905206 O
   0.8392027456315422    0.2334769113081917    0.5045395722041172 O
   0.8406356052025687    0.2524437285850149    0.7468599697187667 O
   0.8309159685789467    0.4998213639849627   -0.0036360979416282 O
   0.8285599239337375    0.5097767415332163    0.2627693048604179 O
   0.8332030318247355    0.5173157449135266    0.4848884951436160 O
   0.8350697156102532    0.5104192145426998    0.7549979301818547 O
   0.8323550731134775    0.7431896435675011    0.0010349529307716 O
   0.8283859211047616    0.7487989237181044    0.2283355208446974 O
   0.8495099923444873    0.7548296892331107    0.5129272440593935 O
   0.8248321145596681    0.7343210446614321    0.7548676697954402 O
  -0.0185257279373489    0.0161304935353015    0.1220939891781702 O
  -0.0023457287661773   -0.0053285079739656    0.3744827198497445 O
   0.0132094218694174   -0.0003687346284404    0.6274271053052296 O
  -0.0012354244127412    0.0027543316998226    0.8738820328175188 O
   0.0023933165564840    0.2450810195443237    0.1240466562170679 O
   0.6925295890841765    0.2402008564442892    0.6233707548752024 O
  -0.0060047933110775    0.2405524457195889    0.6235695998703927 O
   0.0041899451288595    0.2489610634956621    0.8749527164401798 O
  -0.0077573614732858    0.4980753214435433    0.1266987913675254 O
  -0.0205448644610979    0.4975718980203254    0.3750104957664706 O
  -0.0022438082083528    0.5008386049131781    0.6205838632491408 O
  -0.0087498988440183    0.5085722897554892    0.8765844365936559 O
  -0.0249717726803248    0.7642319059407514    0.3614800179576748 O
   0.6666111284905920    0.2516632135864053    0.8740158906900165 O
   0.1657608758100359    0.6256943223106489    0.6095235454680260 O
   0.6832800436612561    0.5014666655482983    0.3708176070659233 O
   0.4889736650378097    0.3717980238551526    0.6227917833568481 O
   0.8416272922864982    0.8756943111167685    0.3738688398166518 O
   0.8392250522824726   -0.0077013294008076    0.5125001300914502 O
   0.4902451955816509    0.3748273575290813    0.8727826383466677 O
   0.8365034195152202    0.8619350643733542    0.1152493410906198 O
   0.4988618614622453    0.6292938928701829    0.1152634522080082 O
   0.8079464547241016    0.6168820843343615    0.8798961285888814 O
   0.8202049376981174    0.6294911096839304    0.6280369694673904 O
   0.5029627522343588    0.6321064911038226    0.3769906962127766 O
   0.8298060713225744    0.6502146361566264    0.3686612856966279 O
   0.5182639486251359    0.6234303902966681    0.6219303611875998 O
   0.5309232851091277    0.3674707121793072    0.3762216500327462 O
   0.5096800344649648    0.6186314365335510    0.8884505073311635 O
   0.8336836109822099    0.3840562485913519    0.8742342850525309 O
   0.8377200993706357    0.3704596762769781    0.6150581100024695 O
   0.8233215702304594    0.3595097662900988    0.3895507446629068 O
   0.8263921893192331    0.3709021157346439    0.1246392234178028 O
   0.5145944367499464    0.8784936675443746    0.1172236437993765 O
   0.8385622714377171    0.1257393961833993    0.8772985076461350 O
   0.8427047690437389    0.1109245246997383    0.6249267650789513 O
   0.5019646716082976    0.8749373246528797    0.3679782086485918 O
   0.4976567160927072    0.8715939275522507    0.6472093674728364 O
   0.8331679775782289    0.1173911946447677    0.3800316651496279 O
   0.5070342537842625    0.8834481728364664    0.8746622992171177 O
   0.8319522884429195    0.6328391098089973    0.1248071271921151 O
   0.6730074486137366    0.4941081918512339    0.1293016618246227 O
   0.5189461139954571    0.3715236871411447    0.1301188400821661 O
   0.4942819676880753    0.1391928058401817    0.6164540251847549 O
   0.6719523019909726    0.5138991574205328    0.6227819642626311 O
   0.6693568988620383    0.5039760222827938    0.8831640727030170 O
   0.6684325351677618    0.7512854250122369    0.1141416176865121 O
   0.6747311382700614    0.7552949010786922    0.3661891803589876 O
   0.6652229074377181    0.7396098470978969    0.6302637940594117 O
   0.6677270291784887    0.7298892670036707    0.8885853473944726 O
   0.1759187683750454    0.1228300898579591    0.1271265524983737 O
   0.1700829975315943    0.1348526361606641    0.3736234150740393 O
   0.1649093749348710    0.1286284709657199    0.6256753989050443 O
   0.1657422603810882    0.1257204923216793    0.8726585002278232 O
   0.1608188394633631    0.3713308516990203    0.1312288056714232 O
   0.4923739509410935    0.1292253192320809    0.8797300557063349 O
   0.1481433012348095    0.3629615808938949    0.3726800427281146 O
   0.1707384405618499    0.3713766261809285    0.8633485411435949 O
   0.1733820534644020    0.6259183394079509    0.1254964763390919 O
   0.1698198898912706    0.6276625649658887    0.3817502012190056 O
   0.8379167714956290    0.1346076373798855    0.1222765787074202 O
   0.1768553517136678    0.6251988434780703    0.8794963289640999 O
   0.1431089189312272    0.8808034423590793    0.1207684767002889 O
   0.1481040022046305    0.8730424361878238    0.3708383528167095 O
   0.1756731756904554    0.8703817669693031    0.6284172397052432 O
   0.1709640905207222    0.8761764051986798    0.8753413973398402 O
   0.4851978047651139    0.1251059256573368    0.1139764954978448 O
   0.4986324589055073    0.1230436938421136    0.3913271817874376 O
   0.1702009679683490    0.3755713207142022    0.6291324830637460 O
   0.8326866187338128   -0.0020000718686760    0.2409887437524479 O
   0.6549617292048788    0.6200348795969143   -0.0038992416174362 O
   0.4982705575804601    0.7229531120747765    0.7539355057041828 O
   0.3378654886056709    0.3769074731860858   -0.0060704456838613 O
   0.3393217023933910    0.3758272836628024    0.2565103091164311 O
   0.3384147532287010    0.3767122796235823    0.4829079805885481 O
   0.8212940764909431    0.0011878626136644    0.0011202577774258 O
   0.3419941778227372    0.6200637960600471    0.0053957005048053 O
   0.3304389843415159    0.6128220755358726    0.2513690339916718 O
   0.3331943740375581    0.6242371332920097    0.5034215555091830 O
   0.3300112082544918    0.1172708064979263    0.7489515503513452 O
   0.3482892228332093    0.6134577929454741    0.7341141736160013 O
   0.3232025402123622    0.8793729452436090    0.2327794063279094 O
   0.3417836253649176    0.8690167787453457    0.5050361154027183 O
   0.3444050070341123    0.8884827406446999    0.7555055315715189 O
   0.6700768018572134    0.1365365337138948    0.0105908871769719 O
   0.6467973315926726    0.1247235857502562    0.2412076278313299 O
   0.6542305746658572    0.1163770804827326    0.5023604995897488 O
   0.6594156314677203    0.1288714466841910    0.7470736569798426 O
   0.3463239526370643    0.8777379991461515    0.0055566780721719 O
   0.3474055232780403    0.1327069102767724    0.5011094992411438 O
   0.3426994344647135    0.1240264112134180    0.2473229482452911 O
   0.3307367679437234    0.1253755377100964    0.0018837885957299 O
   0.8276277819660733    0.8771009393672405    0.6345947902610611 O
  -0.0038862828501715    0.1307621853077120    0.0040061820052776 O
   0.0017894329614247    0.1312539480973437    0.2472940150007092 O
   0.0010323386330591    0.1173694692349948    0.5034653623875822 O
   0.0059923011211588    0.1190612552733010    0.7451399898010286 O
  -0.0063463665375589    0.3758164732985109    0.0041038210374667 O
  -0.0069473923780519    0.3699791212034768    0.2512604578210463 O
  -0.0162616193564083    0.3745674607118569    0.5051851672764233 O
   0.0095005429124868    0.3792940399710047    0.7334368021584237 O
   0.0010095432480661    0.6221975488747493   -0.0081812943031753 O
  -0.0067002731272344    0.6249332966280046    0.2542709000654998 O
  -0.0024139865348848    0.6345832449493761    0.4948908262633920 O
  -0.0113373735826565    0.6230916848806948    0.7641219428577716 O
  -0.0076549234715011    0.8708818132048882    0.0048539702921265 O
  -0.0051323308523782    0.8774258486242326    0.2273553543010631 O
   0.0061825334468587    0.8688139258429067    0.5141984920874152 O
   0.0080409629028552    0.8786097695976683    0.7513513089841264 O
   0.6671652306970138    0.3759302379006890    0.0082909945111919 O
   0.6733666648401446    0.3804770734717593    0.2534943498027561 O
   0.3163706209118398    0.3879310208125943    0.7545554308745792 O
   0.6666373318689227    0.3754453335837571    0.7397660504315631 O
   0.1499518668962943    0.7491553014679859    0.5003104673205743 O
   0.1728067285442777    0.7459170330427949    0.7526043354720425 O
   0.5145503047699274   -0.0065835557701491   -0.0046365258911354 O
   0.4969908337267164    0.0098486815188539    0.2474773224049120 O
   0.4967702649524373   -0.0215977592839362    0.4992154779241877 O
   0.4836480086203994    0.0103646679023305    0.7664979463311488 O
   0.4993518258960492    0.2569463612867525   -0.0031294049115395 O
   0.4868201806831965    0.2396087913363506    0.2534094268757323 O
   0.5041078418140499    0.2643817228498337    0.5068137112578420 O
   0.4957860941010859    0.2509166770688264    0.7424459528262761 O
   0.4967436391419884    0.4909268332614464   -0.0001199734722066 O
   0.5246585826517086    0.5041906576286458    0.2541189966835333 O
   0.6767260731390448    0.3774647108231702    0.5042187818983340 O
   0.5078983565189235    0.5119334971531262    0.7525717887157903 O
   0.5018987811233745    0.7622436964886565    0.0006858666953381 O
   0.5020727203330877    0.7486452575487293    0.2450591994913107 O
   0.5015629362526373    0.7551363382814660    0.4972550285487591 O
   0.1659669474267974    0.7502764269750006    0.2444294516267717 O
   0.1676295216556380    0.7457921580597923    0.0022499558800695 O
   0.5040227302188622    0.5013621097897766    0.4973035276353278 O
   0.1543763832145931    0.4976286275183980    0.4933690283361575 O
   0.1510534443594031    0.5137921889230898    0.7492424973963486 O
   0.6792239617209709    0.6267049186308896    0.2496072832485123 O
   0.6689012735085692    0.6337442782066163    0.4881163514630488 O
   0.6581942457510270    0.6202473251088129    0.7742106677444782 O
   0.6687854604329281    0.8635989469237676   -0.0102723828571258 O
   0.6733954693119777    0.8744474325578632    0.2426107693866956 O
   0.6562292201754532    0.8702260275211270    0.5109644768259862 O
   0.6446301553041425    0.8690824985766015    0.7608094322489719 O
   0.1705360498045559    0.0002762503796049    0.0047891360220057 O
   0.8190893700986053    0.8734882809556498    0.8737794270511948 O
   0.1683710444511538   -0.0072141420248367    0.4985386907298920 O
   0.1797348325104280   -0.0017474679438417    0.7564551686076373 O
   0.1655461867670151    0.2525687849749098   -0.0058733126527745 O
   0.1821778955624320    0.2509569706769201    0.2521907173176332 O
   0.1626347100658174    0.2576436185222197    0.4976860497263579 O
   0.1623523543596043    0.2448953784278479    0.7543916726220141 O
   0.1712399974685541    0.4997043166191968   -0.0024457791811884 O
   0.1643695034424501   -0.0003231505880811    0.2407989958421272 O
   0.1502631398223174    0.4997483922007376    0.2607000038775635 O
   0.1618502475427036    0.6303655438839227    0.7588058464571237 Zn
   0.1741098457465128    0.7510941079987469    0.8779917217599421 Zn
   0.1672111188667546    0.7492907485039171    0.6307152067627105 Zn
   0.1696976720416992    0.5030069262010263    0.8771009591796618 Zn
   0.1629117214089495    0.5042284011240690    0.6224712097392598 Zn
   0.1766246889798880   -0.0102544294177739    0.3823634377653085 Zn
   0.5041246122648444    0.1346648906455542   -0.0028469574950192 Zn
   0.5000024039968618    0.2525355586939180    0.1253973324737311 Zn
   0.4976108973551675    0.1313295015340258    0.7488296500014137 Zn
   0.8223309399677976    0.8734771500543489    0.5066766609297335 Zn
   0.5083194633553669    0.3842120472478098    0.2507236557224108 Zn
   0.1759671441444430    0.5031845196152509    0.3756180357048633 Zn
   0.1745683092508078    0.3785395263868788    0.4950961013432579 Zn
   0.6682656348125284    0.2559585099767505    0.7450418558486450 Zn
   0.5010105576374567    0.7459164132277459    0.6263734117145934 Zn
   0.8259321524808289   -0.0010920171111956    0.3690493424950289 Zn
   0.1641305601236169    0.1237765769141167    0.2505135095363128 Zn
  -0.0008142962114217    0.6321090252676558    0.3750116699851230 Zn
   0.3375288990674336    0.7610084999080468    0.2512774801324984 Zn
   0.3356409614512474    0.2541973502671572    0.5034500852057454 Zn
   0.3414113051882889    0.6355524494808875    0.3707247932161086 Zn
   0.6669687384723870    0.1196008997683823    0.6265750750102446 Zn
   0.6770138987809396    0.1324391428147593    0.8657661360854013 Zn
  -0.0004177773801082    0.2478170250767952    0.7516757086747382 Zn
   0.6690137881708091    0.3895300819625430    0.6252543820411959 Zn
  -0.0033818161939046   -0.0000384789078998    0.2469256435264187 Zn
   0.6637824994087452    0.8725786312101573    0.6307318426159311 Zn
   0.4992498572008337    0.4956441951477012    0.8748566697468618 Zn
   0.0044930129493803    0.7486829789210888    0.2425091176996467 Zn
