Li27 Mn27 Cr28 Fe27 Co28 Cu28 Ni27 O256
1.0
  16.7317772048094149   -0.0000082781237360   -0.0129947122034358
  -0.0000091342519375   16.7187823807345843    0.0052200269750454
  -0.0129920584841748    0.0052199903480553   16.7350573135880190
Co Cr Cu Fe Li Mn Ni O
28 28 28 27 27 27 27 256
direct
   0.4348296408824843    0.8165027724298677    0.1881961586361242 Co
   0.8158865415193215    0.5621233912370679    0.3115676274393809 Co
  -0.0019370010794757   -0.0022285060179250    0.7537465589415486 Co
   0.4982598060961605    0.4987520524059832    0.2540678243166885 Co
   0.6129131101067353    0.6618593199086397    0.8886587866147803 Co
   0.3716552087948845    0.6266316292475019    0.1299995923040434 Co
   0.0582199590506787    0.8129856992238242    0.8148514067849895 Co
   0.6297615784610922    0.1231317950260671    0.3743451955725941 Co
   0.8749435006739057    0.1250683264437733    0.6268647302097942 Co
   0.9390992827790866    0.0578066006529450    0.9404978359138926 Co
   0.9451711825400657    0.3116829282941185    0.6915721291795756 Co
   0.8170467748832246    0.6830206276053412    0.9400531078401088 Co
   0.5009093862105475    0.7489638005103275    0.5021693295453843 Co
   0.2448001025716546    0.2493701641715927    0.7519511807514023 Co
   0.5045000980220381    0.2491231361508101    0.0034561494461531 Co
   0.0021386602287572    0.7496527268809193    0.4995431364778749 Co
   0.2462333880170758   -0.0000500815749455    0.5036457611058368 Co
   0.0624339293732523    0.9360188820054495    0.9381415551582294 Co
   0.6873408871923018    0.9405462374553583    0.3134767746792224 Co
   0.1802255253849943    0.9338875929262737    0.8161077892825923 Co
   0.1894299190022724    0.9385170412200482    0.3090317731159929 Co
   0.1891485613708793    0.4377107116307981    0.8096928826874586 Co
   0.8337265727273888    0.8467488045228299    0.8522806138645895 Co
   0.3127648459782014    0.9372387248798766    0.1862478188252863 Co
   0.1869466068112429    0.5594971468334814    0.6866934083758113 Co
   0.8155386951436404    0.3126579685244037    0.5646093506033977 Co
   0.0618225066744799    0.1871150851950549    0.1846267571498085 Co
   0.9399420384248144    0.1886276613715128    0.3097721548934773 Co
   0.9389221259543800    0.6822252823084712    0.3110070890058335 Cr
   0.3743145403414835    0.8743268348570081    0.8752192638287564 Cr
   0.3808679666308972    0.1223017337733194    0.1284423935005063 Cr
   0.8752381454703276    0.8758957100670191    0.3715911909665798 Cr
   0.3131455070217910    0.6910448105808427    0.4359637793348255 Cr
   0.2474081941593501    0.5007349903191821   -0.0021047650050221 Cr
   0.0626669962529807    0.5610294498946498    0.0577452352370158 Cr
   0.5631343029568532    0.3145815632584053    0.8125869170640199 Cr
   0.8694866579149582    0.3755018479531078    0.8733573249692925 Cr
   0.6858163922917223    0.6851011099166775    0.5591435149368356 Cr
   0.1886493630189322    0.0627193162562773    0.1852438805819456 Cr
   0.1300391589227796    0.8712327996885749    0.1248792977472532 Cr
   0.3118251570249973    0.3143643061298430    0.0619926441455579 Cr
   0.6251447108577654    0.3753814190013608    0.6173236779015180 Cr
   0.5696694051571868    0.1819047626945958    0.1910847500388212 Cr
   0.0717111942518652    0.6822619049187918    0.1832364790745843 Cr
  -0.0021214593110275    0.2522461142055842    0.5041970836983445 Cr
  -0.0038752458089756    0.7507646050992945   -0.0041347496363391 Cr
   0.9364382621505426    0.8122937931607480    0.6886919508137216 Cr
   0.9401681325100869    0.9394019988997605    0.5598836389953207 Cr
   0.4404094026077663    0.9373956343917205    0.5603811230639458 Cr
   0.9367913640101594    0.8126338774530152    0.1848717060343206 Cr
   0.4338784897343447    0.4397754275308801    0.5633342746774428 Cr
   0.5616725819216908    0.9413007536800829    0.4378229125650204 Cr
   0.0106052671057347    0.5000931466733548    0.7534246752820328 Cr
   0.3093113869503935    0.5615265251187145    0.8104551472381009 Cr
   0.3110667227024517    0.5640464229369009    0.3138456237982929 Cr
   0.3741968183656753    0.3742244720075710    0.3793218812209481 Cr
   0.3096698497396970    0.4385110473206923    0.1880620302638288 Cu
   0.3106705577118154    0.8121995893772134    0.5618594755183555 Cu
   0.8153648558224345    0.4377891110009016    0.6875914176674939 Cu
   0.0613208267071812    0.0643012106417960    0.5649146985982965 Cu
   0.3124067662321088    0.0613724152712042    0.3138934090387202 Cu
   0.5645771052052455    0.0638446646352974    0.5627815061797411 Cu
   0.0639198049451611    0.4384541952539959    0.9365351896427062 Cu
   0.5684607250679430    0.3117341161723796    0.3182009531857729 Cu
   0.8130515833533795    0.0594998070326724    0.8148001022766996 Cu
   0.4355580430090544    0.6897678769863027    0.3117836830181533 Cu
   0.8131823590359913    0.1859224065985083    0.9418812584825640 Cu
   0.5666012596578861    0.4366503301527201    0.4376984862851467 Cu
   0.0645755173517376    0.3105904702984839    0.3088216898205609 Cu
   0.9379705722359044    0.4408884509171322    0.5592061423833428 Cu
   0.5595209812735847    0.6881037307180404    0.1874985707321958 Cu
   0.1229693619459601    0.3795725192391177    0.1295622403681044 Cu
   0.8107771894382861    0.5654264215279079    0.8119531477720547 Cu
   0.8766499032177237    0.6228127429871128    0.6269947861553049 Cu
   0.6880693604478878    0.1902741567505861    0.5633472509355425 Cu
   0.2480848016080880    0.2506574732274333    0.2544867111857435 Cu
   0.2405038768423377    0.5071829208171507    0.4940921320998431 Cu
   0.1251594287902929    0.6257129190228513    0.8761954791376828 Cu
   0.5046507631554236    0.5122061758691629    0.7512264553326244 Cu
   0.7430769335705230    0.7423130023455714    0.7496970732571512 Cu
   0.1197883519596064    0.1214202644708075    0.8710376425231897 Cu
   0.6205686718401308    0.8771945970321818    0.6375726951318540 Cu
   0.4974945017782328    0.0051634154908952    0.2535935821557105 Cu
   0.3755457840957286    0.3765878107399548    0.8747374944744928 Cu
   0.0694612718336971    0.8105720085526481    0.3116593428057373 Fe
  -0.0035814495763701    0.0043358352124055    0.2495614455784369 Fe
   0.6806672407829046    0.4437066915984051    0.8120445418561443 Fe
   0.5578348462415950    0.8166092132850746    0.3096512112697508 Fe
   0.9350431324391706    0.3119838128181833    0.1792074279798802 Fe
   0.3178942686080166    0.1837666149014824    0.4365291793953175 Fe
   0.3122464723856265    0.1846719842952944    0.9360258961443151 Fe
   0.3103659812063491    0.8091105087488150    0.0665586513973608 Fe
   0.3057982090991234    0.6890621211312299    0.9376723019055466 Fe
   0.8103487431959983    0.1900390720016070    0.4343816104595390 Fe
   0.5070600675002459   -0.0036028962820482    0.7522364739253000 Fe
   0.1294995987183622    0.1276098842084394    0.3714968525816990 Fe
   0.4368514921744988    0.1861705866167494    0.8123816360415648 Fe
   0.8122668509812102    0.8113640597697748    0.5636537867095440 Fe
   0.0624426623567216    0.6879690129182217    0.6878284373715337 Fe
   0.4395658527146273    0.5649210278226535    0.9358933957447492 Fe
   0.6871960268023112    0.5607729123783185    0.1900146884648949 Fe
   0.4365542094797952    0.3145487652095048    0.6871721341096432 Fe
   0.4356522017029810    0.3115574336852405    0.1926639133132595 Fe
   0.1851271275534908    0.6848850790038101    0.5616095737060567 Fe
   0.3088765916686694    0.9356719742123686    0.6886000214820224 Fe
   0.8177228308168475    0.6834381275114731    0.4363109128789916 Fe
   0.8798651474206779    0.6192557167536327    0.1236038520547278 Fe
   0.8079001107744122    0.9404079759965889    0.6849910248494208 Fe
   0.1855209655456154    0.1907000689736018    0.0625967314807625 Fe
   0.7578713148777539    0.5007001253905076    0.4996577998801515 Fe
   0.4419754104038158    0.0611200190947270    0.9373019578298762 Fe
   0.4955294301316119    0.2526653523530212    0.4975103133903974 Li
   0.0666363992756221    0.3101051865621745    0.8129220125327818 Li
   0.4398209035318724    0.0660693425283533    0.4354868546674422 Li
   0.7536085362691545    0.2527093531772024    0.2501131230068705 Li
   0.3742095528901238    0.8790555049282394    0.3725082262267781 Li
   0.5592413041901423    0.8157368451045039    0.8140811726601285 Li
   0.4398109863147289    0.1794247551600572    0.3206066211017138 Li
   0.2516527127751999    0.7541188607424756    0.2501119464406369 Li
   0.5731931426667407    0.9451285465029710    0.9330964939625864 Li
   0.6885691906587621    0.3134679264926256    0.4367129501222579 Li
   0.8120032607765755    0.0704535208049602    0.3094662999037283 Li
   0.1897414483541003    0.5622867604826673    0.1886856576551270 Li
   0.6899724008754730    0.0654020367784127    0.1913285018258652 Li
   0.6887012491907836    0.0644869634827225    0.6902525913199427 Li
   0.1891036115646657    0.6875218894010535    0.0586739512801953 Li
   0.8068295842612845    0.8074432721615261    0.0622890205336627 Li
   0.0546498315949731    0.5639759490806499    0.5546207020704930 Li
   0.6906854180836323    0.8110607583455640    0.9431282951401425 Li
   0.5672875909804578    0.0614350777206822    0.0612980065374331 Li
   0.9408156048457497    0.5584957351824894    0.9371079405245858 Li
   0.1209165190791046    0.3767530021733761    0.6222898644009279 Li
   0.6851988007283736    0.9390160187854034    0.8109589793930334 Li
   0.8107350974223503    0.3143056210326037    0.0653829133210012 Li
   0.0002107856585914    0.4976086795818919    0.2498156890815112 Li
   0.1791695606927222    0.8088240688885877    0.9357756117883413 Li
   0.9391302710440789    0.5591078539877097    0.4361785050289486 Li
   0.5596521867974943    0.5633183154683099    0.5578559175095559 Li
   0.4380343702850815    0.9362283228782163    0.0638434483076201 Mn
   0.4372507487209676    0.4383671926679023    0.0623653145080984 Mn
   0.0651763185383914    0.9405535171832273    0.4335794971034495 Mn
   0.6303972897003818    0.1213786608716595    0.8774410927224400 Mn
   0.9363458432916572    0.9362528501313985    0.0589035054098939 Mn
   0.8756478408634418    0.3681100376404868    0.3699727499143612 Mn
   0.1836401346395134    0.0612559619542311    0.6917972008731933 Mn
   0.1882260733138926    0.3140559243640424    0.9341787544297649 Mn
   0.6840443297808179    0.5616852996170326    0.6853521420633829 Mn
   0.3084472132110120    0.4383220939930650    0.6867448890048936 Mn
   0.8085460324599667    0.9413829609839137    0.1890573051293334 Mn
   0.0631774867732369    0.0611860319693237    0.0604401729404792 Mn
   0.5611446386323913    0.5617661227130993    0.0659233499292904 Mn
   0.7547766823553208    0.5071799729688977   -0.0015577078727721 Mn
   0.7483343939494760    0.0072207002227131    0.5004877596845144 Mn
   0.7492546216649475   -0.0019971889922972    0.0033243488433485 Mn
   0.6924265870503724    0.4361079074004601    0.3158273466019909 Mn
   0.0586459103592048    0.4400428721929590    0.4381848319537970 Mn
   0.4371178411262923    0.8106448220619364    0.6878136850984486 Mn
   0.6863332369565799    0.8127750576833829    0.4361637404688291 Mn
   0.3073770955425092    0.3142478163430055    0.5635741525153206 Mn
   0.3765842720953168    0.1234226592813236    0.6186657085548959 Mn
   0.7489938283704803    0.7514031590930551    0.2466426786347604 Mn
   0.6226823421399228    0.8763927120148335    0.1207179363308302 Mn
   0.9359746764084129    0.1846919820557472    0.8193796914781050 Mn
   0.5662551305688484    0.1870219989913492    0.6860896429964911 Mn
   0.6873344750209186    0.3161109327491021    0.9391976135844763 Mn
   0.1228809160738205    0.8741055076079994    0.6256970042189994 Ni
   0.5000459543656931    0.7489286653988547    0.0007064148241800 Ni
   0.6265840600816290    0.3707588781422142    0.1298800903473889 Ni
   0.5596930323056236    0.6850008254005900    0.6830564445368357 Ni
   0.0595622842304946    0.1878300506697428    0.6951903349123865 Ni
   0.6884336465240728    0.6876151433244113    0.0635100440893030 Ni
   0.0022618807045265    0.2523147930552341   -0.0042867649073273 Ni
   0.6205779040505786    0.6215661886746821    0.3728084522662908 Ni
   0.9363911787291720    0.4348876935404583    0.0614763568659554 Ni
   0.1273232848694141    0.6196024014853906    0.3742791097813542 Ni
   0.6889041677344023    0.1894884912078909    0.0649436762235941 Ni
   0.8167228130743852    0.4349300140908660    0.1858443193948768 Ni
   0.1846637214986127    0.1897826177571359    0.5649565199069291 Ni
   0.1840885667198019    0.4360389766461699    0.3132813216258110 Ni
   0.1907596162021418    0.8147749672584976    0.4364966174869122 Ni
   0.2481186483439108   -0.0044332482443376   -0.0032108491578316 Ni
   0.8719302810643318    0.1255015389436740    0.1258777159860354 Ni
   0.3737420741939333    0.6242029652575468    0.6222982528940776 Ni
   0.1843582507518406    0.3128345088594918    0.4406449140009680 Ni
   0.7537860130893548    0.2505442008449651    0.7503346665366580 Ni
   0.9397239682189285    0.6870049640073582    0.8128934817672356 Ni
   0.4389748155654815    0.5649436894309509    0.4384375196763223 Ni
   0.9390053739132995    0.0666616151069515    0.4353568835421536 Ni
   0.2440469288639867    0.7501702602252335    0.7538190768573931 Ni
   0.5622550311809233    0.4402071189532609    0.9380185338657125 Ni
   0.3095338620940065    0.0605796569659432    0.8140161366519808 Ni
   0.4363943919182817    0.6873165248518875    0.8123109585784812 Ni
   0.3136610879760907    0.6800407240739362    0.8177316746318908 O
   0.3176763130020273    0.6815336611173335    0.3170061448352887 O
   0.3179819021531472    0.1845469543849739    0.8164214703573746 O
   0.3083840200903927    0.1751893791720286    0.3168527737474564 O
   0.8215340973415114    0.5711732936720638    0.9251787432543769 O
   0.8218133222544602    0.0489161504064418    0.9439038707001474 O
   0.8151260304317045    0.5659005969149020    0.4274811297796404 O
   0.3158006064835682    0.5711086655409838    0.4331818957998125 O
   0.8201947706840693    0.0726895894373895    0.4391673563443531 O
   0.3131662453956847    0.5624158602487268    0.9345025860826974 O
   0.8313805655176233    0.1926668802170665    0.3197624107708575 O
   0.3179717650383924    0.0674858855207237    0.9348851997166211 O
   0.8191466064977778    0.1797962098930022    0.8257563515288191 O
   0.9474770705963540    0.9411586095601313    0.4365741684947863 O
   0.8187095733089882    0.6799099532490450    0.8224570378895653 O
   0.4300942082138541    0.4358864587831585    0.4424641874656918 O
   0.4408262780298118    0.4428310221378204    0.9475754641826589 O
   0.4514564221929283    0.9356490764248979    0.4445410365256391 O
   0.4331636943568009    0.9363397130842194    0.9431275927880357 O
   0.9441388475692907    0.4359003588935013    0.4359521634321344 O
   0.9285541106477018    0.4332105689948620    0.9312350957066450 O
   0.3080398602158027    0.0643634729419232    0.4475612179109248 O
   0.9488117766389309    0.9447270687613075    0.9466097257192925 O
   0.4233424484767785    0.0604113141966382    0.3130171391016515 O
   0.4347185680167709    0.0641488271822186    0.8154287392581709 O
   0.4322496696188897    0.5684444111851118    0.3158964074787182 O
   0.4281317872393068    0.5615597108386692    0.8190094549474631 O
   0.9393318508456814    0.0725347289150018    0.3132893627030919 O
   0.8185674593926379    0.6788809019464639    0.3158972012445027 O
   0.8194426191471563    0.9445579203364103    0.8033562662204240 O
   0.8095466600013507    0.5618861236368707    0.1947750108789648 O
   0.8092527959123045    0.4415431526067645    0.8092423811868822 O
   0.9329450222445195    0.0684923252970024    0.8254828664243647 O
   0.1810602774506674    0.1758851595934914    0.6884390982270675 O
   0.1743584069467220    0.6931271315811877    0.1799475493511145 O
   0.1826431647979955    0.6753359233029411    0.6851672655771580 O
   0.6765260075926620    0.1872133033190904    0.1852360999758178 O
   0.6789958429212736    0.1893677892401263    0.6831521862407700 O
   0.6760784382126721    0.6791600650752875    0.1868489957858046 O
   0.6868397582914996    0.6759859043172308    0.6782066568888707 O
   0.1932819612593528    0.0555286208268943    0.3055107100152028 O
   0.1873953368581595    0.0518240903832984    0.8076156032228139 O
   0.1962250679133586    0.5547583201149507    0.3101085829860687 O
   0.1907215525400206    0.5515118265100764    0.8031021283077637 O
   0.6882189877858520    0.0532095237686814    0.3167216055730466 O
   0.8052820294448304    0.9376747852629477    0.3064623757672768 O
   0.6992754933457607    0.0619383745142188    0.8155433651386785 O
   0.6825066860972421    0.5597607439183049    0.8001168598126379 O
   0.3068927033486575    0.0544906977233147    0.1769343063513970 O
   0.3004018570760794    0.0548054837433866    0.6918320872337342 O
   0.3120458850490838    0.5525871110685004    0.1951802345481203 O
   0.3033880329960758    0.5530693196627702    0.6913859616154683 O
   0.8107714390456193    0.0518925916195982    0.1907917265630078 O
   0.8146796980710468    0.0609778626372875    0.6883520864983016 O
   0.8030689892307673    0.5545207448467296    0.6960020617479266 O
   0.3120762649836942    0.4384240786214961    0.3258279213538163 O
   0.3042526779857290    0.4401664940672967    0.8021623891470343 O
   0.3019079417544239    0.9464088616400740    0.3003081374198676 O
   0.3041648706314218    0.9329654509356520    0.8140855987587501 O
   0.8072495008907362    0.4467023999208644    0.3091377664173685 O
   0.6975255130823284    0.5558682461147604    0.3094024629792123 O
   0.9244213074354862    0.5684760543879811    0.3096640774171199 O
   0.4333771917589810    0.8206822399942869    0.0711118107422811 O
   0.1746722964366677    0.4324664317580477    0.4370847795683782 O
   0.3213090122547793    0.8237717023216568    0.1843251680576353 O
   0.3183549567305261    0.8170481916818205    0.6837664232026464 O
   0.8250662778925284    0.3152765931108367    0.1855449505990472 O
   0.8243109426208186    0.3210880232502680    0.6807846625477501 O
   0.8211511112954872    0.8236555783866188    0.1846261877098869 O
   0.8171130998280215    0.8171631744841921    0.6807815703185858 O
   0.3185482728530094    0.4357517902753492    0.0532388568819641 O
   0.3128370769855857    0.4317401842820761    0.5711333120461776 O
   0.3200292951180178    0.9327735705416137    0.0701973592863760 O
   0.3174230409273885    0.9342260030404803    0.5680349952572118 O
   0.8169146721025927    0.4413454063854622    0.0668193196601043 O
   0.8220572530184722    0.4298544973088262    0.5681992346990123 O
   0.8096539913129173    0.9384534967881170    0.0709220772646321 O
   0.3121667782656135    0.3207950531607894    0.6806318709618580 O
   0.8202442659065169    0.9330795877388042    0.5617547169532320 O
   0.4470643312465425    0.1941607945706804    0.6916458241330774 O
   0.4414872811712727    0.7007518351328458    0.1898039867429399 O
   0.4369484527615250    0.6980562792003522    0.6911109782144967 O
   0.9473595262884155    0.1888827331509333    0.1949666060815249 O
   0.9352172715948242    0.1901616122431070    0.7035955499606555 O
   0.9436047895337759    0.6931462152053426    0.1890331571587994 O
   0.9427314500286786    0.6924776319168334    0.6911608144700468 O
   0.4326625238615461    0.3227877292274140    0.0675688525224700 O
   0.4245460325287859    0.3195283428221088    0.5696812331629778 O
   0.4328958666768929    0.8165487071291860    0.5725769873363130 O
   0.9344250415637381    0.3153098919599240    0.0619946250928731 O
   0.9332037479469386    0.3134584251221024    0.5656375268859655 O
   0.1780440861199185    0.1821972035113052    0.1811504735986436 O
   0.4409433243396684    0.1937704928294964    0.1878712358167020 O
   0.3150404198696910    0.3212849297453571    0.1818757267050765 O
   0.8076169694094354    0.6919854710785619    0.5549105743025463 O
   0.8132067580479363    0.6802662050211623    0.0558987208524012 O
   0.1992140101730668    0.4328693914538919    0.9269608089616321 O
   0.1802979126647286    0.9392864713502388    0.4268793772366588 O
   0.1737364918843311    0.9357087584778235    0.9270921104759057 O
   0.6939446641842751    0.4382385253710942    0.4318441223510259 O
   0.6837600113060160    0.4324084689754822    0.9319180059936226 O
   0.6846264798131035    0.9293562509974030    0.4299904665472522 O
   0.6941456142177436    0.9362424790676408    0.9460021168482674 O
   0.1930428011401845    0.3099258876685043    0.0516843646091414 O
   0.1958458660542950    0.3099628410313024    0.5605373365099886 O
   0.1940374484109181    0.8189581616193865    0.0579456980493339 O
   0.1926702426940542    0.8083128658434694    0.5611622771224885 O
   0.6892914194076906    0.3118299212720598    0.0505255153139931 O
   0.6984807073031991    0.3147844591194172    0.5682351078422672 O
   0.6865960131786966    0.8072030494235293    0.0673234041439752 O
   0.6916344901211913    0.8066162729297703    0.5511340562657144 O
   0.3095325766599888    0.3130005682180979    0.4450896681238770 O
   0.3055268818370127    0.3064061619290483    0.9417973973316577 O
   0.3097294709393024    0.8084638682575984    0.4448137361186366 O
   0.3164547230170651    0.8125910281001435    0.9384928202669859 O
   0.8129945221657162    0.3076460279038593    0.4530045749474650 O
   0.8048833242897780    0.3226046221076511    0.9346371445547397 O
   0.8047438737333217    0.8098590693954215    0.4370919239501095 O
   0.8215837204348210    0.7934226071958292    0.9445606767642755 O
   0.3092958340542543    0.1921512037600107    0.0612078752899433 O
   0.3057862050519106    0.2004834700610763    0.5592608491602484 O
   0.3107555361970489    0.6935386671547485    0.0570873538563718 O
   0.3068939888498799    0.6937488698402200    0.5565626603043857 O
   0.8088163056538962    0.1893351302327313    0.0532452329103532 O
   0.8116257643278231    0.1971813304005839    0.5621903776850653 O
   0.9513933515137535    0.5603694425288208    0.8091157589623647 O
   0.7281642504421695    0.8209574270071653    0.8238820238419826 O
   0.5605576795567313    0.9409857928093598    0.5579826504740049 O
   0.6834688231803634    0.3206573478097273    0.8188189294192765 O
   0.0662330661785334    0.0672476522506191    0.1818419252917849 O
   0.0691534202658027    0.0644755464671440    0.6894353063219109 O
   0.0654473869703454    0.5746449424994845    0.1761711866541826 O
   0.0703858023532876    0.5616536866088461    0.6917898269855194 O
   0.5598186144605364    0.0751084292253487    0.1882413823624377 O
   0.5642642483648779    0.0727574428577546    0.6862382305715948 O
   0.5644698277087885    0.5587488560441892    0.1810701654373840 O
   0.5714114085404741    0.5634002564918730    0.6778393003808828 O
   0.0647341748885302    0.1779592763047439    0.0677712259049836 O
   0.0570694113886137    0.1886275267770213    0.5640127679917643 O
   0.0588221108127355    0.6867494209024851    0.0621291548000659 O
   0.0672015462624736    0.6866337470846803    0.5697816783380391 O
   0.5668767082090603    0.1876146568687494    0.0738098113020632 O
   0.9421252334890976    0.8170932258901956    0.0640932184232199 O
   0.5672831942708453    0.1864739353501804    0.5735729166158081 O
   0.5695945010194832    0.6846335215860547    0.5622444818902099 O
   0.1971078896359347    0.4363614754593361    0.1919420657181105 O
   0.1933423154563582    0.4440077284527523    0.6948201627206072 O
   0.1940380070512691    0.9406904243347181    0.1917652274127674 O
   0.1886635223545974    0.9438528768527306    0.6976426452184756 O
   0.6919108786295625    0.4415060174452344    0.1992789280668869 O
   0.6818632467929339    0.4428194603610160    0.6889780703431592 O
   0.6952784834103242    0.9371665176191336    0.1979895221716310 O
   0.6959268868500139    0.9429747483220672    0.6803605526829422 O
   0.1788874053113133    0.0677264333960995    0.0645258108242786 O
   0.1792887162947883    0.0642508697141317    0.5749904876505545 O
   0.1863955465306478    0.5570165212773703    0.0575863654398899 O
   0.1870560177746994    0.5658302071603643    0.5745429990304026 O
   0.5617455776308903    0.6756865537152698    0.0725675556461794 O
   0.6902618472856018    0.0626585000150849    0.0571173470246528 O
   0.5503792413958730    0.9353699268357697    0.0584131049500200 O
   0.5524139548274647    0.4441350312528509    0.0623595952468893 O
   0.4242163000150687    0.1850963996255116    0.4377879772210875 O
   0.4333146665881391    0.1835404286492235    0.9336204533895188 O
   0.4335637946521327    0.6883163759717685    0.4318287995268775 O
   0.4276023634684045    0.6812736020113568    0.9352387458227437 O
   0.9428057935813818    0.1921607733410014    0.4316590484633424 O
   0.9303271251961339    0.1745727145233137    0.9356799907217018 O
   0.9340450803444548    0.6898195350431326    0.4283122212110707 O
   0.9374179320103457    0.6868254027033959    0.9382575995879836 O
   0.4366368062737819    0.0525469615488257    0.0582710997737952 O
   0.4497848313850683    0.0530782484563696    0.5609710689842302 O
   0.4434426663636677    0.5544902538524926    0.0608811710247715 O
   0.4381149467595318    0.5538213697343498    0.5570680356557226 O
   0.9472718620168127    0.0558599263098946    0.0564300977679672 O
   0.5546867560537283    0.4312219575840489    0.5569382653033375 O
   0.9441918790845718    0.0598603827068068    0.5598615785278248 O
   0.9302302515385922    0.5537098941814682    0.5611277296214969 O
   0.0639963297419071    0.0571641355486494    0.4351071840791914 O
   0.0550399293574165    0.0528750310510032    0.9437560286947176 O
   0.0585678397748767    0.5501366052387773    0.4336735551548633 O
   0.0642657460712698    0.5507861422174637    0.9397658674337837 O
   0.5659777895797218    0.0573973458305791    0.4415794292803966 O
   0.5560462502786332    0.0643111449024779    0.9381383223996408 O
   0.5575849039121173    0.5485880716268926    0.4385172166132916 O
   0.5592344651576603    0.5662309529281260    0.9492659401729557 O
   0.0606378287888206    0.4426570211934958    0.0513096063383188 O
   0.0496354339024632    0.4425932798137154    0.5514136494635220 O
   0.0670321870461709    0.9423878674560607    0.0574485259010088 O
   0.0601909194655588    0.9422532759089629    0.5483567572037660 O
   0.9450122925329664    0.5560653988367406    0.0584317878092964 O
   0.6797667273103465    0.0716324388958513    0.5635899268857285 O
   0.6750888015158165    0.5618874978186379    0.0705284520196250 O
   0.6909693647340173    0.5645080746141780    0.5681374192640319 O
   0.0750495577281843    0.3246407204947818    0.9351569352248805 O
   0.0663543230602952    0.8250900824457660    0.4297748032616382 O
   0.0547323549810296    0.8174528188801415    0.9341781240610126 O
   0.5671146631844302    0.3252179061145652    0.4307022686999457 O
   0.5723409463896371    0.3147559887882149    0.9318503471459675 O
   0.5710767923613745    0.8187367641647865    0.4326378684355876 O
   0.5796166527928112    0.7688574154273728    0.9244191902397902 O
   0.0634707917860916    0.4232757614305537    0.3224366568668379 O
   0.0719233497497072    0.4399765502832660    0.8159281534615446 O
   0.0688248631003517    0.9382011118124347    0.3140910206745186 O
   0.0655233794914229    0.9291523881134141    0.8233508589758090 O
   0.5734516530256171    0.4352667629959718    0.3202765495697187 O
   0.5634913625115056    0.4327345173768887    0.8157512466402177 O
   0.0600378268553998    0.3144562169639391    0.4498749186055382 O
   0.5714227645876634    0.9368087291692261    0.3181036489925346 O
   0.1922387681789462    0.1897741844527213    0.4407725383759541 O
   0.1896400732117337    0.1979714323034580    0.9400074612512305 O
   0.1927179091133912    0.6914801134617823    0.4417319086793795 O
   0.1944370954887317    0.6896901433465361    0.9364514576131185 O
   0.6920052079490143    0.1892493341297702    0.4426150296116674 O
   0.6978550796374547    0.1995387412391040    0.9378805251307538 O
   0.6916314569216403    0.6967457006328155    0.4378043219885104 O
   0.7056646788815950    0.6780289210141125    0.9439089127451951 O
   0.1771851437423124    0.3136677708090946    0.3179294165574956 O
   0.1867043184388102    0.3226351388501381    0.8203371271929567 O
   0.1839988027323152    0.8271276200960592    0.3127896583885764 O
   0.1718444913162885    0.8232457971002749    0.8144301174743034 O
   0.6879809594312672    0.3260007216606989    0.3160873177070986 O
   0.5668656163709821    0.9330429866018604    0.8146887341058386 O
   0.5561986240843807    0.6822683049961278    0.8016060006810032 O
   0.5565700608787371    0.6952376697496532    0.3035392958060023 O
   0.5604507531266940    0.1932454584580430    0.8043163345886303 O
   0.4278111184036161    0.4334929286298076    0.1799230169946454 O
   0.4251141790929086    0.4349028231498919    0.6833272244543049 O
   0.4281773879603201    0.9330555070394939    0.1798574904250745 O
   0.4328153216752930    0.9305573772296429    0.6850805577875824 O
   0.9373648063586159    0.4277731760842431    0.1815110131910977 O
   0.9509939366737610    0.4380181046374565    0.6975311660082972 O
   0.9311260649422061    0.9350924294269211    0.1797668559980849 O
   0.9340219967799582    0.9331470928754363    0.6789889902353650 O
   0.4340150651017168    0.3187887202252941    0.3138414105739511 O
   0.4432795736120294    0.3080464779567699    0.8065272378816587 O
   0.4404491627646183    0.8115242652910917    0.2999387837848214 O
   0.4320341781758513    0.8148154125141379    0.8075724933583703 O
   0.9509538278563822    0.3011751645880186    0.3034523281509635 O
   0.9290157160343878    0.3051446290884552    0.8196942661874709 O
   0.9437867229527268    0.8106407708026692    0.3052642639839445 O
   0.9391218673848623    0.8099418015038499    0.8082751882792572 O
   0.0569041950695882    0.2985044990400463    0.1768654562695559 O
   0.0509350986636137    0.3074186341045523    0.6932145378439365 O
   0.0586815347778948    0.8114078289995840    0.1891704969216949 O
   0.0560975427839544    0.8096089708037750    0.6998820789402185 O
   0.5548851643348415    0.3054695388171975    0.2010053073993236 O
   0.5595376726983388    0.3086944288380987    0.6891865544826408 O
   0.5515858407048531    0.8195740608079297    0.1896894894902105 O
   0.5498716770564951    0.8062209752598691    0.6877405813984255 O
   0.0599674986005429    0.1920447714448099    0.3021668735634672 O
   0.0475613557671092    0.1904648430158875    0.8173433631426889 O
   0.0596234996138827    0.6915806683480485    0.3011877598650974 O
   0.0609410028437644    0.6995324146600461    0.8103570517533271 O
   0.5646333581905866    0.1899846607226576    0.3098258479271874 O
   0.6812561193760973    0.8230308864100689    0.3197526810912640 O
   0.9336576715932172    0.8189185970843319    0.5656561910730641 O
