Mg13 Zn12 Fe141 Co13 Ni13 O256
1.0
  17.0282517631755930    0.0004684101186759    0.0004342747803812
   0.0004684099211435   17.0282398440800229    0.0001506591108403
   0.0004342725377793    0.0001506554189415   17.0283430919249739
Co Fe Mg Ni O Zn
13 141 13 13 256 12
direct
   0.7502741229691978    0.2506568859035659    0.4998343477396093 Co
   0.6256131608531199    0.1255903460738956    0.1243930333200070 Co
  -0.0010247023317443    0.5004567015257866    0.4997352207228644 Co
   0.5003217387279091    0.5006100288383294    0.0004365178983646 Co
   0.4996134293460058    0.7498665405170724    0.7503713613344712 Co
   0.2497711862693175   -0.0004429584230996    0.7501765476489944 Co
   0.0001222768721229   -0.0007109220409742    0.4999811050689436 Co
  -0.0004541752523970    0.7496958919204794    0.2509078300366236 Co
   0.3743152649187232    0.8745639081154628    0.1244773228056495 Co
  -0.0001711778916319    0.7500367472204839    0.7496612447861368 Co
   0.3746533276685268    0.6247678766625134    0.8748610471473017 Co
   0.3740203692934030    0.6244788003435295    0.3749918803251964 Co
   0.7504155292103071    0.0002259324598091    0.7498659972607719 Co
   0.8128616250361127    0.8131059495237662    0.3118529241219450 Fe
   0.8126037864689253    0.8137340680962997    0.8128410593255503 Fe
   0.8127925290148819    0.3112649695918364    0.3122592035978682 Fe
   0.3125276915040396    0.8125045184270324    0.8119885945485116 Fe
   0.1861389975115112    0.3140917919299951    0.1876765188739165 Fe
   0.3108644652537990    0.8111463901628457    0.3126886575084120 Fe
   0.3132627274415914    0.3127987401531898    0.8135235751845379 Fe
   0.1857368858418504    0.3138504630066302    0.6861499979876451 Fe
   0.1872586713414178    0.8118293290987105    0.1878792195242557 Fe
   0.3116853410104791    0.3122168753622422    0.3132711588551528 Fe
   0.8115543679942661    0.3117606681750232    0.8121211854555722 Fe
   0.9386947911947691    0.4373966976226275    0.3123397870326953 Fe
   0.1878018621009636    0.8122770275013853    0.6874811092300711 Fe
   0.6879319594011074    0.0625302273370618    0.9379013348203629 Fe
   0.6880412121229853    0.5613758418048969    0.4386507997353451 Fe
   0.6863064371079837    0.5624903847858903    0.9372269371490201 Fe
   0.1862286897571747    0.4363380695188253    0.0639247482453743 Fe
   0.1867257528489714    0.4375951420329277    0.5622515767508796 Fe
   0.1872864498728338    0.9365185162671633    0.0611297542883915 Fe
   0.1872889796023605    0.9361212748605332    0.5625678773993579 Fe
   0.6878117730146812    0.4377614999589010    0.0612210353476570 Fe
   0.6877435912849209    0.4379646845387177    0.5624795061199211 Fe
   0.6877603558548125    0.9375507028567813    0.0625229595711295 Fe
   0.6874051389347489    0.9371638696973996    0.5627106658654270 Fe
   0.3125655419221755    0.4371095982912709    0.4363510396250507 Fe
   0.3134792187113930    0.4374915619780518    0.9365746874056992 Fe
   0.3121055360145406    0.9377227403673428    0.4389512204568577 Fe
   0.3130586126651437    0.9374120628318384    0.9367701415153473 Fe
   0.8128130566698570    0.4370069967711026    0.4385833065724354 Fe
   0.8120827275571481    0.4359244566047800    0.9375396564357052 Fe
   0.8122234020784403    0.9379871960060117    0.9379796682688702 Fe
   0.8122295900469961    0.9390416707547647    0.4376801437786347 Fe
   0.6878836082775881    0.8119020837734083    0.6887209227007430 Fe
   0.6876209338598913    0.3135119214970575    0.6878133413117107 Fe
   0.0619184021371358    0.0623893378196257    0.8135611084755792 Fe
   0.0627731372235724    0.5623799390547803    0.3139100576660494 Fe
   0.0634312385255433    0.5631271355229633    0.8128579048700092 Fe
   0.5629555289128403    0.0615146027687972    0.3123897452108125 Fe
   0.5629234795154104    0.0625887898774398    0.8140033694863321 Fe
   0.5614534197981994    0.5614057522554917    0.3123664606779827 Fe
   0.5622471195629418    0.5621694892189035    0.8120580033586576 Fe
   0.4389161502836667    0.0609690463993837    0.1879142757076508 Fe
   0.4370112968926640    0.0618463637764377    0.6877885680494046 Fe
   0.4373548586054041    0.5629130750092823    0.1871176127772831 Fe
   0.4375106194175024    0.5639085874323460    0.6874660548971337 Fe
   0.9359128354673447    0.0627750992742663    0.1870820500920601 Fe
   0.9362777512622912    0.0625595854903817    0.6872866253199145 Fe
   0.9374283801885323    0.5621948194437779    0.1874712341506426 Fe
   0.9372785431441950    0.5625280981135586    0.6865041841801721 Fe
   0.0606578409459781    0.0621896954277375    0.3133339157240091 Fe
   0.6893859688679457    0.3115649693919084    0.1880238534980725 Fe
   0.5624314991667660    0.6880033191053381    0.9373842620601711 Fe
   0.5625665548058677    0.1872170454760617    0.9374872349067923 Fe
   0.6885428857977204    0.8127226044361616    0.1871743386146398 Fe
   0.6873187642291968    0.0627936684846179    0.4364539720822512 Fe
   0.1874706405287539    0.1882241959906457    0.3133160790483742 Fe
   0.1870799069191792    0.1867406004170229    0.8135724923775564 Fe
   0.1871132454613261    0.6866672006267639    0.3141279042681352 Fe
   0.1879359836768703    0.6878360870292661    0.8121212667866813 Fe
   0.6890524256953944    0.1878636600434523    0.3125461566692241 Fe
   0.6876183170830077    0.1875088149540240    0.8136176356721179 Fe
   0.6886062063638240    0.6888308271931322    0.3113051416511507 Fe
   0.6866778520438194    0.6872628740623102    0.8125256594077647 Fe
   0.0625644938708983    0.1879121998487615    0.4365122512364484 Fe
   0.0623681287872576    0.1865902379790438    0.9362014004485895 Fe
   0.0628371196448288    0.6872947979558728    0.4377558095519342 Fe
   0.0636017703427854    0.6874279698239077    0.9363948603721671 Fe
   0.5625225671531265    0.1876892937896417    0.4379531476922257 Fe
   0.5610612464710439    0.6877720589350346    0.4386302987463281 Fe
   0.1875365126477194    0.5632475707079991    0.9366719515981623 Fe
   0.8128421478153903    0.0626672736874243    0.0628757647947649 Fe
   0.1872377333834801    0.0628520062337234    0.9362135106646082 Fe
   0.0626710131765558    0.8135696962610885    0.0625167377105505 Fe
   0.0628685528578323    0.8123679335030637    0.5626853798972524 Fe
   0.5636521879411649    0.3127008524804303    0.0613846265785718 Fe
   0.5634125122732263    0.3143079840297129    0.5630099217600805 Fe
   0.5624925792558699    0.8126236759392483    0.0607222020061292 Fe
   0.3750675517741194    0.3751172785414059    0.6255826487448815 Fe
   0.3739825093048835    0.3755127667344832    0.1244202963831935 Fe
   0.5610923063495645    0.8119232645406145    0.5624721714918484 Fe
   0.4375895068657225    0.3119946326185522    0.4378848016252416 Fe
   0.4378809985178947    0.3122044632998830    0.9365477354470443 Fe
   0.4373452799372546    0.8123162441860986    0.4386077774893664 Fe
   0.4377498942984453    0.8129322726474334    0.9369032411910402 Fe
   0.9380198081877450    0.3123079495532342    0.4375488869165015 Fe
   0.9358690472140491    0.3120269810996902    0.9374738626481318 Fe
   0.6247676732641628    0.1251778671782766    0.6251961234368659 Fe
   0.9389441028294518    0.8129406442789248    0.4376939838966728 Fe
   0.1249180339839098    0.6243451775145535    0.1244179780409015 Fe
   0.1249007165805816    0.3748946387010080    0.8752031240419089 Fe
   0.9387534283971359    0.6876812582135768    0.5624926176874808 Fe
   0.9362793888675494    0.6874660000587854    0.0638097664607018 Fe
   0.9366542069220425    0.1877537158278395    0.5620803501903819 Fe
   0.9362266303095917    0.1872319293637552    0.0625287208362482 Fe
   0.4374302238740761    0.6876178970932888    0.5623172256686697 Fe
   0.0621718948231869    0.3135470949094910    0.5619737605596753 Fe
   0.4377975840000685    0.6881765358740285    0.0607393480632661 Fe
   0.4374198135650272    0.1863634595698728    0.0614399478470295 Fe
   0.5008981008025115    0.2497033997120289    0.2495061441254757 Fe
   0.9370715292487943    0.8140185504814121    0.9373953133855464 Fe
   0.5003389465600562    0.7500080103778864    0.2499849895990814 Fe
   0.1244276220143999    0.1259824771494720    0.1249443447910148 Fe
   0.1246285205543722    0.1251193005389328    0.6255463279560539 Fe
   0.4365236043516876    0.1860208783101466    0.5626357519063212 Fe
   0.0620686218901785    0.3136964869490688    0.0633112014182802 Fe
   0.5625905942955828    0.9360620444139383    0.6878903867012475 Fe
   0.5630208241673967    0.9380099840389424    0.1869476355530071 Fe
   0.3122180834849523    0.6880825382972636    0.6874326590999117 Fe
   0.8130177699203222    0.1872498608370054    0.1875273070982791 Fe
   0.8137575431798898    0.1878517635911377    0.6870922022876012 Fe
   0.8125674877933111    0.6883555244361208    0.1876471984833557 Fe
   0.8125082083594209    0.6874654965308781    0.6876940486587644 Fe
   0.3134328770251190    0.0626124071256044    0.0612824892981421 Fe
   0.3124449100826305    0.6877388805126214    0.1874778994185413 Fe
   0.3133695438496443    0.0620658781951738    0.5623201089747928 Fe
   0.3128147111362724    0.5636828265412998    0.5624812083047068 Fe
   0.4377515385197850    0.4382356682980682    0.3134775496467916 Fe
   0.8136800389357042    0.0627619294192389    0.5622786439593274 Fe
   0.8123978593071068    0.5620773621396700    0.0620378780568913 Fe
   0.8123257172135910    0.5612944050846393    0.5623527395271950 Fe
   0.1874619684109547    0.0623994412111162    0.4375250718937500 Fe
   0.3136499247035603    0.5640337135253329    0.0627586296205618 Fe
   0.1879086700570511    0.5616960922806340    0.4377174470028933 Fe
   0.3133973884093543    0.1863933397506156    0.6870102311685453 Fe
   0.4388277537559617    0.9384899162340312    0.3124606137215520 Fe
   0.5632616782951491    0.4382752656776521    0.6878021148391295 Fe
   0.5627317104058702    0.4387035130406214    0.1875739235118897 Fe
   0.7505007350041483    0.7497109576411651    0.4994667917426025 Fe
   0.0625936724881797    0.9361271163052552    0.6875137903490692 Fe
   0.0609787838541917    0.9361027257166545    0.1875036698351488 Fe
   0.0618348509341573    0.4377165425469093    0.6865627611669212 Fe
   0.3124395050271156    0.1873207730839436    0.1879406599679213 Fe
   0.0619518828804916    0.4367224030619963    0.1879137682980891 Fe
   0.8754409373018663    0.6246327439780176    0.8753515343323122 Fe
   0.2500258504886688   -0.0009626729184772    0.2501596307203021 Fe
   0.9367510007750767    0.9376223278539643    0.3125321309614524 Fe
   0.9357173564028158    0.4356971101958906    0.8129217109236244 Fe
   0.4379888378242029    0.9378333828277382    0.8127170771200221 Fe
   0.7502546323679832    0.5000042207887742    0.2503220082221038 Fe
   0.9372133808047047    0.9378664573495653    0.8126986960436826 Fe
   0.4379284111501682    0.4379096840665728    0.8133572731730019 Fe
   0.1249773789138806    0.3753338733258353    0.3745067746176101 Mg
   0.7497080634271903   -0.0002924507829943    0.2496505221439801 Mg
   0.6247965621243208    0.3745614094793230    0.3758260439984631 Mg
   0.6249313503168142    0.3747786911546405    0.8744898609524482 Mg
   0.6250792758513114    0.8752867960587892    0.3754634960671521 Mg
   0.6258761171063465    0.8750938926468024    0.8746798885438870 Mg
   0.6247202305160696    0.6245461963915626    0.6258650543605344 Mg
  -0.0004193945941028   -0.0001145900721166    0.0000035501621995 Mg
   0.4999859416468939   -0.0000811664471917    0.0006092077573548 Mg
   0.2497695853286887    0.2498476300458027    0.4997646371874617 Mg
   0.3748399724112954    0.8753016706207519    0.6253191693289049 Mg
   0.8755819729234658    0.1252552293237980    0.3754125398582931 Mg
   0.3752791375897836    0.1251246458423967    0.3755296467130848 Mg
   0.1246430977844827    0.8749374389596978    0.3751242716319491 Ni
   0.2508017187929286    0.5006760619311201    0.2502155811445179 Ni
  -0.0006441494954734    0.2502210278686465    0.2501083433011603 Ni
  -0.0008672684234672    0.2498175878229160    0.7497521169897791 Ni
   0.6249601880591007    0.6250324396440698    0.1239912083872876 Ni
   0.8747420922630859    0.1255001936510198    0.8748269763101624 Ni
  -0.0007930547553932    0.4998161640510851    0.0002510035931917 Ni
   0.5005045064072771   -0.0008217813919468    0.4996627164054347 Ni
   0.7497526342521893    0.2497114550851960    0.0009107736888795 Ni
   0.8758358749266517    0.3746438981570847    0.1242011413862684 Ni
   0.8753897338040427    0.3746598906153936    0.6256142771686071 Ni
   0.4999826361355976    0.5007805218430470    0.4992686495154541 Ni
   0.2505310736514376    0.2498013462411771    0.0003294635239157 Ni
   0.0683367202787311    0.1826150083358517    0.8172784247687698 O
   0.0681650047327430    0.5674489525783620    0.4326134070881788 O
   0.0685367446878041    0.1816525216584686    0.3173737987122993 O
   0.5571576199680490    0.4418977222138952    0.8070595169219242 O
   0.5580866456234864    0.9422237597133868    0.3073804095469920 O
   0.0679025733945175    0.5677912201866609    0.9326338183890620 O
   0.5675406683683741    0.0686042131820393    0.4317728020256913 O
   0.5676926221637355    0.5677888613378743    0.9317623556961981 O
   0.5689885059127097    0.5688158873176984    0.4308678661693111 O
   0.5673239300682268    0.0673526370195477    0.9332840061646396 O
   0.0675765900252047    0.0672132448667713    0.9331423006574527 O
   0.0685050249028994    0.0679399924408506    0.4316910100491422 O
   0.5582126105831179    0.9428097105737773    0.8072554750393426 O
   0.0678187935829593    0.6815763636280556    0.3180284463268125 O
   0.4408502345164326    0.4401579969315284    0.1908041630114495 O
   0.5657596438656054    0.1844217373134522    0.3158904496492187 O
   0.5677132286135299    0.1823640653222367    0.8177084226978499 O
   0.5667158817538357    0.6841655835280793    0.3161762485878029 O
   0.5679798958791855    0.6820541361659987    0.8176702236620285 O
   0.5573821608027516    0.4418217419746642    0.3073202274024361 O
   0.4406647834513923    0.4404270020899418    0.6907202150102082 O
   0.4427839059517599    0.9425247840793680    0.1930805960301726 O
   0.4430025827833695    0.9428042805696982    0.6922640395828289 O
   0.9429561713694197    0.4433251563818003    0.1926398754909102 O
   0.9428152224702836    0.4434663175460961    0.6940176866987146 O
   0.9425506625270459    0.9430355689466714    0.1922555265851420 O
   0.9430221116103468    0.9432304119747563    0.6926516934170891 O
   0.1846158509470638    0.0660307638253337    0.3152575724542154 O
   0.1818657004813973    0.0682297789595222    0.8174927184451062 O
   0.0677721875368435    0.6818518112862018    0.8179413066276472 O
   0.0574332675255760    0.9431404190470311    0.8074237541857017 O
   0.9430496292806229    0.5572309130923185    0.3067090102644432 O
   0.0589540314469755    0.4408779285447767    0.8097685294392725 O
   0.4324088828493380    0.8186152599225660    0.8174233426669307 O
   0.9320638653311307    0.3183481468402415    0.3181941370180124 O
   0.9317592104587474    0.3174116509756253    0.8179614060668966 O
   0.9313474780860203    0.8181326466489067    0.3185112233243207 O
   0.9319483281493083    0.8179706261052860    0.8181787732175569 O
   0.1832135934577160    0.1821195590546480    0.4320417304370666 O
   0.1823776107179645    0.1825720684021518    0.9322208446076424 O
   0.1828286656150173    0.6816158855705158    0.4328323422023207 O
   0.1829011151379067    0.6824870089383752    0.9326935200959074 O
   0.6813580436907980    0.1825189231879291    0.4318791285433102 O
   0.6817329253703154    0.1827118673665064    0.9326137871741509 O
   0.6838258175538603    0.6842107314988433    0.4332020406063093 O
   0.6826885622967316    0.6822538479601830    0.9320145819758354 O
   0.4423669867319976    0.0579713450237728    0.3076343722505084 O
   0.0570521826118979    0.9433472563091906    0.3064814751288322 O
   0.4429841996670406    0.0581549351317173    0.8070552268322468 O
   0.4423743389153070    0.5564535585166112    0.8065614869736617 O
   0.9422392332377475    0.0576850517217026    0.3070798552113960 O
   0.9431542634564202    0.0575468238865211    0.8069682386351817 O
   0.1824848365535183    0.5672839507397311    0.3180386997913494 O
   0.9410721499736867    0.5587034793995399    0.8095676926206171 O
   0.0594067131234905    0.0590962248532273    0.1902895303484269 O
   0.0595226868664009    0.0591429092934533    0.6908580927421450 O
   0.0594688387098146    0.5594613319881971    0.1905182368506313 O
   0.0567880159560427    0.5570786371994163    0.6936972710791875 O
   0.5576083145944286    0.0573447568898074    0.1926837232678379 O
   0.5594401556008024    0.0590941711814006    0.6909809073727678 O
   0.5568224542834092    0.5571088141015448    0.1930145491372670 O
   0.5568547764983812    0.5571444443792268    0.6923548660517195 O
   0.0580078286000310    0.4428292698005672    0.3071475730540689 O
   0.4428343709517227    0.5565900043126039    0.3065531086775573 O
   0.1826619549373295    0.5673789792253681    0.8176893878414162 O
   0.4406708369166025    0.3093018931868617    0.0598144127931239 O
   0.6817145714579567    0.0677980269124082    0.8178258855905022 O
   0.0678461900522597    0.3177442440424390    0.1826060410026165 O
   0.0676002857693047    0.3180642464772189    0.6820984868041018 O
   0.0679889641644086    0.8177940858559835    0.1820375200954407 O
   0.0679882600044823    0.8174706126908959    0.6818551117031523 O
   0.5663620409919614    0.3167004131376936    0.1844816131777426 O
   0.5674346761777288    0.3181223235871665    0.6823244992487592 O
   0.5658988009946860    0.8156489716442117    0.1844980821847617 O
   0.5685366969289665    0.8170674655602761    0.6816749894477405 O
   0.0678110345887954    0.4326417756288454    0.0677872326340955 O
   0.0676474374027308    0.4326223182890719    0.5674671240472910 O
   0.0677976094623603    0.9328904925659653    0.0678425813996518 O
   0.0682022512886570    0.9320154017475185    0.5681695277316881 O
   0.5682106328283674    0.4318065416632609    0.0690560537826964 O
   0.5676465035328973    0.4329134788893141    0.5676254378392362 O
   0.5578641065475751    0.6922004171597920    0.5576764097432235 O
   0.5671369952014162    0.9319423472518992    0.0679655111668334 O
   0.4424575691658749    0.1928963901310966    0.4433289343485992 O
   0.4421253252371031    0.1927277522051893    0.9429937050679537 O
   0.6816726697414619    0.3182471810368608    0.5677697764624333 O
   0.6817652437639583    0.3185870894278089    0.0689749344439729 O
   0.1828868511097136    0.8173766932831309    0.5675289532515969 O
   0.1824715909207756    0.8177544698892113    0.0680463457061884 O
   0.1827267232605220    0.3175032990618981    0.5670585181887847 O
   0.1823392939136800    0.3176262887133963    0.0681885115593018 O
   0.9412087623762442    0.6908048455909434    0.9413563510279571 O
   0.9426545774315165    0.6928824761708419    0.4427720041928900 O
   0.9441200237836777    0.1926760947646027    0.9432892647357750 O
   0.9435470139743793    0.1921324020932655    0.4426245972063577 O
   0.4427394658513969    0.6930803955129298    0.9423407680184287 O
   0.4338469889130305    0.8159165206998202    0.3155470851868514 O
   0.5683800147975225    0.9310611728227529    0.5677077629887265 O
   0.6823419703679869    0.0677257788023643    0.3171469120083799 O
   0.5571010313652126    0.6932619848890700    0.0571655298386205 O
   0.5557947545621108    0.1936281810348921    0.0575784004722946 O
   0.6841489036066887    0.5665381172801562    0.3161367843518050 O
   0.6822528227570331    0.5675647808141771    0.8174866547123866 O
   0.1824258317510910    0.4327265944600391    0.1826310398314001 O
   0.1820814281728758    0.4327379944168045    0.6823289419461915 O
   0.1840000428760453    0.9341844329648034    0.1837885191532765 O
   0.1821109524044762    0.9319455788578650    0.6817927489818543 O
   0.6838143978129884    0.4342546287016587    0.1848199273045410 O
   0.6820927354122699    0.4330585137235112    0.6824612219458971 O
   0.6820518988209934    0.9316593492828945    0.1831216352961722 O
   0.6823050849915807    0.9311437720720005    0.6816379904543219 O
   0.4424677252441492    0.6930645748857007    0.4421758287520239 O
   0.4404541268757132    0.3083803333851430    0.5596947968509555 O
   0.4429274214417836    0.8075846238084956    0.0570274991990549 O
   0.4419506245713520    0.8077693477476341    0.5576837972605825 O
   0.5582968908911046    0.1917344736009227    0.5597203804638243 O
   0.9440429864867329    0.3065724480639260    0.0564043309220781 O
   0.9433337097777011    0.8063936199960750    0.0570824499557924 O
   0.9423595102407354    0.8074986761330479    0.5575675202578019 O
   0.0586317569853197    0.3073039045086148    0.4425831153461088 O
   0.0597022083411956    0.3089426534828242    0.9409325683197383 O
   0.0576466780131627    0.8072147791603838    0.4428488778810555 O
   0.0571174910267496    0.8067176749961811    0.9431788466439678 O
   0.5568363287531689    0.3070123755877462    0.4433737576123049 O
   0.5568825745195073    0.3080038789348069    0.9425249614700145 O
   0.5575154703068316    0.8073148752110679    0.4420764148267610 O
   0.5579438210963747    0.8082688825781571    0.9419090628936471 O
   0.0596279982272082    0.1911416361690077    0.0587146799709510 O
   0.0602188809021260    0.1908556674986363    0.5588255822845314 O
   0.0589761654979162    0.6907166171533882    0.0590583231878383 O
   0.0577038111220049    0.6920856387825051    0.5577132458538634 O
   0.9433813957567712    0.3071241116816664    0.5570817618115721 O
   0.4323618662392705    0.3175976247555535    0.8172243222524801 O
   0.8067386237121115    0.9428530971245209    0.5574267005409103 O
   0.6930202035767113    0.6918608218186442    0.6928812053477886 O
   0.6818734957144137    0.8175196400806317    0.0679784266140590 O
   0.3160319582574981    0.0659091961951480    0.1848470481221884 O
   0.3178924466046611    0.0677581217152989    0.6819321900408939 O
   0.3185241275910217    0.5683463937099317    0.1820812206430157 O
   0.3178484512432986    0.5676884914730000    0.6819974389354693 O
   0.8172028785773923    0.0672161442873394    0.1831430114751200 O
   0.8174135552357165    0.0682430415150627    0.6813887655135664 O
   0.8154657941842238    0.5658874284528977    0.1844398658923376 O
   0.8173343299606086    0.5685077053367453    0.6820776444587321 O
   0.3182243165046472    0.1817599229384532    0.0694695048456407 O
   0.3171561047951488    0.1826956751467796    0.5670998523784676 O
   0.3178765539128426    0.6832002405396359    0.0679218086627886 O
   0.8075840747511017    0.9425651980048716    0.0577980102058490 O
   0.3177045236503440    0.6826464656708880    0.5672275320926726 O
   0.8178206234835906    0.1820270727992957    0.5672571909642596 O
   0.8173815329081476    0.6818126905517564    0.0681811229428893 O
   0.8153113347115412    0.6841183987219095    0.5655955467299242 O
   0.1934281885641558    0.4411706556809689    0.4428044971080724 O
   0.1908626830715623    0.4407590596346288    0.9415219264541645 O
   0.1929809722059743    0.9434472001459419    0.4427748417049222 O
   0.1920830784531251    0.9433590204665350    0.9428920223453215 O
   0.6923293715696975    0.4424832732805200    0.4423043300896000 O
   0.4344424985304184    0.3148151151817042    0.3156426197717569 O
   0.6922201776588874    0.9430454255433753    0.4427945859094923 O
   0.6923406543645013    0.9425205009107321    0.9428094339450247 O
   0.4324055042254711    0.0673167859033047    0.0685255590876715 O
   0.8177474597488273    0.1822410572404152    0.0681629082769148 O
   0.8075262567088224    0.4425080339586865    0.5577306954246148 O
   0.8074711401187024    0.4432273269665955    0.0570645704524492 O
   0.3073250566558623    0.9429375021364825    0.5579651055735969 O
   0.4335932810828215    0.1836807452975320    0.1847260516425532 O
   0.4325311998398862    0.1823850190648077    0.6820740025150597 O
   0.4343418714249230    0.6847512727359825    0.1843692413894838 O
   0.4320737938732583    0.6825857190423402    0.6818311401158049 O
   0.9325932297926783    0.1818568148780502    0.1822425619474412 O
   0.9325005186893099    0.1819837949897898    0.6813461129433078 O
   0.9315272983653881    0.6814596458316681    0.1825592391313063 O
   0.9312402514733223    0.6817907619517664    0.6816789591175969 O
   0.1905009396625377    0.0595133506743213    0.0598013799917268 O
   0.1909476023752811    0.0598808186843086    0.5595526304773036 O
   0.1911970282538691    0.5583266067497268    0.0589004010616400 O
   0.1936015252015608    0.5566281545769318    0.5577306015035889 O
   0.6930116734959795    0.0568546931438786    0.0578193568687780 O
   0.6903042797312106    0.0593479614787069    0.5591113371432328 O
   0.6934471946098495    0.5572353670149918    0.0566817182829043 O
   0.6924557592557427    0.5582083962583113    0.5576532171926819 O
   0.3071224356884649    0.0579206228503990    0.4426708805581684 O
   0.3070744538926100    0.0580331236825809    0.9427188702052939 O
   0.3076200127120757    0.5556888840170260    0.4435717481829036 O
   0.3062308932955162    0.5560523101961150    0.9440530026501345 O
   0.8068075643900484    0.0583654553047301    0.4422827613003462 O
   0.8078174833061870    0.0574739305657299    0.9430419871764977 O
   0.8071776159523809    0.5576083952230698    0.4422411390965081 O
   0.8092444627716564    0.5590454882142927    0.9404820726202736 O
   0.3078948551375449    0.4414531407144016    0.0589477334955714 O
   0.3095283383326174    0.4398998923566956    0.5593473172414554 O
   0.3062716471119983    0.9440040099709009    0.0571974040035987 O
   0.4325374864274348    0.0672673371689490    0.5675837930598868 O
   0.4319489635638057    0.5684936129569345    0.0682946568506404 O
   0.6923351270405209    0.4427089531804911    0.9418926602360250 O
   0.9330914778668202    0.0674083907156750    0.0678491656703079 O
   0.8079446540585236    0.1919535531845050    0.3078146619726077 O
   0.8065054940512065    0.1923650845991226    0.8064458294476528 O
   0.8076654273629497    0.6927908577092665    0.3076219256103951 O
   0.8096256611303865    0.6904570393640300    0.8095844639895287 O
   0.4323393021064466    0.5678770195157755    0.5676905602696265 O
   0.3179076939389234    0.3178802974108120    0.9321997509713275 O
   0.3178855446965022    0.8181335424854622    0.4314838291573953 O
   0.3177766915842640    0.8181969755049100    0.9323211000110710 O
   0.8179187649352694    0.3180251146915317    0.4312676943133563 O
   0.8168182290632281    0.3173030099821057    0.9321889432525972 O
   0.8154462892035287    0.8162278588208202    0.4343411254414824 O
   0.8175918061191083    0.8175012135223174    0.9326817011488587 O
   0.3185291826054095    0.4310112098418086    0.3173338361935499 O
   0.3175436580084213    0.4322615956009968    0.8171862002680306 O
   0.3162785085326107    0.9338799307322001    0.3158398446860414 O
   0.3182633572420592    0.9322708070031976    0.8176856934354678 O
   0.8152693684932101    0.4343009235113990    0.3159480416050758 O
   0.8167245974706585    0.4321874323762298    0.8177544526044853 O
   0.8166655257658635    0.9326371333319222    0.3181244987162832 O
   0.8175721007646507    0.9321461496399097    0.8180860686441910 O
   0.1914325428432903    0.1911711293697295    0.1910707072564085 O
   0.1912801412933146    0.1921609964192590    0.6905865554831253 O
   0.1902687143457242    0.6901617694952450    0.1903905670295031 O
   0.1925360499799181    0.6922074070370720    0.6925783419040885 O
   0.6929596088978397    0.1929536916176214    0.1932907014919262 O
   0.6901504133380859    0.1909918278549514    0.6904235428995474 O
   0.6927101441180127    0.6927387201996948    0.1929388773308526 O
   0.3070338607903494    0.6928144579671845    0.8070115593038452 O
   0.3065652205696611    0.6926464165019943    0.3065816720992751 O
   0.3180681187393663    0.3163295707490265    0.4321033831687940 O
   0.3076464943769817    0.1924918232045587    0.3069240036493505 O
   0.9325333464591751    0.0679790934849227    0.5674284580890135 O
   0.9315176550143998    0.5683370299866879    0.0683353007551339 O
   0.9311448213822117    0.5686706361697106    0.5677300928175689 O
   0.4328898349404985    0.4308304363609176    0.4318108916803365 O
   0.4323862767814726    0.4320581025830783    0.9325896338421824 O
   0.4315016030390266    0.9316527701735019    0.4311007425267478 O
   0.4327247297974193    0.9332547779447512    0.9326789024692211 O
   0.3065434881241331    0.1937868869574136    0.8059129197028356 O
   0.9318230820578006    0.4318726801412580    0.9319002231184286 O
   0.9311845571337357    0.9321503727287652    0.4320053390474149 O
   0.9326393961029533    0.9325383280772345    0.9328201602720700 O
   0.1929562571180492    0.3073034876762725    0.3070546153868806 O
   0.1912129604838826    0.3097078494931033    0.8080990435263344 O
   0.9318157549611680    0.4322439986455139    0.4310961637100089 O
   0.1924159753043573    0.8073260828260674    0.8075963895659596 O
   0.1922083980076879    0.8064584422197814    0.3067750853538469 O
   0.8077317370375566    0.8067947551753790    0.6930385851172205 O
   0.8078459284833100    0.8077454986365405    0.1925113727111142 O
   0.8063932699724942    0.3070833761358268    0.6925262776542491 O
   0.8076935550949945    0.3075615029526725    0.1927743616672542 O
   0.3076650767137858    0.8077435005829160    0.6922128187550335 O
   0.6843233246265229    0.8147820288988841    0.5653929019485503 O
   0.3080598448527161    0.3090316698628620    0.6906527235286755 O
   0.3088354295702689    0.3084754282526621    0.1910697249400481 O
   0.6931132815881221    0.8068749910348741    0.8079702995787948 O
   0.6923481741754213    0.8079465788958908    0.3077822189976651 O
   0.6917148249860966    0.3070784882825128    0.8068451695239752 O
   0.6922631250994450    0.3079223396566637    0.3078781386260607 O
   0.3062725384344852    0.8066684906294648    0.1931766698611580 O
   0.1248986835402002    0.8746710295611928    0.8747408911504236 Zn
   0.5004400221538785    0.2497395726855579    0.7502913554206433 Zn
   0.1254339586697751    0.6244868323685888    0.6251125935294851 Zn
   0.8751688914728544    0.8748178807730048    0.1242562568211673 Zn
   0.8753572099345018    0.8755137260985814    0.6254110852709536 Zn
   0.7497167680747534    0.7501318747628595    0.0004837634045274 Zn
   0.2498227852558089    0.7497772688843607    0.4997553927788508 Zn
   0.3746221522995974    0.1256701728448043    0.8740003247995002 Zn
   0.8761755296850160    0.6247886331962016    0.3749179197417794 Zn
   0.2502660086799366    0.5007190340377711    0.7493584484110971 Zn
   0.2506421350939831    0.7508709916618928   -0.0004969628472525 Zn
   0.7501997705886034    0.5001252537112250    0.7498061159981710 Zn
