Ag22 Ge120 Bi2 Sb25 Te192 Pb23
1.0
  18.4632634601677204   -0.0101687647026256    0.0006832204234519
  -0.0135638413693949   24.5288686838385921   -0.0070498107617234
   0.0008908433837681   -0.0070488136915647   24.5100991487911912
Ag Bi Ge Pb Sb Te
22 2 120 23 25 192
direct
   0.4893883943945596    0.6313048059443793    0.5016937793751244 Ag
   0.4949114484985732    0.7700189863181058    0.6256907769622031 Ag
   0.3320031269481980    0.7430600050505003    0.2573999053700148 Ag
   0.6835572589253177   -0.0017009602263587    0.0150916261836450 Ag
   0.6525701329174080    0.0044557574584015    0.5096009578560928 Ag
  -0.0260091546769578    0.6293585822178434    0.3661984661009897 Ag
   0.5264949162784962    0.2433270846627523    0.3831960956034180 Ag
   0.6460318141727118    0.2660321731088922    0.4916022991750281 Ag
   0.6979786841342561    0.1110304583109995    0.3895104389093531 Ag
   0.1595804357240400    0.1124490098054802   -0.0071569567299260 Ag
   0.1495759453039065    0.1355010580814465    0.4938625866607558 Ag
   0.6509349390369945    0.1020834622261339    0.1334936049469130 Ag
   0.1606510561181423    0.6179578090005504    0.0043531167176286 Ag
   0.1609721900121730    0.0066480037128005    0.6064718564728652 Ag
   0.3305682041439474    0.1209192811635868    0.3702096718679757 Ag
   0.8274829617645728    0.1266596907795272    0.4943201080644108 Ag
   0.8240650236857093    0.0032283867354101    0.3803774068821749 Ag
   0.6525321045901677    0.6297365641964013    0.3725965051755581 Ag
   0.4775048679976920    0.8789644819301159    0.7345900567633833 Ag
   0.3277534976815782    0.0127465898337230    0.4861991699653395 Ag
  -0.0049912945744838    0.3704459026177695    0.6343834366169085 Ag
   0.0083814758496098    0.2439939138952117    0.7478740715150448 Ag
   0.0017265306099637    0.7471740246841213    0.7484822050661533 Bi
   0.5163210672486369    0.3808331806116235    0.0060804247129357 Bi
   0.1578260158674634    0.5083754478741581    0.3736602707918992 Ge
   0.1724927717661498    0.4790074168338825    0.1405502482664816 Ge
   0.1884432206762152    0.2592790932642720    0.8764518999570953 Ge
   0.1581282608661839    0.2504104498655761    0.6158468570385445 Ge
   0.8349409324243847    0.7339258518189418    0.8765351535773308 Ge
   0.1640528674359469    0.2660666937749896    0.3794350130463422 Ge
   0.2012263677058121    0.2196598114461165    0.1133690891770113 Ge
   0.1567155977036341    0.0052213449823724    0.8704804944393917 Ge
  -0.0048585197177895    0.1265938867847270    0.1273948340455595 Ge
   0.1678661888876935   -0.0030659251554116    0.3752847950588822 Ge
   0.1571590306201422   -0.0126844055388014    0.1159443184563113 Ge
   0.8306160378920474   -0.0074797895541420    0.8860622791714451 Ge
   0.8295509778367857    0.8730828388784710    0.2642309419595211 Ge
   0.8474207195554875    0.8788771186016134    0.0135667029593513 Ge
   0.0091145599359262    0.1219567758376155    0.3685504068464411 Ge
   0.8146249225569381    0.6287881500450123    0.4874858391727349 Ge
   0.8175208940483142    0.6338417260519491    0.2441815515042221 Ge
   0.8394714831959172    0.6239969924630836   -0.0076350344016531 Ge
   0.8543567653270613    0.3661558173384949    0.7489717833830675 Ge
   0.8212798817678559    0.3768584885334050    0.4858579651525303 Ge
   0.8263537029229880    0.3743550395927084    0.2482364275650699 Ge
   0.8501150920077055    0.3816806846799844    0.0007991376819213 Ge
   0.3183139221135586    0.1249580852272508    0.6045329049176827 Ge
  -0.0093782715397417    0.1315192696385647    0.6113187462932763 Ge
   0.8215658512106256    0.8731950136376246    0.7603757382657091 Ge
   0.8279453634173545    0.8889121892670486    0.5063644585322659 Ge
   0.1560248944251545    0.4969557816373131    0.6412783277388061 Ge
   0.1780854320217399    0.4964935341657378    0.8883829363167847 Ge
   0.8554806720490148    0.2590903191468801    0.1327620171450780 Ge
   0.8306695015138119    0.0111808073796174    0.6195087052834368 Ge
   0.8429586215122340    0.2404152128028650    0.3710375362294194 Ge
   0.8341265071202953   -0.0005138469960473    0.1407040399113433 Ge
   0.4903715948287483    0.7530148317033167    0.8644007856677176 Ge
   0.4856329064602346    0.7512483514167504    0.3828421513997144 Ge
   0.4995478597563376    0.7390830965154382    0.1263203784024142 Ge
   0.5021586676857065    0.5131037578744740    0.9028717607082999 Ge
   0.8286346711304335    0.2572843424983329    0.6074947537892039 Ge
  -0.0042176232369918    0.6224632724852298    0.1186110880504209 Ge
   0.4974743603545619    0.5118995249864985    0.3814654840126708 Ge
   0.8507653760971702    0.2381256648462776    0.8622381440235114 Ge
   0.8220319165819020    0.7488374998984627    0.3670028888893370 Ge
   0.4919864598236096    0.4969698203644712    0.1443049628941560 Ge
   0.8169763082061229    0.5064393471041148    0.3617524173609822 Ge
   0.8414927482068292    0.4976402161843414    0.6038930763171113 Ge
   0.0124270191506433    0.6178432562486449    0.8740412138747589 Ge
   0.8635240493641109    0.4822865845333443    0.8630571280762747 Ge
   0.8296635684690670    0.1303759876924207    0.2470929471600786 Ge
   0.8469364836893811    0.7528955755069371    0.1255041721807858 Ge
  -0.0064949933773565    0.8857899394126006    0.6235032189314939 Ge
   0.5083009821343057    0.0081577473139935    0.3839910147528331 Ge
   0.1764288540589058    0.7457126956317429    0.8833015764830072 Ge
   0.3046972390386127    0.1128269951625527    0.1315116456684118 Ge
   0.1671554751406288    0.7543578537714974    0.3777152815220881 Ge
   0.1721291328306901    0.7401763846523514    0.1284000154205447 Ge
   0.0197746856382630    0.3651206584434816    0.8732012155525727 Ge
   0.0094472824047709    0.8655895691252926    0.1287744467078555 Ge
  -0.0066191127352337    0.0050371002928918   -0.0012678410186847 Ge
   0.5040806322996145    0.8748521231277575    0.4999537485434691 Ge
   0.6949694184892471    0.2522394155598049    0.7322968666987281 Ge
   0.6600618558088482    0.1347742255334961    0.6176150125103238 Ge
   0.7043557093404570    0.2293883201227247    0.0022737648238938 Ge
   0.6625219733338408    0.0041829862176578    0.2662777828262598 Ge
   0.3271610480922563    0.7568448468610636    0.7567530100301945 Ge
   0.3269909976010077    0.7706998420428308    0.5012326938544133 Ge
   0.6901493890429194    0.3722407224218711    0.1225982716595247 Ge
   0.6806100037831551    0.3857651873476525    0.6123646987663595 Ge
   0.3063472841479017    0.5092330686471476    0.4972112618854126 Ge
   0.3264537540418804    0.4996656546030849    0.2585987381211521 Ge
   0.3244373167198240    0.4954984114783110    0.0121641605520254 Ge
   0.7001489103078390    0.3663617732870813    0.8883288258341804 Ge
   0.3322654107043277    0.2470391398400764    0.4966286474873831 Ge
   0.6611567081186649    0.6218597900771508    0.1257477499044898 Ge
   0.3184664273134065   -0.0000613009291012    0.7308534746485112 Ge
   0.3239826413753460   -0.0068266123227303    0.2460947194699983 Ge
   0.3260193108487776   -0.0034758085791329   -0.0014770970434844 Ge
  -0.0274988079868310    0.7437121314419527    0.4898072273030341 Ge
   0.0063473124876101    0.7514498819146647    0.2520549223222017 Ge
   0.0042598014338107    0.7456959811857299    0.0025873266232186 Ge
   0.0219301040549381    0.4891874834776515    0.7502145092134358 Ge
  -0.0165146564759457    0.5048491015601129    0.4782195490203019 Ge
  -0.0293387830368356    0.5122169886357750    0.2325423984980743 Ge
   0.0036494464834160    0.4993070236869223   -0.0015286897427249 Ge
   0.6589813185823586    0.6351798234538160    0.6169689044600599 Ge
   0.6866182390808655    0.8657949607583605    0.1384654889844597 Ge
  -0.0017038757964384   -0.0020109769438163    0.7382591557591953 Ge
  -0.0082162993530070    0.0048598117542466    0.4956241385957131 Ge
   0.6661240880466897    0.8722287384590348    0.3818323367036549 Ge
   0.3389773831313959    0.3676262575887487    0.1308334912778539 Ge
   0.6545386819295406    0.5116937634576272    0.4947181785611307 Ge
   0.6537691359816215    0.5027612691861587    0.2536480144218332 Ge
   0.6969671248950151    0.4881887558610250    0.7308566853269117 Ge
   0.5122882944766194    0.8669803755611671    0.2603431062877088 Ge
   0.3317370603080869    0.3819181687040617    0.3732316154146552 Ge
   0.3626551546914613    0.3886467407214512    0.8579508313334879 Ge
   0.0019728995481793    0.1164522706843149    0.8703012325118592 Ge
   0.4896145402757691    0.6266396433634630    0.2607201743548903 Ge
   0.4857238943094899    0.6299592971984008    0.0170248389459999 Ge
   0.5383002701913866    0.3771190622676286    0.7432994119828036 Ge
   0.3208630853113855    0.6172235766751267    0.1342255337226335 Ge
   0.5043116219869924    0.3668613061170780    0.2533576099464128 Ge
   0.3191677935512621    0.6292108369726559    0.3793326305422495 Ge
   0.5079284724503021    0.1271691409411930    0.4960464063917239 Ge
   0.4891715727653240    0.1209589764020241    0.2564479697582516 Ge
   0.3316867539298201    0.6216476619760071    0.6196362573436203 Ge
   0.1631724580769710    0.8807619723571810    0.7469648291491023 Ge
   0.1770828490132941    0.8692302704901966    0.2453412364005394 Ge
   0.3309991115206437    0.6224912783168295    0.8852100522602190 Ge
   0.1443977543473871    0.1043255043421271    0.2676248700435507 Ge
   0.6811216054105200    0.7443642714361153    0.0150619943949906 Ge
   0.6513297827947964    0.7456525754715065    0.2551879583732299 Ge
   0.6507211310764033    0.7527009917357711    0.4975038947070807 Ge
   0.6641603919913820    0.7491999179160429    0.7545880996214220 Ge
   0.1707263985181415    0.8747995013737544   -0.0048320496374231 Ge
   0.1808226775067275    0.3733252520937297    0.0110628485209695 Ge
   0.0116379403531823    0.3765057519272457    0.1141276864995507 Ge
   0.1495476550571637    0.3860696175830844    0.5071740677918972 Ge
   0.1826553458235400    0.3751473675486532    0.7566626344802865 Ge
   0.3385662179649245    0.8855669398921339    0.3671587339212466 Ge
   0.1735409595220314    0.6189943811158848    0.7583526433697022 Ge
   0.3302444837278463    0.8844817253251955    0.8613673164290236 Ge
   0.6707624846042878    0.1209968070979399    0.8816879167113469 Pb
   0.6702140893209400    0.6098717403319823    0.8714419171264289 Pb
  -0.0010591825207613    0.6177720747721248    0.6166347563275481 Pb
   0.3410882930844035    0.8699824101936205    0.1271727288323308 Pb
   0.0061150490668172    0.8681785896150012    0.8783520932090069 Pb
   0.6648626717217494    0.8628762258160189    0.8874202986877741 Pb
   0.8227086519240054    0.7557125422736268    0.6184617523795846 Pb
   0.1528894049968030    0.6170772051985280    0.2482368191293573 Pb
   0.1596766119900840    0.6318810808756814    0.5041465667090325 Pb
   0.1601349122215699    0.8900723973640542    0.4946966482384125 Pb
   0.6758611968962124    0.2488035225745879    0.2509368072412508 Pb
   0.4951994580152300    0.1301891711741212    0.7449254293627843 Pb
   0.6622710202771610    0.0005105200189573    0.7560024696842308 Pb
   0.5008746103462507    0.6325935900984808    0.7527608522364011 Pb
   0.3354243836586129    0.7460082621833353    0.0072703498937449 Pb
   0.5104321194537300    0.8769457511255797    0.0083655593837365 Pb
   0.8409080621429257    0.6171686775044483    0.7405322356220408 Pb
   0.3308046674935355    0.2462884971772508    0.2573076773353491 Pb
   0.3527818206359485    0.2483741451424235   -0.0016572420707517 Pb
  -0.0056605027603965    0.2563338501403433    0.4970401860689423 Pb
   0.5240534966812197    0.2421217258772069    0.1315686495923597 Pb
   0.5216830655903270    0.2616722376147962    0.8720431646741971 Pb
   0.1666894771819476    0.7558740337991643    0.6304621540243011 Pb
   0.6315241370257298    0.5100704501361870   -0.0377930617253140 Sb
   0.3366653180517541    0.2523544234178637    0.7458929479664068 Sb
   0.3821735964583561    0.5089693348075045    0.7512000262147047 Sb
   0.0400135410272069    0.2854833882394093    0.2418684009292636 Sb
   0.0159528537472254    0.2417523709707515   -0.0080179434502702 Sb
  -0.0079744443068544   -0.0046443270330956    0.2442371443489243 Sb
   0.6591301946868142    0.8845779227934174    0.6275604731302552 Sb
  -0.0231795478250158    0.3804866222623068    0.3742352896553029 Sb
   0.1611577850053491    0.1309237706697347    0.7389757312890618 Sb
   0.6361649545895598    0.3416607826314407    0.3830421398391079 Sb
   0.3115875789732842    0.8456117292481842    0.5926942117687077 Sb
   0.1739493978134356    0.3269846592119610    0.2842137561998807 Sb
   0.8086316151856699    0.5116631914244844    0.1106580677283286 Sb
   0.4684661381476469    0.5145301346504189    0.6510335855354525 Sb
   0.5003316376041962    0.2665626292991037    0.6161663663552207 Sb
  -0.0061633892144906    0.8757637038444823    0.3776812513090919 Sb
   0.4892611980843979    0.0116485023521849    0.6252682519275637 Sb
   0.5114929155933858   -0.0150785917064940    0.1401088911591558 Sb
   0.4936865219946852   -0.0012242888988573    0.8773522613554851 Sb
   0.3269508916511634    0.1232825758514175    0.8724248245250024 Sb
   0.8177542610985774    0.1440192238383264    0.0065301884222908 Sb
   0.3210174672098818    0.3743033578663746    0.6194035160519048 Sb
   0.4747940701668238    0.3930179585149577    0.5057797478151377 Sb
   0.4811296813718530    0.1275965850173125    0.0156414850190961 Sb
   0.8351914112628721    0.1134062594071014    0.7439700813849603 Sb
   0.6742149531307972   -0.0142397402551770    0.1329449753602214 Te
   0.3186018684084411    0.5041010449452425    0.3793170923909939 Te
   0.3122880564742144    0.5002068229193913    0.6166124989435041 Te
   0.3412452743074583    0.4996579316556269    0.8820119674726240 Te
   0.3361617136980471    0.7360613732593944    0.1375154429857629 Te
   0.3261865060461479    0.7493414725135108    0.3795977936152993 Te
   0.3433845029189894    0.7378044595232079    0.6397084991618368 Te
   0.3372475260614026    0.7455098047336844    0.8768938054372292 Te
   0.6628566503682576   -0.0009721096537232    0.3820123671998701 Te
   0.6550196688608041    0.5031569194387888    0.1299924492356349 Te
   0.6693226054223688   -0.0078234526311985    0.8890582173519288 Te
   0.6964749242609085    0.2546463560755487    0.1182027793216204 Te
   0.6801614056995657    0.2271624660009829    0.3807487264762580 Te
   0.6711428434895336    0.2546118334673695    0.6146907276438286 Te
   0.6927735368490732    0.2509829991657261    0.8783259214561253 Te
   0.6585487925106712    0.5100822935635191    0.3735959672138131 Te
   0.6814623001690869    0.5035567492081983    0.6165759065390054 Te
   0.7047259534768416    0.4816852574719347    0.8609880291350503 Te
   0.6602040489679222    0.7422169604043983    0.1340570480319210 Te
   0.3272761392857038    0.4953686492960089    0.1341105615314947 Te
   0.6732325745809120    0.0087443011718679    0.6263936487122418 Te
   0.3439516765541902    0.2670062218130572    0.8688399760407393 Te
  -0.0032155183326568   -0.0032096657268974    0.8771737374382914 Te
   0.3227552322233400    0.2640712548482985    0.3828941209990350 Te
   0.0094708947460636    0.0009517544958686    0.3722509746102730 Te
   0.0020692981916426    0.0070304533977346    0.6175581251919494 Te
   0.6635675583797062    0.7514983327266405    0.3770309123909450 Te
   0.0050472508923588    0.2471744741484901    0.1214273902741085 Te
   0.0000469732439444    0.2566770304376447    0.3651164000351907 Te
   0.0050043003196828    0.2500893052157390    0.6292011660447704 Te
   0.0082741950482646    0.2466270014786600    0.8671810411932008 Te
  -0.0003895298777844    0.5005315176462938    0.1200146832115979 Te
  -0.0228486599702936    0.5108098130930823    0.3652584745482600 Te
   0.3219932460175227    0.2494535418544948    0.6248598060320645 Te
  -0.0007793577676280    0.4899073193188733    0.6301791935127939 Te
   0.0066123255447772    0.7444941893844788    0.1263026374533488 Te
  -0.0074593450848489    0.7513520223324226    0.3744251749432395 Te
  -0.0043527931970764    0.7491091870655097    0.6179462327983682 Te
  -0.0038611761694529    0.7377491016290276    0.8775613128454138 Te
   0.3198022387331409   -0.0012463525039323    0.1238709422469449 Te
   0.3240940386908612    0.0041219306338348    0.3646777018920747 Te
   0.3246161945131292    0.0097394188366761    0.6167538351405467 Te
   0.3252209840514780   -0.0002221041982023    0.8745237166537879 Te
   0.3504777995591254    0.2443966026132940    0.1283300391451470 Te
   0.0150813691846432    0.4954658601264558    0.8762102558806820 Te
   0.6509009301927092    0.7560302554979574    0.6174938612752032 Te
   0.4988872246607243    0.1392496414873234    0.6149902428475863 Te
   0.1525177205301969    0.1085688974460707    0.1100681970405081 Te
   0.5019040408329535    0.6283846433131767    0.6203989058705421 Te
   0.4953822547363266    0.6285543525727569    0.8881770608898112 Te
   0.5139137059740091    0.8611946544614766    0.1383963639724806 Te
   0.5026207939820776    0.8725762197849111    0.3795736355372732 Te
   0.4912784920476124    0.8874034614971332    0.6184792444017680 Te
   0.4896071922634683    0.8704126402745693    0.8770576632534257 Te
   0.8368963193854957    0.1191939642611360    0.1266363843804213 Te
   0.8492492583065115    0.1227607975066880    0.3730976305330354 Te
   0.8370423839071748    0.1320475638459323    0.6166143556989421 Te
   0.4939417122784353    0.6304136099257404    0.3816022806358410 Te
   0.8423675832935498    0.1178545048289186    0.8740909606099719 Te
   0.8129111699545788    0.3828657320443901    0.3661251728385678 Te
   0.8374157257562180    0.3741514558630721    0.6160154289130294 Te
   0.8547182243464369    0.3643534254079781    0.8707012366750415 Te
   0.8345908671792607    0.6330845400889591    0.1233477329096215 Te
   0.8176119598833224    0.6305896144401546    0.3675573509032863 Te
   0.8249487465829656    0.6206499748305934    0.6079287371764573 Te
   0.8442843021914097    0.6160142055042415    0.8724242848129177 Te
   0.8461659438811386    0.8732994765045575    0.1313708198295748 Te
   0.8306018247408072    0.8825905109343239    0.3826559470834765 Te
   0.8500734156684493    0.3775379365217845    0.1230621413467256 Te
   0.4923425773759565    0.6209798479806421    0.1373848998675541 Te
   0.5119571010661729    0.3923291994865554    0.8791347049363344 Te
   0.5207546327945684    0.3900257495622887    0.6283803405349764 Te
   0.1670221618602417    0.1393285775266079    0.3735156528237454 Te
   0.1656891764925847    0.1267810138114233    0.6148079780335067 Te
   0.1663169997809357    0.1247881486819958    0.8751187707945484 Te
   0.1691584550526000    0.3664054258550469    0.1287416048995751 Te
   0.1464541153170173    0.3885362082441065    0.3843775049549886 Te
   0.1585976017643446    0.3741086120348101    0.6278212953726322 Te
   0.1788240465841408    0.3762571940534551    0.8818767388245193 Te
   0.1610000072414475    0.6213762556955096    0.1207541503411435 Te
   0.1596632815987684    0.6314013850468475    0.3763803939153568 Te
   0.1734198159091532    0.6207395245539156    0.6359480364825124 Te
   0.1711572993811852    0.6176158581341790    0.8872707224366324 Te
   0.1677767907412124    0.8656033810438006    0.1216854451540844 Te
   0.1704495290186673    0.8750005348828905    0.3652082237141939 Te
   0.1599531442949776    0.8888628811137780    0.6276229230471808 Te
   0.1777133280200495    0.8670108783523504    0.8737199066365199 Te
   0.4963649574671417    0.1101509712487747    0.1373327124715522 Te
   0.4895470378146292    0.1235886156113053    0.3743249114468815 Te
  -0.0055368172367796   -0.0004277501993435    0.1191050366965484 Te
   0.4955143354586534    0.1277478802794226    0.8782816581493629 Te
   0.5017510017034764    0.3755964558824566    0.1333068912154169 Te
   0.4909952695713271    0.3890766766637144    0.3730126478711698 Te
   0.6782014886332890    0.7376600818036967    0.8712720099972685 Te
   0.8333907011998751    0.7533978960803783    0.7501602846637678 Te
   0.4968928970524527    0.5093236241800531    0.4996413998569617 Te
   0.8303181576379985    0.7550762253206879    0.2468494618083352 Te
   0.3411117954641534    0.3833188680682755    0.7411237544030213 Te
   0.3285979686823469    0.6158247804385439    0.0099127334045177 Te
   0.3301546199061540    0.6231206712736629    0.2591069200559759 Te
   0.3338072959308508    0.6267002284116384    0.5032197869136600 Te
   0.3303489063564273    0.6218378940108544    0.7651922010547055 Te
   0.3297222449403640    0.8754823189874016   -0.0028648320135653 Te
   0.3354098669656246    0.8660797064961329    0.2550345829377800 Te
   0.3405435476054223    0.8933889701876074    0.4870382199717012 Te
   0.3230234972644394    0.8775076003716560    0.7451605676299442 Te
   0.3115530212209837    0.3873986097404128    0.4948015778664087 Te
   0.6626919079059822    0.1148928817502543    0.0156639016521420 Te
   0.6645535577873913    0.1212522447252537    0.5058555658065040 Te
   0.6706313578679095    0.1341215733811423    0.7458868228844195 Te
   0.6865810912872728    0.3842069674237970    0.0028405852295085 Te
   0.6651226614091191    0.3821918261330120    0.2407551171610957 Te
   0.6634028750661076    0.3813211816896302    0.4947780534746373 Te
   0.6914235634276946    0.3677233583308845    0.7451846291196362 Te
   0.6770067293280048    0.6245327645800430    0.0064470370917170 Te
   0.6574194351560746    0.6266466989752748    0.2524527610616626 Te
   0.6569240690753639    0.6319014251292450    0.4941593536869291 Te
   0.6746265753490001    0.1169842658279545    0.2473634980191501 Te
   0.6719471799561654    0.6332391047209842    0.7374650456503486 Te
   0.3438491233971566    0.3800996143817204    0.2516685003720004 Te
   0.3239026784344822    0.1213868908971641    0.7476822429795373 Te
   0.8347019145854361    0.8863226138628327    0.6251409915617961 Te
   0.0022356173503276    0.1199795931304489   -0.0097482679562079 Te
  -0.0092333773508632    0.1209822842579289    0.2474329674833925 Te
  -0.0057709514674282    0.1247499378466899    0.4947667762203934 Te
  -0.0011286034285980    0.1188685672080026    0.7485655170467838 Te
   0.0117237488412953    0.3755847978396392   -0.0041820356591649 Te
  -0.0170128293256981    0.3973418068955917    0.2491224093368244 Te
  -0.0103190459830060    0.3860859836296758    0.4987621625898461 Te
   0.0132479903013567    0.3705455544535758    0.7525367350485815 Te
   0.3406569552209600    0.3784240806793485    0.0090474160106353 Te
  -0.0004222616670195    0.6207331939504599   -0.0010234559632458 Te
  -0.0191426084969669    0.6284009879413434    0.4851357527056967 Te
   0.0122250356720645    0.6162441725090216    0.7526826282901103 Te
   0.0068379132747247    0.8667379100168056    0.0086019685513329 Te
  -0.0007759195632209    0.8704468864687600    0.2481184417692742 Te
  -0.0118494838080316    0.8789006487385355    0.5033493808018396 Te
   0.0041807208038700    0.8756204265627422    0.7447245576158217 Te
   0.3209423693621251    0.1176787411676414    0.0029346146627205 Te
   0.3349059923407644    0.1119590436876625    0.2486345388799805 Te
   0.3407320331827288    0.1321392662600018    0.4910857061466211 Te
  -0.0193902640617914    0.6327574544423691    0.2484952576524823 Te
   0.6868346274628419    0.8647164954040227    0.0179653646872100 Te
   0.6712689784606345    0.8676146836237647    0.2595003211395620 Te
   0.6649479432148727    0.8834115980785010    0.5017730789472439 Te
   0.4893310600212045    0.5085817132078915    0.0209890687322913 Te
   0.4912831306258238    0.5048223467199570    0.2597737038689024 Te
   0.5438042613681396    0.4980995184030279    0.7599700816897066 Te
   0.5140731971240682    0.7453734765105127    0.0074703348686034 Te
   0.4934529253288672    0.7472836063392841    0.2617608491451494 Te
   0.4869818126103448    0.7559770156534005    0.5038259471896726 Te
   0.4934115345532176    0.7625148959818225    0.7511174005497749 Te
   0.8360605722185316   -0.0066381911461680    0.0037233263652147 Te
   0.8276335801302898   -0.0067892117358735    0.2598120275675683 Te
   0.5104295582472451    0.2635579179915823    0.7429288777103905 Te
   0.8367434815032972    0.0067037429907028    0.4999954707763877 Te
   0.8522357902488997    0.2613459365123070   -0.0019205843005991 Te
   0.8464096395289717    0.2526016345941880    0.2492651026696790 Te
   0.8232644898212983    0.2548653997272542    0.4916667572084762 Te
   0.8473431861006856    0.2469391751023956    0.7438508548906925 Te
   0.8432145688613770    0.5009648393878294   -0.0048546706076341 Te
   0.8164632154759061    0.5110013275406694    0.2392605107750419 Te
   0.8255648924694454    0.4992372595164329    0.4880513838433816 Te
   0.8509955200362055    0.4875290357888922    0.7443043788405261 Te
   0.8406656879139068    0.7458021967640203    0.0024834058751448 Te
   0.8399583448198381   -0.0084280206208590    0.7510780770199610 Te
   0.4879539011578631    0.2670679655738541    0.4957161517324295 Te
   0.5039105837863183    0.2464805516098155    0.2645797877392811 Te
   0.5267650188672881    0.2532144527495549    0.0022708695333719 Te
   0.6644895300054933    0.8693151289599442    0.7537071036071649 Te
   0.1598350354098448   -0.0073455048046855   -0.0084139432709322 Te
   0.1636686973605689   -0.0100981338113050    0.2374660076139496 Te
   0.1705781092250198    0.0180663310707009    0.4867793085811666 Te
   0.1604378191771217    0.0007622762720002    0.7510351364876249 Te
   0.1776799135697099    0.2510657994223742   -0.0004569572457797 Te
   0.1669472208370830    0.2137070139757762    0.2261408589361905 Te
   0.1681015414470302    0.2536797543971787    0.4997827418129115 Te
   0.1718430215753929    0.2552384625277390    0.7583613601514162 Te
   0.1669043509914835    0.4952147285509749    0.0082391033422207 Te
   0.1690207789871195    0.4902009394482914    0.2549145688790325 Te
   0.1459696335874451    0.5043214424155326    0.4966318231130377 Te
   0.1761167998313432    0.4955428041577223    0.7575619073169116 Te
   0.1621937095380533    0.7405325650308455    0.0017130181302615 Te
   0.1670164829793376    0.7498983196059763    0.2493751174434415 Te
   0.1702400775034911    0.7599651413768452    0.4982855371148986 Te
   0.1693724930905808    0.7417767652645898    0.7627737192221624 Te
   0.4855539674150561    0.0050033585945296    0.0006423614989434 Te
   0.5036830905938487   -0.0111340706544204    0.2593576862347187 Te
   0.4972210003410628    0.0097243176116938    0.4993135317985711 Te
   0.4858139366162937   -0.0038000149515437    0.7541973572564236 Te
   0.8214306644087044    0.7526482581079441    0.4884229962619723 Te
   0.8358835974886264    0.8725617370676315    0.8771510989642334 Te
