Mg38 Fe38 Co39 Cu39 Ni38 O256
1.0
  16.6612242886879116    0.0005578646978189    0.0014203147400910
   0.0005579770174168   16.6677764352393503    0.0008035635285515
   0.0014203006514060    0.0008036898332339   16.6623083519296067
Co Cu Fe Mg Ni O
39 39 38 38 38 256
direct
   0.1261112615204290    0.3740914564292465    0.1256294387268977 Co
   0.7511633881422183    0.2498007371241187    0.7497686221510979 Co
   0.7485522830439016    0.7484227391329898    0.2545517898685774 Co
   0.3733292511706121    0.6228817481948390    0.6257874039429590 Co
   0.8739399511068402    0.1267864742321631    0.6259725936999534 Co
   0.0627969951961245    0.1886155414093350    0.1881248285983747 Co
   0.7496756968438366    0.5000719955823969    0.5033219895628994 Co
   0.1885636848184825    0.6879730868044361    0.5652740713910797 Co
   0.6856065581865511    0.1881104168497330    0.0597423203986268 Co
   0.9383367621389342    0.3106800211536823    0.6881926176479068 Co
   0.1881075935227949    0.5623172287781909    0.6885385734700474 Co
   0.6867152513231531    0.0608154616201286    0.6893877608358838 Co
   0.4394906448300616    0.8102568078526750    0.1857899128015804 Co
   0.0651411304017081    0.0599495872664398    0.5628569018931278 Co
   0.2507204906643213    0.7494385104446739    0.7491398572314554 Co
   0.5628510807082727    0.0671005011585648    0.0614652412849578 Co
   0.6860015094483416    0.9377805669596307    0.8133172028085980 Co
   0.1868418208433872    0.3126511658906173    0.9360245028472242 Co
   0.6866860312427114    0.3113111886536204    0.9394940009604263 Co
   0.3155907367598214    0.6872533196052814    0.9411542907131181 Co
   0.5614835878304558    0.3119040198619625    0.3128460053863404 Co
   0.4317010398336281    0.9367783847792553    0.5611614504386406 Co
   0.4395199234330153    0.1897420020886759    0.3112094097918477 Co
   0.4366455551142836    0.1871393632856813    0.8125776429174583 Co
   0.9362077101181230    0.1885636777718454    0.8096848632254009 Co
   0.4369867900948676    0.5630230553889465    0.9383404202175062 Co
   0.9350811375426354    0.5628010632324554    0.4384624677748435 Co
   0.9380037122562026    0.5603644623311684    0.9378390540916871 Co
   0.3131292007309327    0.0657638633285776    0.8140882909073445 Co
   0.1914338779861465    0.9364836188014883    0.3117322747404855 Co
   0.2497850933588484    0.2514137745048077    0.2504947355344948 Co
   0.6855918218607310    0.5640063675689696    0.1861000026661898 Co
   0.3159141814821017    0.8097646902803152    0.0615133046186483 Co
   0.8084777763524214    0.3098755521350353    0.0615125430245692 Co
   0.3096441803235574    0.8124601794568372    0.5638150627463522 Co
   0.5618916795220168    0.6884107228368028    0.1883461978510785 Co
   0.1224587833370738    0.6252322717554568    0.3774036109010073 Co
   0.1230566282878007    0.1252049101674564    0.8761331030486817 Co
   0.5029925742946816    0.7510066903341787    0.0027349860106150 Co
   0.8106534082413338    0.0634284275395697    0.3129676361083231 Cu
   0.5009100851749255    0.2489554104913875   -0.0026603038432232 Cu
   0.8136514643965362    0.3109532653045637    0.5638169465908754 Cu
   0.6879144285095529    0.4339363277641328    0.8136080834650147 Cu
   0.4375414964846634    0.6884991738872737    0.3111797187342140 Cu
   0.6260931197313210    0.6265331461079989    0.3715562514904071 Cu
   0.6251398614413397    0.1244647849236940    0.8753790419703943 Cu
   0.1274599269003788    0.8771434009137089    0.6277397587794764 Cu
   0.1870083038652524    0.0633287952210497    0.6899438967650841 Cu
   0.4369160528540271    0.0617582564014724    0.4365440239014933 Cu
   0.0626816161798213    0.3122612440703313    0.3116969176428621 Cu
   0.4389848804470188    0.9390727489683928    0.0618290787089582 Cu
   0.6880373084083546    0.5616459221954467    0.6882212069157436 Cu
   0.3126782142983118    0.4379700746030707    0.1868507285817769 Cu
   0.4387512878054892    0.3139379394905909    0.1881817685776979 Cu
   0.8099057380578412    0.4372307535919883    0.1840529929953396 Cu
   0.8122722158398632    0.4363975507325319    0.6882677610460839 Cu
   0.8123214265480100    0.9363212671684001    0.6885763196160628 Cu
   0.4379073629434020    0.4391031597543547    0.5654522641249649 Cu
   0.9351732208762078    0.4364475483950266    0.0608532078157299 Cu
   0.9370794413720510    0.8117886670778565    0.6879568479900462 Cu
   0.3147837657250511    0.0622592944505359    0.3094777825367785 Cu
  -0.0003152097945874    0.7496068139167243   -0.0012414420744943 Cu
   0.2513801061395897    0.2493221006647585    0.7483955297012624 Cu
   0.1252669211871097    0.3762117439880940    0.6264198244488796 Cu
   0.2521472522877379    0.5006564696527847   -0.0008044147339657 Cu
   0.3116628983758848    0.1894398119856075    0.9354387970537834 Cu
   0.8113413793952223    0.1888005576447065    0.9362027202420128 Cu
   0.8122792189573118    0.0642725292207600    0.8111786251083297 Cu
   0.3747752746725850    0.8707002490694805    0.3766264380784017 Cu
   0.3739904822945328    0.1237919463926830    0.6283407119159702 Cu
   0.0030136004990328    0.2491148783099300    0.5008384908196327 Cu
   0.6866015302163218    0.8135205019452345    0.4377989128771432 Cu
   0.0649087818879113    0.9370662164369413    0.4377416531741420 Cu
   0.8736682543959277    0.6249754599353897    0.1248646917319294 Cu
   0.0610496124793684    0.4380229331655786    0.4368252154251600 Cu
   0.3741178813176089    0.3754355983247891    0.8715863215803257 Cu
   0.5615404150433723    0.4371864105620170    0.9378834629443207 Cu
   0.3115705465970118    0.5627985637583530    0.3118879506936028 Cu
   0.8126357292299696    0.6830054760938431    0.9362830670735960 Fe
   0.9399215441307728    0.4380895989647933    0.5636905559901771 Fe
   0.9379587983796559    0.1868414940326269    0.3120545082217564 Fe
   0.5006037484419936    0.5013643350761615    0.7557223089010731 Fe
   0.6876652391347670    0.3087319464424053    0.4367961726341581 Fe
   0.3131629883732345    0.6889054586637371    0.4382817270353880 Fe
   0.1870510361200228    0.4391928841527261    0.3121533289182759 Fe
   0.4380481253809858    0.6918998807985151    0.8130553697498027 Fe
   0.0643521771184836    0.8122071733887670    0.8139657951057363 Fe
  -0.0018764242058594    0.2482471621077516   -0.0003319250698754 Fe
   0.9402019798309046    0.9384404462052789    0.0597987541309037 Fe
   0.6234285527474223    0.3725443640561508    0.6263292490526261 Fe
   0.6859465419306298    0.0640537962770744    0.1864322279700015 Fe
   0.3123027300601754    0.3116311295700526    0.5633867295035287 Fe
   0.5619554512314837    0.1846954467852649    0.6878634565978937 Fe
   0.8754554893290734    0.3756451719766555    0.3729564368683866 Fe
   0.8748993887099652    0.8772566327229772    0.3749488160013231 Fe
   0.8742412756819868    0.8740141608266191    0.8751417109175981 Fe
   0.4998916419316418    0.5009599508379391    0.2501415996017070 Fe
   0.2502502284590429    0.7515058138807063    0.2466521577343099 Fe
   0.5633348086880194    0.9394547392946815    0.9371783466569763 Fe
   0.0043155761892841    0.4988519410034657    0.7503299921313908 Fe
   0.5635011795250735    0.4400101981731077    0.4385741029125410 Fe
   0.0644655395255422    0.4377043395598832    0.9391444926648392 Fe
   0.2535136801439896   -0.0010858884168897    0.4945234135234840 Fe
   0.2489305856375408    0.5015911085685897    0.5018903162970685 Fe
   0.0632682818393396    0.5662065828914902    0.0627250454277123 Fe
   0.7482440960672884   -0.0031212862362332    0.5036283490215695 Fe
   0.3132245891190464    0.3130226535923150    0.0602265374009391 Fe
   0.1862947717728833    0.1847982622995105    0.0627295082168033 Fe
   0.1892977775403701    0.1853112070732780    0.5610736013473474 Fe
   0.9397671886374918    0.8107080717581163    0.1870742971657194 Fe
   0.9374918065558999    0.0625083685228758    0.4406542719292565 Fe
   0.4379433461769894    0.8147325282011987    0.6854382014494762 Fe
   0.3133207502349813    0.9354344240622594    0.1861703460590326 Fe
   0.9378031242627092    0.6856273915209534    0.3141235669490552 Fe
   0.8112537820522816    0.9372245471672839    0.1855856895388396 Fe
   0.0639592513610447    0.3089278223060858    0.8098207673599591 Fe
   0.5633610479886088    0.8158243182904268    0.8098104409800687 Mg
   0.8105262386196299    0.5605623226368924    0.3117630590316314 Mg
   0.8125950851095823    0.8114525605861403    0.0614064962345886 Mg
   0.4377804107974303    0.4366304833924590    0.0592386571341423 Mg
   0.4397739718939861    0.5642297153371243    0.4379941436515431 Mg
   0.1258370095613218    0.8723084484066987    0.1250573079183293 Mg
   0.3764897567376934    0.3752492640449956    0.3789073415357200 Mg
   0.3143881365724231    0.1890655288856019    0.4358050707366469 Mg
   0.8739235138478360    0.3720790709450535    0.8759221274925127 Mg
   0.4990163511966940    0.0008751911054074    0.7490085764744867 Mg
   0.5617737246077886    0.1905598784174775    0.1860085114877448 Mg
   0.5005874028524062   -0.0007887264072736    0.2466780182199946 Mg
   0.7493968297084594    0.7490818412729401    0.7543941090608524 Mg
   0.0636696131914681    0.6883116664906214    0.6881132777679851 Mg
   0.0647122904489286    0.6886058609350751    0.1871112500020089 Mg
   0.0610457055013065    0.1852574261338804    0.6843985589172108 Mg
   0.0029937255397846   -0.0020283373754836    0.7508609357229783 Mg
   0.2502174482347689    0.0009666172866212   -0.0020017774933034 Mg
   0.7490049560744528    0.5024737053166799    0.0035834691091422 Mg
   0.6214598809667407    0.1265472030886691    0.3772402326977777 Mg
   0.6869112902196467    0.6881646521116660    0.0630223494675903 Mg
   0.6851735839631579    0.6886678464514965    0.5648525991070821 Mg
   0.8091858199054539    0.6879429809534041    0.4385206601806187 Mg
   0.5619285559408507    0.5621164157312323    0.0617595725321187 Mg
   0.9360985183518463    0.3135340715054950    0.1846496778238091 Mg
   0.6883010392015184    0.8119473160747481    0.9360597622903999 Mg
   0.1912802972848719    0.8109787811649276    0.9387929754638417 Mg
   0.1863448823470057    0.8124443720083847    0.4387739762054816 Mg
   0.1863289630006817    0.3119124056432290    0.4395696073079164 Mg
   0.6841419426848249    0.9399889137757623    0.3142262270430049 Mg
   0.6862225670495977    0.4357973773559195    0.3092075960505108 Mg
   0.1876482201142859    0.0613081916681276    0.1881411453959215 Mg
   0.9393051078067267    0.9345783037033324    0.5654176421263882 Mg
   0.5595290357789549    0.0604580743122402    0.5625566572749126 Mg
   0.3108821168502351    0.9395995543404586    0.6886691205089638 Mg
   0.3110550801362302    0.5634524973411337    0.8139812391600870 Mg
   0.1266539688171342    0.6263445996290353    0.8761166956795433 Mg
   0.1901442050839494    0.4364096605917645    0.8106802794652660 Mg
   0.5621860468618184    0.6870340621094817    0.6876534266338624 Ni
   0.4369646206275850    0.3126538019901828    0.6909966181422095 Ni
   0.8120372304073975    0.8123357616047114    0.5630762318887017 Ni
   0.8144753517034149    0.5594711069469153    0.8118001121185197 Ni
   0.0658941486241730    0.9375755344769303    0.9377001614977267 Ni
   0.3769613415386753    0.6241789198248957    0.1226753342325260 Ni
   0.3766637459915089    0.1284230250557659    0.1266548844039888 Ni
   0.7484095820083257    0.2480154519361343    0.2473217215683473 Ni
   0.3726796357838762    0.8774427714487856    0.8777374238755938 Ni
  -0.0019240475964152    0.5018644504021849    0.2480180196955857 Ni
   0.0017078594904324    0.0012787913553677    0.2492864322586124 Ni
   0.8766044945264964    0.1258091326175806    0.1244287489694639 Ni
   0.6235025137102967    0.6232237020700215    0.8705410152709707 Ni
   0.4996482914578700    0.7518053326946819    0.5023575848917182 Ni
   0.4994927894634046    0.2503650789979119    0.5005397262871440 Ni
   0.0010493738217880    0.7480061468771646    0.5009961789974653 Ni
   0.6260589271229263    0.8739937552653846    0.1223496929662241 Ni
   0.6251961648547293    0.3748865683176534    0.1221494514881893 Ni
   0.5573807112385621    0.9363745728824199    0.4371996011271800 Ni
   0.1264022574346191    0.1219298732923988    0.3754399638199418 Ni
   0.8726662725911484    0.6290246863587413    0.6229887110492560 Ni
   0.6232173179409506    0.8781103060559471    0.6218519432344335 Ni
   0.1918640954458841    0.6884017283096664    0.0609523024354742 Ni
   0.7500844304848640    0.0029411816089204   -0.0019148984347395 Ni
   0.9382099927594141    0.0646418862596388    0.9341296261189345 Ni
   0.9396355462202520    0.6852118523567466    0.8124541935247062 Ni
   0.5603541741805652    0.8140705281166001    0.3128404798800568 Ni
   0.5619142538056594    0.3084049561637706    0.8161586571589198 Ni
   0.0644708713585225    0.8145453725002145    0.3132453020639633 Ni
   0.8123828562694438    0.1867287067131047    0.4391005534734875 Ni
   0.4379651965648904    0.0667426586569106    0.9383985652299723 Ni
   0.5627904526457868    0.5635239644822395    0.5647864310853130 Ni
   0.0639497551700857    0.5640357959222861    0.5624536852779684 Ni
   0.0628154780338459    0.0628750941503180    0.0627722649871436 Ni
   0.3126175704586415    0.4392268097125916    0.6884655833342800 Ni
   0.1884085108209372    0.5639547978378501    0.1847889295077812 Ni
   0.1889780665430885    0.9402000009631807    0.8155067430233938 Ni
   0.6876777643737081    0.1851062137331412    0.5650391090336487 Ni
   0.8177782093514654    0.1806798698606362    0.3152456499612265 O
   0.3151370713446471    0.6875821031019870    0.8246901501972226 O
   0.3143872603149571    0.6839813950253431    0.3148119683929057 O
   0.3212063426625957    0.1814966071320656    0.8161174119388506 O
   0.3214411329300092    0.1899549939215399    0.3111246783767955 O
   0.8138037471877498    0.0739868672618491    0.9278841034022486 O
   0.8180978807063203    0.5623208256705593    0.4375716523102673 O
   0.8164056174227439    0.0630004982469103    0.4374930244419936 O
   0.3227274363043717    0.5733585509616549    0.9381505039147632 O
   0.8202156005707347    0.1895286227625091    0.8138136314782713 O
   0.3146652436205729    0.5668573246528404    0.4340513437527405 O
   0.8240305237642525    0.5620660363375491    0.9339468291450902 O
   0.8148572179386827    0.6833939826943660    0.3148877634290747 O
   0.9413451330032593    0.4431881476798362    0.9441607839120946 O
   0.9319498330250620    0.0664292849356238    0.3193146273945456 O
   0.4453132552940048    0.4428671107597691    0.4462716574811425 O
   0.4394267287803849    0.4479928645154516    0.9345358337863671 O
   0.4325979651433065    0.9417710938396843    0.4475030746782179 O
   0.4419292322114501    0.9450565328636195    0.9457321707840710 O
   0.9388485205169241    0.4459457415718718    0.4407627010792600 O
   0.9425651814660869    0.9412983379259526    0.4417353982535034 O
   0.9398054780587777    0.9421335966648684    0.9381306235667332 O
   0.4323103866850270    0.0766498961835332    0.3109825580492196 O
   0.4260348201981362    0.0714688371948394    0.8143815072417599 O
   0.4329816922504943    0.5674840609216054    0.3132437924749147 O
   0.4339809429146777    0.5696212272466911    0.8219487592370516 O
   0.3160846973113607    0.0718450025599191    0.9267845529397467 O
   0.8176059441690540    0.6795371866987143    0.8213848685683988 O
   0.3202135516811663    0.0649894807872918    0.4281586640607457 O
   0.6912393579563734    0.5513044797670629    0.8066570774742303 O
   0.8092641143987431    0.9443719696777636    0.3088260584610815 O
   0.1853246209584108    0.1783399984717884    0.6829939310105364 O
   0.1877929538110555    0.6868309158849389    0.1789185674326577 O
   0.1892833999310933    0.6795458589501956    0.6812432395252057 O
   0.6833094195510787    0.1846157404463972    0.1727683883086613 O
   0.6862053745340164    0.1771766245633718    0.6904287041316379 O
   0.6780090036392158    0.6818324276600958    0.1875734025243276 O
   0.6830388627256062    0.6784391402023235    0.6868861409917841 O
   0.1985672515501950    0.0509878697755097    0.3113075907035959 O
   0.1966386914871559    0.0672840482627900    0.8143804098486050 O
   0.1899385750737618    0.5606950906653329    0.3108314351375826 O
   0.1907364324047359    0.5590958354854513    0.8011633007775985 O
   0.6909385485040193    0.0635546737024976    0.3046730749795193 O
   0.6920869166192732    0.0551466791038189    0.8054357040918734 O
   0.6866191109528040    0.5598198608547653    0.2977089262146142 O
   0.9308045515087370    0.0756975556675335    0.8109203220979553 O
   0.3128387186443777    0.0545484846375429    0.1932220646795288 O
   0.3050745936758962    0.0633073269990593    0.7015835516397763 O
   0.3102862169032120    0.5561720707793265    0.1931441742976258 O
   0.3045331448935253    0.5603991166219741    0.6897032736573152 O
   0.8068729174819437    0.0595532293450005    0.1914617924100745 O
   0.8047158404740040    0.0585020340004864    0.6917542367395194 O
   0.8014086910832385    0.5574763673919250    0.1859340326716408 O
   0.8071996547680962    0.5541178158926802    0.6893349097175618 O
   0.3074812430919676    0.4431087384712897    0.3067881072508361 O
   0.3118064965918247    0.4411420861010433    0.8049384563110455 O
   0.3079470718782419    0.9362839621013335    0.3080086904129898 O
   0.3054616186394249    0.9530652711282863    0.8121185784229209 O
   0.8098355435222350    0.4374287828765631    0.3045663976700987 O
   0.8052772434006614    0.4364616166662486    0.8045078617671728 O
   0.8020111827849776    0.9412766726550077    0.8110618060401135 O
   0.9325328237716051    0.5658298168139028    0.3237328009184485 O
   0.6948724749857879    0.8122959421712954    0.5560608356556441 O
   0.1829502086238076    0.4366254976452312    0.4345769869813493 O
   0.3129364978607284    0.8152366423390310    0.6797593548550523 O
   0.8116906293754687    0.3158833238312677    0.1733726577591131 O
   0.8213828583550545    0.3147498693874093    0.6859346741998189 O
   0.8147391220044979    0.8149107922905422    0.1870338792637548 O
   0.8179832850084326    0.8193529963102053    0.6859744065304425 O
   0.3140397036881437    0.4317793236224224    0.0681298353803412 O
   0.3156700972495413    0.4357817085164231    0.5683885416116397 O
   0.3195423491357087    0.9262783086488208    0.0647844869148654 O
   0.3143341781046006    0.9299815495101439    0.5653149715709095 O
   0.8141772690293009    0.4225338247591156    0.0635384082875098 O
   0.8165324676523035    0.4322274120893715    0.5692359316491871 O
   0.8188422143507683    0.9353415311514158    0.0664511738483944 O
   0.8157684357238193    0.9310285152781841    0.5680514940792537 O
   0.3228684778069769    0.8118833594890457    0.1781897027536873 O
   0.4403597661969290    0.1965313437727297    0.1989620713150737 O
   0.4468424093800958    0.6954775977321647    0.1913495423208857 O
   0.4348141686007597    0.6909723354368899    0.6909628871914805 O
   0.9484354696655143    0.1914787960424927    0.1920347523208726 O
   0.9377108232476598    0.1946508249368939    0.6943807914226986 O
   0.9395721410972054    0.6890382252265278    0.1946898066946847 O
   0.9406351078806025    0.6954711223110450    0.6911711332334499 O
   0.4325196717116032    0.3123427584097252    0.0674592265886753 O
   0.4330012211841449    0.3201902954631722    0.5692953762574338 O
   0.4321527994312949    0.8109490006838511    0.0697787437948640 O
   0.4240759278777101    0.8218555349941955    0.5647604367817795 O
   0.9257533834409605    0.3118999529184029    0.0606639017669460 O
   0.9340595028913403    0.3146993612734336    0.5733203226877601 O
   0.1807444938003604    0.1879009209035566    0.1849727502743225 O
   0.4402512401602390    0.1872716314080448    0.7002010757824380 O
   0.3153094613178720    0.3196860974967647    0.6845422853729063 O
   0.3154958727981203    0.3165800722562697    0.1842397561033595 O
   0.8062070296987393    0.6977005609050431    0.5592044985834523 O
   0.1841666008982706    0.4273033492768247    0.9359833790288588 O
   0.1875408365511152    0.9348813274281149    0.4281955477012938 O
   0.1880754103984304    0.9315161038260242    0.9283187408345726 O
   0.6851400224050657    0.4331990734583320    0.4346998121154601 O
   0.6861041083976589    0.4239222609364877    0.9351266472114819 O
   0.6825852361655917    0.9341818024243590    0.4365463574020405 O
   0.6825305825270438    0.9365614218907236    0.9272067515292646 O
   0.1897772450007066    0.3091861940014141    0.0533516190750684 O
   0.1909627430880681    0.3048181688336309    0.5639157553601981 O
   0.2032077142846317    0.8060845177865992    0.0603934507420652 O
   0.1954716337515329    0.8027097353338489    0.5641235948961403 O
   0.6939211283214449    0.3035781790368349    0.0533264038674637 O
   0.6932241295957507    0.3095001346501154    0.5607988798134435 O
   0.6910041811863010    0.8083740164675328    0.0575187270112047 O
   0.3087742805089385    0.3098606020030134    0.4467442843840221 O
   0.3017860394774129    0.3081119936218229    0.9381498087467299 O
   0.3090481566859152    0.8076196497241493    0.4506250428025398 O
   0.3154165205782634    0.8021156447976852    0.9488227534237518 O
   0.8099514331483783    0.3110620608003782    0.4420481220458887 O
   0.8013235336597868    0.3070104431980695    0.9463870550029676 O
   0.8071161581356205    0.8117857939556141    0.4385072642126663 O
   0.8122198312849482    0.8041366253901926    0.9377078717979546 O
   0.3064339090665317    0.1923948454888304    0.0550335583398173 O
   0.3099022137293243    0.1907265674334200    0.5610725382120146 O
   0.3140888508012945    0.6958008984712677    0.0538898966950573 O
   0.3052587572275517    0.6950748439569485    0.5613328041698062 O
   0.8015833868324966    0.1957495759846369    0.0582852538537500 O
   0.8123600505364204    0.1920068499006805    0.5641911374507447 O
   0.8115218081489927    0.6857867614502536    0.0520893131534061 O
   0.9384139662949050    0.5601011123975267    0.8206087164405180 O
   0.6838165964025955    0.8270244674332476    0.8143994680098378 O
   0.5455337655780199    0.9381756585905128    0.5537331262013118 O
   0.6876841225059755    0.3122764254971191    0.8232596036936005 O
   0.0661497448754209    0.0768995468562020    0.1862167686356556 O
   0.0697762436813504    0.0632016348597767    0.6755531061137486 O
   0.0677643215295052    0.5666863337877260    0.1796037762175788 O
   0.0715686229857852    0.5645415097331744    0.6857342480068432 O
   0.5663100920690434    0.0685143312690510    0.1760642631814925 O
   0.5732732392146365    0.0651845074689455    0.6852770241747053 O
   0.5669025116539863    0.5710378550057323    0.1852707751437458 O
   0.5678618699300603    0.5652971726600928    0.6880082655661419 O
   0.0643381012396330    0.1886583599048549    0.0709819740626392 O
   0.0676695890589688    0.1736761051918913    0.5625294885718558 O
   0.0697039901228145    0.6845536213744533    0.0606423980632526 O
   0.0775185421247882    0.6846920335190749    0.5665494552363015 O
   0.5708063015883384    0.1814062629841071    0.0613601449429918 O
   0.9370187091205979    0.8173236828944915    0.0672732479630206 O
   0.5646660277882939    0.1823101205626508    0.5702453425958895 O
   0.5635694985836104    0.6823828680973388    0.5731226773050955 O
   0.1910878000220143    0.4384962290278598    0.1897854431493578 O
   0.1907388371528979    0.4493057570370463    0.6867583462440149 O
   0.1951038646719543    0.9382952502763141    0.1968224299574736 O
   0.1879131926610707    0.9478684453701215    0.6999405192512249 O
   0.6929954806230478    0.4475562598682063    0.1863586811461802 O
   0.6888800547475855    0.4394455335832335    0.6915208666768501 O
   0.6908616915964277    0.9445789798542422    0.1897623372685426 O
   0.6909886335716514    0.9471032006922169    0.6982489702391281 O
   0.1842943495471513    0.0693694150501957    0.0664508641714831 O
   0.1826129190945899    0.0621248751215019    0.5622352552714446 O
   0.1850164002068213    0.5712967813743907    0.0616837870513070 O
   0.1876678657232945    0.5714736955597922    0.5716359696601224 O
   0.5612684280176021    0.6863260113523557    0.0722300711110491 O
   0.6786459415917138    0.0738436606548498    0.0628597426560235 O
   0.5572418916266796    0.9497553015843692    0.0598701254711422 O
   0.5592865911029082    0.4399019954355594    0.0519705217310958 O
   0.4377510525643037    0.1817491403548058    0.4239989144150055 O
   0.4330047211467703    0.1879034412279841    0.9263298178467220 O
   0.4320627251366845    0.6866009704708604    0.4300504814082804 O
   0.4324001918536041    0.6814269772249482    0.9371285175896589 O
   0.9368004984736140    0.1816145479103409    0.4327841039732104 O
   0.9332629848522533    0.1895592417418152    0.9260396893776349 O
   0.9328280509331357    0.6755139324828547    0.4343982589548446 O
   0.9349088111505355    0.6734429247212022    0.9353903848320571 O
   0.4499115777898612    0.0632906638933220    0.0605020350692472 O
   0.4320414678013580    0.0503221774224095    0.5589949113580407 O
   0.4402136076562785    0.5583224794030519    0.0493087513082513 O
   0.4372620369215527    0.5595844820628747    0.5634349207942276 O
   0.9429737422980670    0.0591585180148569    0.0551592828397149 O
   0.5587561955618985    0.4399469737588114    0.5603576922148430 O
   0.9476025845963177    0.0596651532597397    0.5635584811675576 O
   0.9405546638463951    0.5581812854789926    0.5529623548917848 O
   0.0596990537429433    0.0535508625732955    0.4473845784278624 O
   0.0607950571100430    0.0621014847581031    0.9368564899625879 O
   0.0530921599014266    0.5591968825746439    0.4384733215006182 O
   0.0548908703810494    0.5565349936233344    0.9417971916339662 O
   0.5511120124363771    0.0528299990469343    0.4402451716516207 O
   0.5609775176378133    0.0617448887033291    0.9482992607803575 O
   0.5635763274719712    0.5582900934789310    0.4416318048588468 O
   0.5512241797474502    0.5566314952224480    0.9382533278320104 O
   0.0578903275405667    0.4395739414100242    0.0613542289033149 O
   0.0589819294221966    0.4402852435081306    0.5549243146927189 O
   0.0591694153927489    0.9427259007176956    0.0575618501108670 O
   0.0641883963283532    0.9462062893450477    0.5584347658428984 O
   0.9394694982849717    0.5575557584605432    0.0522707283805640 O
   0.6844276296648125    0.0608718231126186    0.5739184237878210 O
   0.6819511160388945    0.5671484216166102    0.0754227798397086 O
   0.6877904120227729    0.5622339701995983    0.5683182308560869 O
   0.0680248273188083    0.3144666476090843    0.9346408414327163 O
   0.0652516105743501    0.8229444935032921    0.4350255852956477 O
   0.0670592769588762    0.8140379078946690    0.9326940811085063 O
   0.5664062739287861    0.3177447844812625    0.4281855850431551 O
   0.5745505843881167    0.3160519269899937    0.9375491007119349 O
   0.5668602818938000    0.8212552347696914    0.4344434952749771 O
   0.5611485452479225    0.8171285923709735    0.9372079679889650 O
   0.0660311481864768    0.4314522613688900    0.3172137177599588 O
   0.0655738986828949    0.4303423113969758    0.8177812723928212 O
   0.0785075587557430    0.9383968535560996    0.3176767711405411 O
   0.0734438949086514    0.9322197222277377    0.8182405175569917 O
   0.5626655885568244    0.4295677378177569    0.3158140272144348 O
   0.5676576760296966    0.4329255359712993    0.8211365767167568 O
   0.0610289505703336    0.3192176220988419    0.4315053238537625 O
   0.5624657715472806    0.9338221982862173    0.3215668400875822 O
   0.1920811362993094    0.1890709987224853    0.4435694627905741 O
   0.1873879410730405    0.1965600733751678    0.9395249699497092 O
   0.1902113283684621    0.6884364192673942    0.4477641074326456 O
   0.2036613866216740    0.6886710337929578    0.9446695597898354 O
   0.6914099563732472    0.1922354826297512    0.4443966603225606 O
   0.6886519754573228    0.1961874952023435    0.9450054482126375 O
   0.6836303946768495    0.6959041254961927    0.4396262540041193 O
   0.6954071148675934    0.6862609951578225    0.9382127005690050 O
   0.1836156621010941    0.3170880402602841    0.3146475903223880 O
   0.1827800826596144    0.3118079322616775    0.8211612650883000 O
   0.1887887282906553    0.8201029857035826    0.3147750252187512 O
   0.1882555414527043    0.8122139320571587    0.8123332065000796 O
   0.6753686236314106    0.3128869216027546    0.3156080847977983 O
   0.5705978831503508    0.9381728785309263    0.8185492013883259 O
   0.5559328700696449    0.6933267711168519    0.8040162553894327 O
   0.5575290423858584    0.6906872542470044    0.3003907520480974 O
   0.5505525016888201    0.1856787012637128    0.8111508946601834 O
   0.4345350998890623    0.4337801701078203    0.1842115551180622 O
   0.4367902950574492    0.4375472902682240    0.6850249887548808 O
   0.4353826875906343    0.9245253710514334    0.1799185835310249 O
   0.4320075022240649    0.9341863232115217    0.6761659888340316 O
   0.9274819312137196    0.4365193066784180    0.1763671728380132 O
   0.9374256586154458    0.4285769421757688    0.6857009740379946 O
   0.9320858082729966    0.9326743695372705    0.1825963904652369 O
   0.9300759794656978    0.9300419988012798    0.6871348641166768 O
   0.4463338518746611    0.3043317915619311    0.3100112163311133 O
   0.4395248121833472    0.2996402161545253    0.8120466626686466 O
   0.4368046125485117    0.8080318829982291    0.2994633667382243 O
   0.4384410032181249    0.8110848419679932    0.8050477662878720 O
   0.9411431777330702    0.3088219175147202    0.3079525737136098 O
   0.9406073554702724    0.3033790731650922    0.8042522158960175 O
   0.9398615134610966    0.8075789430518433    0.3109515295187253 O
   0.9423613277997809    0.8116196088397125    0.8076298962173135 O
   0.0613151614453671    0.3063844002097236    0.1892639999015210 O
   0.0522331922488682    0.3085148887725334    0.6902751214091651 O
   0.0565129790242866    0.8086002355781566    0.1939595243594620 O
   0.0564663255117802    0.8143841023553816    0.6916794192673283 O
   0.5583170830468916    0.3126995597110170    0.1982031714073635 O
   0.5608642000540399    0.3052610998277325    0.6941723539503236 O
   0.5528672455279284    0.8035245680963125    0.1894828096218625 O
   0.5551322293823933    0.8074884906722419    0.6863424660213191 O
   0.0606089866095175    0.1924914144357901    0.3027082914577447 O
   0.0521435702198617    0.1880360964200742    0.8083418095420821 O
   0.0604117493156269    0.6894145442813892    0.3137843349158366 O
   0.0615709584176029    0.6961065769498149    0.8086822651837059 O
   0.5529867399328724    0.1968246089637836    0.3089010810430275 O
   0.6849480868536399    0.8133323722773971    0.3169342081102537 O
   0.9299067572032147    0.8126649752306886    0.5695653384651493 O
