La6 Sn96 Te96 Pb90 Se96
1.0
  18.9542797380699781    0.0040190338771132   -0.0047222160516175
   0.0053829865620501   25.5040024284140898    0.0112788214760173
  -0.0063459097960037    0.0112104418192603   25.0559772190649213
La Pb Se Sn Te
6 90 96 96 96
direct
   0.3106559155619237    0.6419148532533206    0.8766131532963296 La
   0.6724580448357779    0.7377477714774457    0.7425947073981536 La
   0.5218881349294610    0.3566349261990166    0.2701184095741256 La
   0.6604524963537601    0.1181785849125669    0.6360874665840891 La
   0.3458311298309980    0.3590635170445493    0.6310594873589008 La
   0.6859055988498352    0.4931588390480572    0.4991702005301209 La
  -0.0139551125672821   -0.0103947154595145   -0.0064162000398146 Pb
   0.0095837041468152    0.3768056278597895    0.1210339568419406 Pb
   0.8375086957339560    0.1250879089332605    0.7500199124481577 Pb
   0.8252734116247795    0.1295986157699726    0.2544393799804303 Pb
   0.8275128299846354    0.1191891230900285   -0.0076899367829197 Pb
   0.4970355806721368    0.8879797742056352    0.7465771976144358 Pb
   0.5088912425811875    0.8863618907987603    0.4930802770097734 Pb
   0.0103822276254135    0.3727481232292248    0.8773767315333102 Pb
   0.4887598598556686    0.6206977032389270    0.7478768234150118 Pb
  -0.0052455732929601    0.6129250485106895    0.6302198594892476 Pb
   0.0066401933908523    0.6202508012756405    0.3754768110943516 Pb
  -0.0105900821776680    0.1191251082838159    0.8708863856718355 Pb
   0.5002420755352669    0.3771660459504844    0.7550635625035511 Pb
   0.5103842786027151    0.3668774871095937    0.5132924503143681 Pb
   0.5081006371420521    0.3871978202624780    0.0094006883904435 Pb
   0.4989507823093878    0.1192442834495130    0.4982947126094456 Pb
  -0.0060758194199719    0.8753683565774705    0.1189192300130588 Pb
   0.1676164461113543    0.8765616571921125    0.7484514072587025 Pb
   0.5093963452096254    0.4956648851232084    0.6361326937526814 Pb
   0.1594933978514902    0.6241457765785842    0.7407641870040270 Pb
   0.0086752305790071    0.6274469519503227    0.1220122365228324 Pb
   0.8411902647678396    0.3749485651307557    0.4942803810143037 Pb
   0.8323815462405857    0.3808967194607473    0.7423772917457058 Pb
   0.8325105639349578    0.6230431578972485   -0.0012190865969709 Pb
   0.5149091913873201    0.5192867528443247    0.3815910510217271 Pb
   0.4975582758775616    0.7341224550888903    0.6216983921401344 Pb
   0.8252419153896462   -0.0032639320092117    0.1195167618702357 Pb
   0.4979777595946609    0.2482691264485258    0.1261529292326364 Pb
   0.8235079761561855    0.0112849343978600    0.3774973999113040 Pb
   0.4831388716451533   -0.0021265333339574    0.6265621977988776 Pb
   0.4944617532372053    0.0058380068129980    0.3731915439934393 Pb
   0.1557564550327590    0.7526575472384556    0.8599028433737027 Pb
   0.8192501504424125   -0.0007701098132688    0.8714100586348564 Pb
   0.8262926987576366    0.2497504621258236    0.1265666576452658 Pb
   0.1684432873632625    0.7524775760021518    0.1168510631272855 Pb
   0.1810636185346688    0.6189858474393450    0.4988383562081998 Pb
   0.8195101348297719    0.2526511047283203    0.3668919207261952 Pb
   0.8261191359043455    0.2432615863399695    0.8711459139197865 Pb
   0.1794254322233866    0.2548482812724754    0.8769738434069068 Pb
   0.8427050641915924    0.5064306524430762    0.1276047018867809 Pb
   0.1431287865940670    0.2476806886131265    0.3810610288029504 Pb
   0.1537943113716025   -0.0093085315042718    0.3797294292260909 Pb
   0.8357706052219287    0.7621810282987385    0.1369924457144771 Pb
   0.6657052243003510    0.8675861884051451    0.6128953451700326 Pb
   0.8352786959260228    0.7478921987851630    0.6146655809271653 Pb
   0.8419998161962852    0.7389280315860658    0.8730166664786169 Pb
   0.0006106757200097    0.1167569612700810    0.1293372831712689 Pb
   0.0133101540345976    0.1213587044860935    0.6307788004637978 Pb
   0.1659409306696467    0.4872499527451227    0.6239416825726907 Pb
   0.1806632662355702    0.6166361880179524    0.2453318137333799 Pb
   0.1760234503169170    0.8711731031132866    0.2418700981276808 Pb
   0.1670073078504339    0.3765882419839272    0.7507759521464982 Pb
   0.3435327204145203    0.8741525085490145    0.3665240003505503 Pb
   0.6708934508443052    0.6373878357435023    0.3713088553412767 Pb
   0.3280035964365156    0.7518812276145440    0.7442297236933499 Pb
   0.3559509349030995    0.7470977212379034    0.4994316441244785 Pb
   0.3366788263685488    0.7503522280517519    0.2483114087631807 Pb
   0.3224675652795427    0.8667160985368492    0.6270554036519607 Pb
   0.3231122174273682    0.5086667150992682    0.7605554512294350 Pb
   0.3467553314318030    0.4962856349278494    0.5037468153575002 Pb
   0.6675554613480488    0.0059985143488037    0.2474908556550842 Pb
   0.3419261739258570    0.5054270540577384    0.2603226700474476 Pb
   0.3445621433362819    0.5072554207725340    0.0043827082699117 Pb
   0.6667761625961267    0.3757347990681063    0.8746471316086070 Pb
   0.3310664455546076    0.2468604802842603    0.5052933123906644 Pb
  -0.0092855105242211    0.5027102720444242    0.7495712562350216 Pb
  -0.0091296163203229    0.7514417550058085    0.2476383677957869 Pb
   0.6548796230766138    0.1273507318893937    0.8757457523692513 Pb
   0.0054783395736070    0.7504373107179795    0.5013323833510357 Pb
   0.6828882204542245    0.3825554248057960    0.3806817271862165 Pb
   0.6688354911067247    0.6273190174946982    0.1243581423684235 Pb
   0.6709783270250399    0.3681944612689519    0.1260720030039319 Pb
   0.3334930192602396    0.8784818810227014    0.1248236340530693 Pb
   0.1687847424315451    0.1260412125207338    0.2553285726656601 Pb
  -0.0044096024615085    0.0028854785867329    0.2510318693534868 Pb
   0.1775452276752157    0.3692918596206603    0.2575668334484351 Pb
   0.1678253483674762    0.3704367596816082    0.0060017527243381 Pb
  -0.0025401324670279    0.0027104372435051    0.4968240884447280 Pb
   0.3390706509489397    0.1204509052253596    0.6328595522143728 Pb
  -0.0101594237789173   -0.0104321682280443    0.7526615757046159 Pb
   0.6758685205940868    0.2510305461211285   -0.0037433545678435 Pb
   0.6672962802184755    0.8959511871474132    0.3701849991719058 Pb
   0.3279282689352561    0.0030974562065388   -0.0105128653831964 Pb
   0.3291300176065792    0.3823844900155511    0.1366490122651137 Pb
   0.6587784157705981    0.7502909978048415    0.2420479348799459 Pb
   0.3429632694643828    0.3757024387586184    0.3907180378603951 Pb
   0.6859890209051184    0.5083156862473442    0.2568485513483491 Pb
   0.3273778153172264    0.3998550935001871    0.8841182806814057 Pb
   0.6617102751109140    0.6204846959170507    0.8756638857162652 Pb
   0.1708936454080603    0.1201512900164235    0.0094135507169633 Pb
   0.5054042115928767   -0.0000135244636104    0.2485387363428006 Se
  -0.0113522361660909    0.6218905956600246    0.7497332675379363 Se
   0.0029197107373577    0.1221805159300092    0.7500294130701161 Se
   0.4824320545518186    0.0010538551574543    0.5038204470399260 Se
   0.1699726146868586    0.7512306760653276    0.2410786575493125 Se
   0.0070364565999999    0.3721631214035561   -0.0009661243207372 Se
   0.1664261051495426    0.7481137623892743    0.7405855954612096 Se
   0.1630663200685466   -0.0083337967975053    0.5036741567712938 Se
   0.1766658946273146    0.4945017831772394    0.2511271950625034 Se
   0.3329828109491437    0.8790221215305200    0.7472081885955966 Se
   0.6592825821710934    0.1311591420286208    0.7542043594528709 Se
   0.6735172886610784    0.3744291276815352    0.5046973910277232 Se
   0.6708517375093815    0.6258051791311091   -0.0015187905603632 Se
   0.3405975718767482    0.8796846521631644    0.2460304028748841 Se
   0.6676110856887117    0.6290283633655740    0.2519229650178199 Se
   0.3241073044034253    0.6279572920009694    0.7551917035986069 Se
   0.3430730900978568    0.6268923184688922    0.2551400594216083 Se
   0.3435310520082322    0.3698226371431392    0.5122535504706073 Se
   0.6628813275649100    0.6222315644104337    0.7495922691847189 Se
   0.6772739422247147    0.8854143694017069    0.4909893485404621 Se
   0.6615915746389884    0.1268431475676729    0.2580859773130906 Se
   0.3332056442785892    0.1292837985886535    0.0037590246425452 Se
   0.1542212042405978   -0.0038642917341651    0.7493901304040745 Se
   0.0003867074807255    0.8670926313676729    0.7532793904877215 Se
  -0.0047909275695125    0.8699634028840323   -0.0034730043733403 Se
   0.1559553262244118    0.2481010716521769    0.2584510413560042 Se
   0.1603164953995865    0.4994127151463624    0.7464989708616572 Se
   0.5010757974799747    0.0079936307651392    0.7489394416622583 Se
   0.8382185002479529    0.7557528544007194    0.4919083106945250 Se
   0.4966810529848952    0.2458451170428775    0.4961126977555252 Se
   0.6590351741101962    0.0026440882085382    0.8756507806335694 Se
   0.6630211467768788    0.2456911989695201    0.1293238560135778 Se
   0.6208434931420291    0.2766480179227182    0.3548318767115693 Se
   0.6577884198431412    0.2350249079729136    0.6270282966874585 Se
   0.6619507236319188    0.2493405318948436    0.8733300511985587 Se
   0.6880742373563659    0.5026244522148762    0.3803639657756557 Se
   0.6530145979435042    0.5009344881130885    0.8758769229275810 Se
   0.1623922382710205    0.1212449142758754    0.1318019627770264 Se
   0.1753432486672509    0.1118885007014974    0.6286701899306858 Se
   0.1699124567430534    0.3764123626126082    0.1307758449956536 Se
   0.1807587647117695    0.3675374135870944    0.3826486908615133 Se
   0.1866394188970212    0.3655962983583005    0.6266010867199695 Se
   0.1701417723738061    0.3855108254010311    0.8755884388993602 Se
   0.1767371516594136    0.6116354417735429    0.6213774576280933 Se
   0.6578239206945091    0.0155112061131169    0.3781192982246595 Se
   0.1552650189500684    0.6220049668031532    0.8585821985900214 Se
   0.4907308979515768    0.1250909437080690    0.3733740568280609 Se
   0.5034449256853971    0.1200130784747837    0.6279181351828576 Se
   0.4890880506454649    0.1381682899109098    0.8754027816365400 Se
   0.5045785311243945    0.3701028155489572    0.6317458780129025 Se
   0.5083064549906564    0.6382709031571516    0.3771732483441825 Se
   0.5073293524258813    0.6180587663390817    0.6313533871808533 Se
   0.4984847941855169    0.8815370149606857    0.1224186542308509 Se
   0.5045234530317294    0.8854196579234404    0.3709675751755876 Se
   0.8106923329542037    0.1332252358227392    0.3765173314918736 Se
   0.8243665644649398    0.1210905701854780    0.8711688577768504 Se
   0.8333013870982744    0.6196474731811789    0.6268010737247913 Se
   0.8261603925994904    0.6195968331839521    0.8737728041312549 Se
   0.8297651054470434    0.8805766436622237    0.1237445461919626 Se
   0.8309767283900208    0.8914751520765173    0.3701834802850778 Se
   0.1611149085908027    0.8723762499916625    0.1180868576272465 Se
   0.4928957948888156    0.2443394182465476    0.2481103137779279 Se
   0.6606954129182772    0.0050972577626730    0.1247087055772303 Se
   0.3359460377011027    0.7360620180796064    0.6226208937928482 Se
   0.4923846490420141    0.2511629333168359    0.7402389844757246 Se
   0.5084390690479114    0.5060031883565890    0.0025695055140332 Se
   0.4945134532154807    0.5010161401952185    0.7585041339689423 Se
   0.4977670128621416    0.7586141116006964    0.2494315124097817 Se
   0.5205957270730662    0.7618696805665249    0.4888507555465147 Se
   0.8265680408878597   -0.0007775959900214   -0.0039403568342396 Se
   0.8321470558284030    0.0044498326686218    0.2491256513186712 Se
   0.8318374416757737    0.0075641049301419    0.4983306216542440 Se
   0.8373214106795037    0.2506430136627103    0.2476920224347208 Se
   0.8070526866835664    0.2536923066035084    0.4876832276129361 Se
   0.8329865439155567    0.5051550330562469    0.0012861621942289 Se
   0.8471421296537535    0.5103267743623535    0.2501110361038245 Se
   0.8421816263442251    0.4957221239604522    0.5066041224255471 Se
   0.8247557564593290    0.5013400242029585    0.7553230554825126 Se
   0.3310060515327952    0.7583601552064815    0.8613055992970836 Se
   0.8296559187507930    0.7518120723290299    0.2561118394838423 Se
  -0.0104784687545977    0.0053656128754308    0.3751491801719176 Se
  -0.0149558525197395   -0.0009281931634640    0.8692335024737008 Se
  -0.0181441246941209    0.2472759199380862    0.3806867931150865 Se
   0.0041830614490620    0.5021789590633358    0.1208922967711873 Se
   0.0010634541258718    0.4915903445620980    0.6281536066485589 Se
   0.0039799179287326    0.7530359255634654    0.1230197616158501 Se
   0.0010726463902387    0.7435156443031659    0.8804448916024545 Se
   0.3234353213202072   -0.0104016394019683    0.6304597161526957 Se
   0.3273963058402916    0.0034560669148342    0.8687738834024294 Se
   0.3403105538328475    0.2419319414940369    0.6271072000973695 Se
   0.3409299642330356    0.2546778794174657    0.8799195709324836 Se
   0.3413842147038715    0.5007697550992217    0.3809478798498923 Se
   0.3275202847614858    0.5221870863188726    0.8811666835171943 Se
   0.3368039064961555    0.7583062274440183    0.1280824739882560 Se
  -0.0040300980597039   -0.0029116079177958    0.1227302981939365 Se
   0.8281514730616071    0.8691718102288509    0.6192075528483172 Se
   0.6717036450305177    0.8784604061534227    0.8631744212202842 Sn
   0.8346800357935532    0.8829948372589735    0.4919159399532556 Sn
   0.6742359712255643    0.5068499731255375   -0.0047585892351965 Sn
   0.1600207734247084    0.4885482138757269    0.1359767542165039 Sn
   0.1850540722924489    0.4856259486217322    0.3703047160144380 Sn
   0.6447813956271216    0.2500018217344627    0.7490660520139478 Sn
   0.1467703026721380    0.5004074617410860    0.8620850808873076 Sn
   0.1635515201852626    0.7442256596787487    0.3512212554026935 Sn
   0.1791457724641949    0.7284091120306995    0.6215716442065282 Sn
   0.5016365026872450    0.0005048719111386    0.1284877810115650 Sn
   0.4782729860722130    0.0225451639555684    0.8639764469722007 Sn
   0.6503156731174428    0.2579592465719250    0.4743418048064063 Sn
   0.4798738125538422    0.2384521512542904    0.3739786051229620 Sn
   0.1769518449624420    0.2355629583424481    0.6286344372821299 Sn
   0.6530397943701074    0.2408555342332157    0.2455988512972341 Sn
   0.4980385274795818    0.2370087569489827    0.6156744308532121 Sn
   0.5062078528396158    0.2559672999462974    0.8669854717637470 Sn
   0.5055636094934712    0.5058203969345542    0.1350622970570847 Sn
   0.4856176000160049    0.5156412531779770    0.8780591967130296 Sn
   0.6767914212686855    0.0038243170337059    0.4965599629771237 Sn
   0.4954636576372643    0.7644095362072925    0.1249392400967882 Sn
   0.5011641915177077    0.7683992424239262    0.3701200780228077 Sn
   0.4779560659412408    0.7665655731193740    0.8730488965179862 Sn
   0.4987475391514848    0.1348402389594853    0.7523836201069923 Sn
   0.8150086027948310    0.2484157856809342    0.6067318019879173 Sn
   0.6669402143907739    0.0018288061760374    0.0020893277651569 Sn
   0.6527880713232973    0.0132603100699683    0.7681579102283956 Sn
   0.1575505391380058    0.2379827329970313    0.1415338357243985 Sn
   0.1395945266230447    0.0029337308675511    0.8674388292525279 Sn
   0.1665071505505755   -0.0070269759800610    0.6254739790004158 Sn
   0.5147526043167573    0.6160800273411317    0.0068757808268083 Sn
   0.4903139633048719    0.1188314987091684   -0.0071239302165474 Sn
   0.5006388788217103    0.6393783918636672    0.2588594692916287 Sn
   0.1685825659654757    0.8733645373834241    0.4999456404047892 Sn
   0.5218171352048191    0.6475984353164527    0.4941413964241573 Sn
   0.4884947094145047    0.8755884840148072    0.0026564789292179 Sn
   0.1536849632796946    0.8694740963479465    0.0011114354650398 Sn
   0.5009895148755559    0.8783748227996302    0.2450795814090819 Sn
   0.8247173765174837    0.1329681494355828    0.4968358714763195 Sn
   0.1550632870662163    0.6103504124527989   -0.0218263361934085 Sn
   0.1850083118717372    0.3669102830669269    0.5050694550127255 Sn
   0.8527784302352338    0.3935564557613808   -0.0081057450998983 Sn
   0.1617603613717390    0.1133017960674571    0.7474063432126135 Sn
   0.1697163823943258    0.1080888245439976    0.5095235862371008 Sn
   0.8493240741846905    0.3664301975264216    0.2428349287858254 Sn
   0.6820288358243120    0.7680056570232712    0.4870003702617664 Sn
   0.8266095995691136    0.6216043229826553    0.2580810496585087 Sn
   0.8373396572945253    0.6413493672539986    0.5101480944943239 Sn
   0.6826404944636942    0.7451744777878230   -0.0063747332669040 Sn
   0.8244636417876378    0.6111376657002590    0.7525467938048115 Sn
   0.6537251602084921    0.5048107760050906    0.7589783781448848 Sn
   0.8286479787210592    0.8813160556487020    0.0036127162643794 Sn
   0.8338783512160505    0.8939336470732336    0.2459895923947999 Sn
   0.8426986468812845    0.8683954703164473    0.7390763711336266 Sn
   0.1491867547163466   -0.0095727324535494    0.1245339632992630 Sn
   0.8470606947782301    0.5069138295746995    0.3863766686650574 Sn
   0.3473787978446689    0.7514033501457988    0.0096980856546537 Sn
   0.8266259879199136   -0.0138931909654201    0.6148762669451852 Sn
   0.3375419132593569    0.2447425775991276    0.7613279771604371 Sn
   0.3186851535646903    0.1342925278828353    0.1229495685982353 Sn
   0.0099165470706439    0.7430640825773829    0.7522987174907426 Sn
   0.3219868849113768    0.1140009709694663    0.3773887083191579 Sn
   0.3300804426107293    0.1340196794670490    0.8840832606657238 Sn
   0.0086841417799535    0.7544302911633319    0.0057636620520489 Sn
   0.8431335710353141    0.5038065911486670    0.6309572289574956 Sn
  -0.0024874411020271    0.4951996471138472    0.5088700162749767 Sn
   0.3472332523749976    0.6177734884847188    0.3748171049578360 Sn
   0.3316649257194409    0.6189987705469945    0.6313257964721454 Sn
   0.0023502424062630    0.5059964784209660    0.2415254813297647 Sn
   0.0089214957498617    0.4903353883101608    0.0035211964186300 Sn
   0.3360436537765090    0.8874808014988331    0.8645071065592346 Sn
   0.6597695011620291    0.1262720492934646    0.1365461283797465 Sn
   0.6482639204653565    0.1329616533700546    0.3775385700260510 Sn
   0.6621735939940383    0.3474794180879840    0.6221339869024188 Sn
  -0.0114971839465663    0.2395527040201268    0.7493490216116944 Sn
  -0.0318439975289777    0.2507211346949155    0.4982867372135509 Sn
  -0.0034895238573157    0.2547038547935474    0.2625122989333595 Sn
   0.6640168167033481    0.6129880137504745    0.6297011124159964 Sn
   0.6577498295632350    0.8887071226290960    0.1126420958300813 Sn
   0.0085303881203043    0.2426936158923572    0.0033952645388364 Sn
   0.3482330034332031   -0.0039202457614412    0.2383905361815086 Sn
  -0.0044007103453513    0.8603159257436123    0.8745764283455079 Sn
   0.3380653692788089    0.6395869223480900    0.1343286431234910 Sn
   0.5031606514820134    0.1197980688463402    0.2498321202721943 Sn
   0.0236847480604907    0.3743062376422390    0.3765438533719589 Sn
  -0.0331161839372775    0.1266237584351771    0.3816096022680909 Sn
   0.3154773940891704   -0.0030227608665153    0.7504080793113940 Sn
   0.8393781206244593    0.7751959190669603    0.3675141428327163 Sn
   0.3495804932477087    0.2463634652155830   -0.0086691271237700 Sn
   0.0290942262935771    0.3677706903651629    0.6244647989475038 Sn
   0.3336121369762251    0.2458432065476865    0.2551950919996369 Sn
   0.3253878476995557   -0.0049819745757176    0.5117163488155979 Sn
  -0.0114846982559054    0.8883301558813536    0.3734799661032600 Sn
   0.8118705571097884    0.5037428070419626    0.8773757056981619 Sn
  -0.0089582054376521    0.6259444959151279    0.8658734621918368 Sn
  -0.0159232380813560    0.8670446222513181    0.6363335260661176 Sn
   0.4968683570330398    0.1231368689675309    0.1242127515458411 Te
   0.8499943408634808    0.3781392787985923    0.3674349886020576 Te
   0.1639533036790255    0.8655763985563394    0.3715983627447785 Te
   0.8359736199558075    0.3632591459902312    0.6179830777443261 Te
   0.1521649660654469    0.8711547289859550    0.6231559837875962 Te
   0.1795066791551250    0.6201082867096859    0.3715072059884332 Te
   0.8370395593949751    0.6331957847740621    0.1316930348417781 Te
   0.6576501562202371   -0.0078113234145053    0.6166075402194691 Te
   0.1796727129731037    0.6287985687070733    0.1207248673476092 Te
   0.1608640032521223    0.8768860634715923    0.8751124497724430 Te
   0.8362709709156376    0.3756512239128982    0.8731959441874322 Te
   0.8371268723252357    0.6270013115375686    0.3794647482887670 Te
   0.4982025506028616    0.3817871759376367    0.8813334325750329 Te
   0.6664046256978767    0.5030872204291602    0.1237180469353625 Te
   0.1589901915556410    0.1183911901777656    0.3859664158355232 Te
   0.1681903136327120    0.1212700202211193    0.8755714569322839 Te
   0.4887560099890874    0.6329932399926406    0.8745275201115443 Te
   0.5077387080501550    0.3937716704442432    0.3922170014956650 Te
   0.6718443681887458    0.7465498119139024    0.8720632546111468 Te
   0.5043741382541371    0.3757372826002847    0.1392851434582176 Te
   0.8419223642462822    0.3785530848394711    0.1180803214172680 Te
   0.6685080694272552    0.7411868823432098    0.6133756928327925 Te
   0.4928491282809636    0.8664365770972221    0.6209610082038826 Te
   0.6663916407034984    0.7575659885598015    0.1155160069578054 Te
   0.4985074782118395    0.8845912078677960    0.8717313912888833 Te
   0.8243843593827715    0.1232082584965629    0.1263971054521792 Te
   0.6796658978339394    0.4964877245977176    0.6297444449416624 Te
   0.5019055405648003    0.6351692446384415    0.1372845165235533 Te
   0.6709743393811729    0.7640866819870343    0.3683232403783980 Te
   0.8320095344344109    0.1288249717137666    0.6209334865708382 Te
  -0.0036056378455896    0.1292752208283910    0.2601870870739197 Te
   0.3392999547394688    0.4902836674844222    0.6332492262896461 Te
   0.1574688811858941   -0.0077186591833596   -0.0031933982990617 Te
   0.6712764478787860    0.8668954171948906    0.7448928572985752 Te
   0.6662965008888074    0.8803465054075528    0.2402027497651641 Te
   0.6702533023744702    0.8784171697224091   -0.0083884013079151 Te
   0.6780727535107457    0.6223164740543035    0.4996580196967320 Te
   0.6657788852336161    0.3718721318288041    0.7460550220218803 Te
   0.6892380042784326    0.3791518890359641    0.2503642023120494 Te
   0.6780749636934069    0.3798424607944740    0.0003883961755637 Te
   0.6631045342697801    0.1305291325805101    0.5043303701299644 Te
   0.6600274829011470    0.1234651206744264    0.0030781141318819 Te
   0.3305718018607837    0.8725420089949837    0.4985613218523628 Te
   0.3245014206050700    0.8738413471821953   -0.0043475974334949 Te
   0.3542109653136765    0.6227518541173406    0.5034575900265924 Te
   0.3567229936034151    0.6302630908627960    0.0040487569012435 Te
   0.3334212092605626    0.3745310228877791    0.7601199878318048 Te
   0.3475468553509355    0.3727573380718452    0.2646200026695275 Te
   0.3376640207976178    0.3752899268056511    0.0074670152455240 Te
   0.3365787442540427    0.1219456912435835    0.7571116223266841 Te
   0.3311539244680021    0.1197495426233634    0.5055510792244666 Te
   0.3370238448030241    0.1204472879926566    0.2515903185272104 Te
  -0.0065482401670463    0.8767338968398548    0.4962266123717292 Te
  -0.0040804617928396    0.8770075628621632    0.2496664472060726 Te
   0.0024432803764957    0.6168689576739024    0.5038533610806939 Te
   0.0086292250111646    0.6255894307476221    0.2482089159915338 Te
   0.0021930149087672    0.6256210066503223   -0.0034903101595500 Te
   0.0014919394832810    0.3730650821363676    0.7451979036662324 Te
   0.0105504894187777    0.3696539240119195    0.5005679843113240 Te
   0.0106611383374164    0.3783011397790867    0.2491779364485781 Te
  -0.0080026571747843    0.1303925959275170    0.5013211456018094 Te
   0.1690675443403687   -0.0025756633623328    0.2464328043331322 Te
   0.3363522969253190    0.7468317058030548    0.3736365025036265 Te
   0.1700833762741386    0.2454571040418421    0.0043198743740493 Te
   0.1774893426337879    0.2457974680229454    0.7490101755369339 Te
   0.3458188959827588    0.5075526885430653    0.1323006960172809 Te
   0.3203607659372718    0.2423743948217882    0.3764500780242912 Te
   0.3223811720950439    0.2531944391593352    0.1353661976698445 Te
   0.3259136569487731   -0.0022174858096826    0.3779763209655729 Te
   0.3262018714652787    0.0033490993972128    0.1194835228289965 Te
   0.0028363870071863    0.7426344211035304    0.6291068965578706 Te
   0.0034556344693217    0.7503546382531298    0.3746459923576426 Te
  -0.0083924773231860    0.5004055137370229    0.8796139209896300 Te
   0.0107335723698366    0.4938681065349153    0.3725092458036320 Te
   0.0075482819649345    0.2465670815607707    0.8717358816421642 Te
   0.0074316059760021    0.2472167238062010    0.6292018278276316 Te
   0.0011209991179154    0.2471937583020042    0.1261767436238029 Te
  -0.0111622883934508   -0.0060500615325873    0.6254238396105536 Te
  -0.0004410017924521    0.1197698772696359    0.0010195108479355 Te
   0.8428814404212324    0.7471060911569521    0.7446662403288761 Te
   0.8456787856636577    0.7534468960472958    0.0022196635824642 Te
   0.8299804975154791    0.2484648018970223    0.7454347829746059 Te
   0.8461459773420437    0.2492378676702940   -0.0031645216545328 Te
   0.8115543962602637    0.0016174510058175    0.7398933007626233 Te
   0.5017793654835448    0.7516390705211334    0.7481304122804359 Te
   0.5074935635898244    0.7571567811559494   -0.0029102339626583 Te
   0.5141882570550048    0.5045246133737553    0.5085468628827660 Te
   0.5141050335358619    0.4916932022065494    0.2582427231335841 Te
   0.5068255179718648    0.2538096569768875   -0.0009322347824644 Te
   0.4961076690302553    0.0012541144134563   -0.0053906342210781 Te
   0.1749847720810418    0.7438755288681052    0.5041244033860884 Te
   0.2015520212398352    0.7217301345385304   -0.0247316133087096 Te
   0.1745563321226768    0.4900719691999310    0.4965068764423938 Te
   0.1713222785371704    0.4971628165060819    0.0053356087946926 Te
   0.1625201173028300    0.2436429446281148    0.5089194850701592 Te
   0.8366269117995103    0.8714582010789989    0.8687690910224124 Te
