Hf39 Zr38 Ta38 Ti38 Nb39 C192
1.0
  13.5985535884506348    0.0001389655650171    0.0002012703554514
   0.0001852841230040   18.1321424459829643   -0.0011511406584229
   0.0002683583604661   -0.0011511748522551   18.1292018637153269
C Hf Nb Ta Ti Zr
192 39 39 38 38 38
direct
   0.8318360501985743    0.8731814025741824    0.8753754183034542 C
   0.4965389120165400    0.7499998591650252    0.2490222843994447 C
   0.5025579731100903    0.7504575391737223    0.0022556595820789 C
   0.5022606366268246    0.5008399456782366    0.7491309118619343 C
   0.5036514171249242    0.4950850829494756    0.5019940854915796 C
   0.4983817398683527    0.5019046141162450    0.2449384319470588 C
   0.4988084057141134    0.5017365685430828    0.0040929256730402 C
   0.4961293917237667    0.2445548758855475    0.7500214929786257 C
   0.5039357820953426    0.2518400228715407    0.5003752790237104 C
   0.4997000775428610    0.2495085377319879    0.2495166241059481 C
   0.5014192197496780    0.2490720664081881    0.0003370555222794 C
   0.5035958119023041    0.0004995835492988    0.7515286086471995 C
   0.5054376974537326    0.0014596558934892    0.4989840181641235 C
   0.4970934960486385   -0.0010198735396853    0.2488487319578716 C
   0.5022302133245595   -0.0013196735480732    0.0003485975252456 C
   0.1685608967205555    0.7519199890730945    0.7560029235675000 C
   0.1680165796107785    0.7526995681906066    0.4987524575848566 C
   0.1720575881354689    0.7500830632611811    0.2488154755427060 C
   0.1648951219038048    0.7500618268368021   -0.0039937559495629 C
   0.1653390986508766    0.5041329685604260    0.7530821622315834 C
   0.1693317536733051    0.4964301106565474    0.4991532930124283 C
   0.1654637085589548    0.4972971676981724    0.2466559301938664 C
   0.1671769875509579    0.5007332293213648    0.0016822906813127 C
   0.1703527960568997    0.2462351924344215    0.7508236204866329 C
   0.5046049662954964    0.7508509652339310    0.5004028888842661 C
   0.1624629698955840    0.2531065304433349    0.4963853313127484 C
   0.5002634006575800    0.7539059924891024    0.7488714005916062 C
   0.8339979457984170   -0.0014067488174461    0.2540742907070785 C
   0.0023498270431079    0.4965368181681685    0.1229446859846533 C
  -0.0039781436614507    0.2483530259770894    0.8766213922891635 C
  -0.0061917752160952    0.2495299047447182    0.6230421452381489 C
   0.0000285592557881    0.2494334545425169    0.3752317953688085 C
   0.6698712306279203    0.3736517521871038    0.2479978162924901 C
   0.0032214330098324    0.0003585405046559    0.8776118726076544 C
  -0.0023805095304558    0.0016047429764590    0.6248935478512857 C
  -0.0013316156828960    0.0002482423136019    0.3725423787871091 C
   0.0051515651508276   -0.0014260023998159    0.1246805457417434 C
   0.8309192117037754    0.7488707992169121    0.7552548794244941 C
   0.8280437403587412    0.7527627607587323    0.5009011721531489 C
   0.8327001200643325    0.7495891274718954    0.2468378348881671 C
   0.8307838071360973    0.7481146441793082   -0.0029931552458686 C
   0.8328661672836748    0.5004773534318813    0.7526994949472162 C
   0.8269422694811708    0.4999448373220891    0.5009308390717571 C
   0.8360570854047100    0.4985116981352930    0.2484152230771203 C
   0.8332295096068114    0.5021386809120105   -0.0022882312843851 C
   0.8332661977221466    0.2470931331638742    0.7492439033911680 C
   0.8334180252847211    0.2468574070736407    0.5018024884869269 C
   0.8348620060425959    0.2520385001465520    0.2506921622811225 C
   0.8332555424291052    0.2499915900584546   -0.0022963388509620 C
   0.8282523914074224    0.0046297834945498    0.7469138694671844 C
   0.8268377199573412    0.0018725502601266    0.5000120630006609 C
   0.8330584586993101   -0.0002804085747615   -0.0017602917233783 C
   0.0001148861704063    0.4940276267111845    0.3724390598489784 C
   0.1644692341018441    0.2494753131219991    0.2509906864613789 C
   0.1678322439118120   -0.0031657803798688    0.7531772657168009 C
  -0.0006343922031259    0.8755700060449113    0.4957474176805342 C
   0.0065263440495977    0.8722455011460909    0.7536423395553749 C
   0.3302414093152847    0.1253277729347115   -0.0060473361887429 C
   0.3285666623539862    0.1222546276862987    0.2503579538846799 C
   0.3346450081906949    0.1244704618616024    0.5037063977418641 C
   0.3361946579666345    0.1273266800021138    0.7518975101870307 C
   0.3316578266162422    0.3765481716973474   -0.0022657557419903 C
   0.3293806041868944    0.3747258127201215    0.2527537863378905 C
   0.3337560366731997    0.3761033777574011    0.5006149930563156 C
   0.3337686864807116    0.3720336577633469    0.7489232946004485 C
   0.3328881230672416    0.6242854886566847    0.0007330516125766 C
   0.3352289339058737    0.6268686972242609    0.2451879191515054 C
   0.3330454071447358    0.6240869760861558    0.5010767481001419 C
   0.3305079598890704    0.6290367752224852    0.7526322993880332 C
   0.3333325204634242    0.8738851373371956   -0.0019788475564064 C
   0.3354140422966150    0.8753112024716460    0.2488627694200687 C
   0.3305139002447924    0.8756010541046539    0.5004424868460189 C
   0.3332290436451416    0.8714763725644250    0.7521874400488496 C
   0.6650616365981563    0.1239233934481104   -0.0033254411108275 C
   0.6664589022541645    0.1246250856508931    0.2468767424883181 C
   0.6709096040719016    0.1234001668379578    0.5022592585627385 C
   0.6650197307662177    0.1219481163302255    0.7524119618943609 C
   0.6664470280736710    0.3754268086148141    0.0006042627279410 C
  -0.0017061714624286    0.8780910288953909    0.2499206114771994 C
   0.1655179748634665    0.2492169806563079    0.0014236472869189 C
   0.0025424668844594    0.8751658451302158    0.0001479746513955 C
  -0.0021601389856372    0.6259890701999030    0.5033887600344746 C
   0.1672808356790073   -0.0022670614527995    0.4992872342583443 C
   0.1680283602098182    0.0035056939949587    0.2476012960469809 C
   0.1642888112942389   -0.0000405825620763   -0.0002763602574424 C
   0.6608004591229042    0.8749284867863659    0.7548965359769904 C
   0.6702742270208016    0.8760123297360396    0.4990465146967658 C
   0.6668367620485623    0.8763630071786027    0.2512563700302834 C
   0.6628463019776883    0.8729295418375197   -0.0054789802920019 C
   0.6687027525799965    0.6272180794325983    0.7497681411442173 C
   0.6700069929691944    0.6252487352746061    0.5058642180435039 C
   0.6654245016055363    0.6253313411652567    0.2475695473410462 C
   0.6667629879295744    0.6272031151217801   -0.0027455824849816 C
   0.6694748052853502    0.3772923134855817    0.7475654121859647 C
   0.8335699090634886    0.8812647881423210    0.6222337228785556 C
   0.0042694342147575    0.1253040193614612   -0.0020194478625275 C
   0.0052658915578911    0.1255121198710006    0.2522835435398933 C
  -0.0051007086264705    0.1278903283184068    0.4969569857711163 C
  -0.0009409591397500    0.1254155082530376    0.7531633998179211 C
   0.0021862675881192    0.3752328078196162    0.0016549880034905 C
   0.0002505243445250    0.3734845029710870    0.2497678775168607 C
   0.0021369470012232    0.3719944003536783    0.4968938935077928 C
  -0.0021542644393883    0.3759464368291183    0.7518397281149853 C
   0.0010680935311636    0.6252028913617210   -0.0028351163099207 C
  -0.0015677549535770    0.6224504198253488    0.2467485130135793 C
   0.0004762454071782    0.6256546466722385    0.7529406540329514 C
  -0.0034658771436781    0.4996298579842859    0.6285234411615190 C
  -0.0023490989756089    0.2525267678308899    0.1250313497691881 C
   0.1698656234685178    0.1219888484916518    0.6282948511062181 C
   0.4987128989880713    0.1237118776646270    0.8736340313314067 C
   0.4986862695840741    0.1264747098309906    0.6291347693812426 C
   0.4985205326234013    0.1246258403377706    0.3751457665505998 C
   0.5020708309346178    0.1249369759129052    0.1220645728842222 C
   0.1695507988706453    0.8761973149700887    0.8750284045337098 C
   0.1716964635926392    0.8782026628935394    0.6271207652470712 C
   0.1666612031253857    0.8772264414163232    0.3767101040022756 C
   0.1675412112902420    0.8781047101599831    0.1202758590173544 C
   0.1631702588989887    0.6291532385759737    0.8771883874679753 C
   0.1633079045463552    0.6261384433131306    0.6291644664472839 C
   0.5036340877947743    0.3738389493626949    0.1237916573567399 C
   0.1666299325424160    0.6265387696061654    0.3741286415664606 C
   0.1659419390854802    0.3751037400364166    0.8790290463209234 C
   0.1703087968245116    0.3737064307203772    0.6207068163357167 C
   0.1647169911644771    0.3714177079872454    0.3745872445627468 C
   0.1609301900650076    0.3758216365557689    0.1253075071498730 C
   0.1680037555119589    0.1190392657208483    0.8773118653053260 C
   0.1624344612354748    0.1253972165382095    0.3709467131291330 C
   0.1656195779822924    0.1214740007209875    0.1233765543970100 C
   0.6715795017535768    0.7523916864278610    0.8749203158980280 C
   0.6626687985820461    0.7469816710570580    0.6265600416649789 C
   0.6601959153152855    0.7534151394336087    0.3801265765530309 C
   0.1689526316106499    0.6237945251391799    0.1197418587846097 C
   0.6644302110549415    0.7498444248593999    0.1187018260990060 C
   0.4966621777212328    0.3692131159117749    0.3776552533765681 C
   0.4997106394012273    0.3702778852898016    0.8773885811471698 C
   0.8362813664246029    0.8803456365403924    0.3760450837603576 C
   0.8376571450133573    0.8735082415359227    0.1250681031079287 C
   0.8348072825133906    0.6263855869118657    0.8762272835826640 C
   0.8300502114702413    0.6238857445088736    0.6270975370017267 C
   0.8335303079228392    0.6249844121564051    0.3743936119813124 C
   0.8336185425692293    0.6254352387572009    0.1218962322434089 C
   0.8343425823170911    0.3740254162105747    0.8744331908524727 C
   0.8286037898520281    0.3705479126589801    0.6263585365691196 C
   0.8376209591514528    0.3717274779178426    0.3737234867883265 C
   0.8345999284897024    0.3736594623446254    0.1261586145448076 C
   0.5016455035095587    0.3714088565071835    0.6212304008406609 C
   0.8329710378346049    0.1261962874511975    0.8714161902592513 C
   0.8400778613523719    0.1226920274206577    0.3796294318890801 C
   0.8331823568570355    0.1276662767302460    0.1233234514324582 C
   0.4981404875184732    0.8790627025236385    0.8749046914622977 C
   0.4964021763815640    0.8760431951200663    0.6305387161876945 C
   0.4982147777857078    0.8756921669781096    0.3726782560920534 C
   0.4956541482485314    0.8763218080504338    0.1224128531600309 C
   0.5011399305564223    0.6264797249840556    0.8782854613336047 C
   0.5059929438764055    0.6259614900230619    0.6270564163888612 C
   0.5001205121253329    0.6299475629453898    0.3706923912783233 C
   0.4978677643976189    0.6257777648240193    0.1235668989734214 C
   0.8323885042267880    0.1258277776884138    0.6262417766480778 C
   0.6712746163739128    0.5011046622919850    0.8747784722252220 C
   0.6640350844041961    0.3762302881268659    0.5035927751936595 C
   0.6635920385076713   -0.0007367564940968    0.8739383163229481 C
   0.3382910502041775    0.2495856514774660    0.1242279687271370 C
   0.6677173442707127    0.0014439910552081    0.6249823915414384 C
   0.3332377942188368    0.2506011458382016    0.3748677369500124 C
   0.6662925296566600   -0.0015956516062499    0.3780065963293976 C
   0.6601667319576139    0.0021522232983794    0.1226875248498419 C
   0.3405841270803773    0.2494646138438729    0.6292198409714113 C
   0.3328424863563042   -0.0003715933436665    0.8752727423501014 C
   0.3377342089419101    0.2468036555773323    0.8725156711603215 C
   0.3384138058887803    0.7537508275679862    0.6286248717223569 C
   0.3374295043379649    0.7547420822212034    0.3729092788599146 C
   0.3342914350244705    0.5024778535024910    0.1220093249429210 C
   0.3324541701506397    0.4962267330461057    0.3752888687278801 C
   0.3356678218556286    0.7510419383367448    0.1248533495846020 C
   0.3379790733675039    0.4959844246027484    0.6254857910742569 C
   0.3283456441958604    0.7548972698238873    0.8726037750962068 C
   0.3358385477241866    0.0006652308158677    0.6253285228529318 C
   0.3325026977428939    0.4991064673023420    0.8773540997997421 C
   0.3338944271336884   -0.0036900673709174    0.1273397375781892 C
   0.6639428738588218    0.2510192940856136    0.1227335122142426 C
  -0.0030364296529974    0.5010945496303189    0.8761061704043057 C
   0.6649988956577114    0.2499002196414714    0.3764898015114866 C
   0.6659214472536163    0.2524049075830069    0.6233483691504538 C
   0.6650835112367616    0.4991490536630067    0.6244879662975019 C
   0.6670293877502448    0.4978199766078654    0.3803119573447958 C
   0.6660922562835796    0.2472362881124431    0.8765596860947978 C
  -0.0009172901500724    0.7501560769786104    0.8755357436213791 C
   0.3352157306062696   -0.0019246415756493    0.3731061047160201 C
  -0.0007502682132435    0.7483447634195952    0.6279919294291644 C
   0.0036436403145842    0.7561210610748885    0.3751483326558894 C
   0.6633500212938600    0.4980692152495694    0.1210400698723855 C
  -0.0002593694564039    0.7524265998368799    0.1210396035307017 C
   0.1664027179231008    0.4962616803552253    0.3751222793499148 Hf
   0.3328703663233715    0.2489919619662534    0.2503251595862117 Hf
   0.3345901422243359    0.0000529101485696    0.5011756126925331 Hf
   0.8320065263559224    0.8737791482398489   -0.0026831803377911 Hf
  -0.0029743235527602    0.2482561010919371    0.7505041602385141 Hf
   0.1645489166806266    0.2483389520549014    0.1249830153550526 Hf
  -0.0008956650595149    0.7510935051772446    0.5002326494260071 Hf
   0.3332530548855770    0.4993282848523259    0.2478281682927836 Hf
   0.3340465946972204    0.2482794272259160   -0.0011277985489558 Hf
   0.5023771803122704    0.1259169206691141    0.5013935418954134 Hf
   0.8350596124279700    0.3741493664186970    0.0002955437375923 Hf
   0.3318208507544638    0.7514108931722786   -0.0019539417229026 Hf
   0.3319169899602268    0.1247594494656290    0.3742827361045581 Hf
   0.4995889943159580    0.3728014512338901    0.2486858351758825 Hf
   0.1670451724460306    0.6249885487428553    0.5005634573134099 Hf
   0.1669787076925668    0.6248742226257346    0.2479230585322799 Hf
   0.0004057325519465    0.6246282071119894    0.1217555028377375 Hf
   0.1651559196237431    0.5008944459547319    0.8772198831150250 Hf
   0.3306976707989845    0.6281088068985232    0.8758893872961078 Hf
  -0.0023154304736489    0.3732802655151886    0.6249558215289569 Hf
  -0.0035734557449741    0.1247795896939890    0.6256048320616174 Hf
   0.5023161098236326    0.6265277552130305    0.7505986447782644 Hf
   0.6677249762422073    0.1254401092322252    0.6258797376058391 Hf
   0.0026768432919860    0.1247691701865591    0.1246986657256636 Hf
   0.6658244781245455    0.3729190301926096    0.3774816999406095 Hf
   0.6676981615892340    0.3739314936955910    0.8751780552128234 Hf
   0.6663449209379000    0.6260451220558536    0.1224971768498916 Hf
   0.8341536882415503    0.1252528670770583   -0.0015351618280649 Hf
   0.8291183929266133    0.4993374668987585    0.6264047646461788 Hf
   0.8331921014638998    0.4986525904384597    0.3748132316935934 Hf
   0.8353687732755237    0.4989063386431501    0.1237277801041159 Hf
   0.6661669000658710    0.2493487945845121    0.2492256669710561 Hf
   0.4995796777022996    0.1254389364276994    0.2491354811240117 Hf
   0.6656617716746728   -0.0004184816849376    0.2501751001793522 Hf
   0.8320235298675542    0.0000547948713653    0.8743808212691304 Hf
   0.3359859674499839    0.7519171262685981    0.4999682079217574 Hf
   0.8313427415944206    0.3722161420562288    0.5009936750298613 Hf
   0.3347419556006646    0.4995674433699827    0.7511172445028947 Hf
   0.1678124521224020    0.7513565245001254    0.1212137288276056 Hf
   0.0043535781041327   -0.0009034122685988   -0.0022275358923318 Nb
   0.6673339380000011    0.8776615016119366    0.3759941592000025 Nb
  -0.0035735488446044    0.3756930414212376    0.8747380778610820 Nb
   0.6630178657847527    0.0002013871293649   -0.0021861615384370 Nb
   0.6630382081976511    0.2482108748827588    0.0008813879913376 Nb
   0.6666100672475090    0.2500841463353311    0.5021402247601615 Nb
   0.8349488766320131    0.7507398769174984    0.1224452571410801 Nb
   0.6661623902505690    0.5016580973999289    0.0000432719728886 Nb
   0.8358388470889393    0.2483127544399874    0.3781116853841917 Nb
   0.6669263543156301    0.5003157047550103    0.7476070719397906 Nb
   0.5050258156979907    0.4969224883093952    0.6233444751200948 Nb
   0.1700983161114324    0.1236308817112567    0.7520433024093540 Nb
   0.5017698387670781    0.0013330526960249    0.6279048324273176 Nb
   0.1674743101040826    0.7533376795169080    0.3748697696357907 Nb
   0.5008589322239283    0.1236691625027085   -0.0014770383433389 Nb
   0.1677548296399989   -0.0003262577841182    0.6280684056285457 Nb
   0.1633661364835329    0.0003978504818643    0.3720938973891343 Nb
   0.5025594490453414    0.3738596691769804    0.0013591166366536 Nb
   0.8358740130545336    0.8779139205850264    0.2515763164809942 Nb
   0.8308241474612073    0.6263689162389042    0.7523991969097075 Nb
   0.8299731264169765    0.6246362088994500    0.5024665849547802 Nb
   0.8348447633276319    0.6254625947715801    0.2480564938353442 Nb
   0.8319303347531444    0.3735866771672146    0.7495638210610858 Nb
  -0.0033190515993339    0.6256011000747597    0.6287808027228297 Nb
   0.3351310478585899    0.4961691983734110    0.5019222389648196 Nb
   0.8346572856747789    0.2504689653036693    0.1234399065337690 Nb
   0.4978199380179412    0.8759143805117272    0.2506711395832401 Nb
  -0.0005530055881651    0.4964750683252991    0.2490799435118745 Nb
  -0.0026232685309571    0.5016074444227784    0.7518449997580453 Nb
   0.0003310006769943    0.7507743181144424   -0.0037539876069152 Nb
   0.6640820806261836    0.1259040164120123    0.1222594856223682 Nb
   0.3360604865468965    0.3735566640099118    0.8770376936678588 Nb
   0.0001460651141145    0.2506715464527663    0.2523151860893640 Nb
   0.0012997403980888    0.7496940109396704    0.7544421132036666 Nb
   0.0008652284054759    0.4993886824137889   -0.0014818910827261 Nb
   0.6693156846453724    0.6266546497090240    0.8756647056802499 Nb
   0.0012722333799656    0.2502955124681772   -0.0014317790018501 Nb
   0.0008109320047912    0.0002049242011135    0.2524871282087620 Nb
   0.0036584298009672    0.8733782811009185    0.8753841750714874 Nb
   0.6632554365100273    0.1241834377985653    0.8736896930678340 Ta
   0.1623008860805666    0.3737001112570272    0.2504521252248743 Ta
   0.4999329596714147   -0.0007273320273314    0.8745722334748521 Ta
   0.3344881127416452    0.8753497207497636    0.6295896221556484 Ta
   0.5013180824127987   -0.0007485666688953    0.3745914542079536 Ta
   0.1650693400359729    0.6282323420983245    0.7530775512776314 Ta
   0.1652979840231930    0.8766572739848866   -0.0033939385350190 Ta
   0.4985567478060603    0.6259821534361248    0.2476024772171944 Ta
   0.5012023636376569    0.6256524207062700    0.0006629597866726 Ta
   0.1673318964730032    0.8770132566087270    0.4988349250285543 Ta
  -0.0025054188604607    0.2489917629870551    0.4981287982844357 Ta
   0.8371379164493377    0.3721161850369268    0.2497001663271684 Ta
   0.8303266326645570    0.8789237872389125    0.4996023576185142 Ta
   0.1627229038327053    0.2505530500223787    0.3738703314215863 Ta
   0.1634086851863712    0.3746707221927374   -0.0002765767205180 Ta
   0.8336870468452232    0.6270934649181624   -0.0028479562316015 Ta
   0.6653414743428246    0.3734904601636699    0.1224824679789924 Ta
   0.1638253771830553    0.4988849967874662    0.1222786501100158 Ta
   0.3333643486454054    0.5002880158603005    0.0007815547488081 Ta
   0.4980493461076532    0.2465261009076273    0.8747885551082012 Ta
   0.3331113217777002    0.3727379423631393    0.3770850902661843 Ta
   0.3364469789858981    0.3734607226866632    0.6238181893605167 Ta
   0.8329735648046901    0.5018575210292415    0.8744381046108021 Ta
   0.3337778516746578    0.8760908265155852    0.3732249350561584 Ta
   0.8336264516295785    0.2474365965591068    0.8741117854667235 Ta
   0.3346862032136447    0.6240411503870112    0.1216751812919120 Ta
   0.5004207133716894    0.8762503147623163   -0.0025084298599778 Ta
   0.0034883572153455    0.1232332496722618    0.8760148182531657 Ta
   0.3333257585125989   -0.0002233834774910    0.2488881020023091 Ta
   0.3363898882689146    0.1252886532537632    0.6288796599341397 Ta
   0.5018160154507936    0.7518912304494482    0.6276204013894503 Ta
  -0.0001369711007102    0.6280856464435719    0.8760019609459584 Ta
   0.6660719816416842    0.7503291128405633    0.7522268011619194 Ta
   0.4979100755159152    0.7511881210351785    0.1232144153033105 Ta
   0.0009322770198056    0.8771728368600726    0.1231907273237685 Ta
   0.3351615742781467    0.8770658653386116    0.1235762100774388 Ta
   0.3358896767082281    0.7518558075919709    0.2492166431743395 Ta
   0.6639407539269968    0.0010302870425642    0.7505778789969489 Ta
   0.3328107764109510    0.7538394625430809    0.7532723101700559 Ti
   0.3365779661593652    0.2469531406162367    0.7513388789207723 Ti
   0.1641907241533330    0.1230641307005857    0.2504900356093957 Ti
   0.5040223105742259    0.3726579178068057    0.5028772954445988 Ti
   0.1682726145054604    0.8749903152166908    0.7551054357471477 Ti
   0.6665082676073055    0.4976117679029559    0.5027960344077728 Ti
   0.6674392354211933    0.7505214560793900   -0.0023977504515694 Ti
   0.6655368668898032    0.7511551364787329    0.5010478191873047 Ti
   0.1641479799878619    0.6268604308266564   -0.0015588445086504 Ti
   0.1661072081333147    0.1213444031069684   -0.0015643500885908 Ti
   0.1652170588848378    0.3736692692751618    0.4995626366917773 Ti
   0.6696582953046255    0.0011897502994639    0.5007228543856708 Ti
   0.4978982184721600    0.1258933622065753    0.7498130124761596 Ti
   0.1646723090654946    0.0012763544490328    0.1243500764861731 Ti
   0.5002855123274730    0.8753313980679789    0.7527467089431887 Ti
   0.5021535890577724    0.4989699880593132    0.1230847237610450 Ti
   0.5020262058743781    0.7520578240515512    0.3757300477365549 Ti
   0.8334686821053189   -0.0000567029385783    0.3761900568528376 Ti
   0.8307263409205869    0.0031397230055808    0.6250486449826117 Ti
   0.8313385151965722    0.2477451474916096    0.6243852505696210 Ti
   0.8304924246329808    0.7520525564567181    0.8752808145133458 Ti
   0.5008981079916438    0.2497246455957768    0.6249310085997554 Ti
  -0.0012178093586104    0.1238480699552032    0.3742685341909213 Ti
  -0.0007028944926342    0.3730641399532085    0.3760063833604640 Ti
  -0.0006807192894786    0.8776270771994975    0.3752731590387760 Ti
   0.3337999355944012    0.1224594956941703    0.8747842896354551 Ti
   0.3308224820506969    0.8751638735015043    0.8731172730080133 Ti
   0.6670228739390590    0.3725582004533231    0.6239313133298865 Ti
   0.6669006346574082    0.6251839931821569    0.6242993588875865 Ti
   0.0003320172609970    0.3730343975508328    0.1246173292075545 Ti
   0.5016711430274530    0.2502041580752750    0.3766070852756321 Ti
   0.6662319811428593    0.8749250192354420    0.8748965709114082 Ti
   0.5008690476282293    0.0010493404094535    0.1233620872793111 Ti
   0.1678491450619255    0.7531772214134885    0.8744421859619247 Ti
   0.1688618889067326   -0.0004701150955832    0.8745023946675416 Ti
   0.8316491147526323    0.1239315464245291    0.7490014161354486 Ti
   0.8322648777786799    0.1249873870988704    0.5005459172486755 Ti
   0.4995990762675044    0.2480944883347957    0.1237672752333922 Ti
   0.1679415166784931    0.3737208131507593    0.7516322908636360 Zr
   0.3355167890472878    0.2512063307400975    0.5002044418856109 Zr
   0.3349783469444227   -0.0010389278026047    0.7519755160188381 Zr
   0.3317382244885262   -0.0004776200454481   -0.0010048876349178 Zr
   0.3339284976017979    0.3750755166578275    0.1234410806207189 Zr
   0.0000638604625118    0.7521175870942389    0.2490227530670082 Zr
   0.3339234014365545    0.6263820011799142    0.3747034504365225 Zr
  -0.0020031482328542    0.4990821601521512    0.5005105629493229 Zr
   0.6687221010007184    0.1246873596368885    0.3773823975656196 Zr
   0.5030643757009101    0.6248016080206303    0.5017971725948491 Zr
   0.6668501211706361    0.6253399202932678    0.3768287043783244 Zr
   0.8364014398457607    0.1255134901850058    0.2514444348033453 Zr
   0.0011663537398014    0.0004605429127306    0.7514241358723355 Zr
  -0.0038101790717596    0.0015265021540007    0.4982545726580104 Zr
   0.6641636858805481    0.8748786060364329    0.1224302956703972 Zr
   0.3358112774524805    0.6256213475387808    0.6272988642898449 Zr
   0.3319571117435142    0.1227148989463202    0.1236319005256564 Zr
  -0.0003441279202150    0.6250331470891590    0.3738979845274847 Zr
   0.5002451355764090    0.3725992558075969    0.7479508562375911 Zr
   0.1652573915709420    0.1242986638587557    0.4987748010712834 Zr
   0.4995795368465382    0.4978332843698375    0.3764436589883307 Zr
   0.5019382411831976    0.4999873141262704    0.8768889207796098 Zr
   0.1680423316114744    0.7520285679018098    0.6291315173740546 Zr
   0.5010856526240623    0.7538709741967760    0.8748422930159649 Zr
   0.6650798677647405    0.7516101557512910    0.2495431006549881 Zr
   0.8336864631782752    0.0003486636555108    0.1239357789961180 Zr
   0.1666800210619349    0.8775458832731983    0.2491832489439852 Zr
   0.1658428051642536    0.4995361820759995    0.6257596455096480 Zr
   0.5027910452014528    0.8763504036450552    0.5001663568381232 Zr
   0.1687514255585298    0.2468878680234992    0.8758113812364946 Zr
   0.6669719114418983    0.2485088541143655    0.7485628987977540 Zr
   0.8316748282073725    0.7529744844765195    0.3760972386349928 Zr
   0.8308309527837481    0.7496589687572764    0.6262736400444420 Zr
   0.1682524807771060    0.2488737032423155    0.6254505652852917 Zr
   0.6655697706905396    0.8768677009505950    0.6261920592451320 Zr
   0.8327529669743479    0.8758144720309405    0.7513247259954703 Zr
   0.0015637373974926    0.8766202040511616    0.6256689996802555 Zr
   0.6664725986096016    0.4993493004044583    0.2486531115784611 Zr
