Mg13 Zn12 Cd13 Fe141 Ni13 O256
1.0
  17.1558802071637331    0.0004030627162197   -0.0006019134147137
   0.0004030770208974   17.1579136512122474   -0.0005803317987586
  -0.0006019577365978   -0.0005803813752523   17.1567028657681995
Cd Fe Mg Ni O Zn
13 141 13 13 256 12
direct
   0.7504576406157489    0.5006767921048076    0.7494147967941299 Cd
   0.3755839060624802    0.1246602814322111    0.3729002609707386 Cd
   0.2509292395111725    0.2490901687797854    0.0010999231448830 Cd
   0.3768556591654527    0.8735705257557692    0.6236491474227348 Cd
   0.8730115498316906    0.6233074313390808    0.8729304704287818 Cd
   0.5005873756512279    0.5009602122329350    0.0008178466878968 Cd
   0.2500300334671164    0.5003144092010369    0.7460141474006982 Cd
  -0.0010816042619534   -0.0023108478260686   -0.0007419908755764 Cd
   0.6250408000122388    0.1242864629349775    0.6236468003975180 Cd
   0.1244079064335993    0.6240272117583988    0.1280421905646736 Cd
   0.7488056185610215    0.2496008301172627    0.0008658164866162 Cd
   0.1222962943422334    0.8737887369114419    0.3756555359603566 Cd
   0.1247868856144015    0.8783420757204032    0.8752503980991305 Cd
   0.6871441198570286    0.4381827119796022    0.5590695109111125 Fe
   0.1902223729613895    0.8134393710399259    0.1884729731127837 Fe
   0.6859286462560229    0.0606783132528913    0.9381070448121360 Fe
   0.1869757087652643    0.3095643511296899    0.6867918730866716 Fe
   0.1844641244647592    0.3138962257974660    0.1895403522152382 Fe
   0.8096689558285629    0.8139057897606584    0.8108362164136861 Fe
   0.8145599437152163    0.8125313449791844    0.3120690504583506 Fe
   0.8151591315260232    0.3117799843129879    0.8121992033004864 Fe
   0.8130299874280086    0.3121821110994553    0.3142140954897156 Fe
   0.6874192182286246    0.5628434241657736    0.4362438070093581 Fe
   0.3119497210296852    0.8104791980135323    0.8143920013684770 Fe
   0.6863772051453686    0.5619852785037159    0.9397829499127576 Fe
   0.3152798023535214    0.8119684320004023    0.3128174411268461 Fe
   0.3144188142084233    0.3107745452020472    0.8099548487915423 Fe
   0.1859319664638578    0.4379644006050754    0.0608679427164011 Fe
   0.3091678308059939    0.3144407549070813    0.3113239571716148 Fe
   0.6874318239487098    0.9383124290249601    0.0630854175156158 Fe
   0.6866070989745862    0.9353406216305953    0.5603929105069170 Fe
   0.3115428541038208    0.4391963863749711    0.4383155424476669 Fe
   0.3133918958436875    0.4368191849238094    0.9347604722695905 Fe
   0.3126787370615626    0.9378836462110403    0.4377400273016394 Fe
   0.3149111038107491    0.9379934899103578    0.9393923155408376 Fe
   0.6868519769233752    0.4379790900792830    0.0657552837892342 Fe
   0.1858942844907410    0.9389861110737932    0.5630187554154725 Fe
   0.8147132026565806    0.4361313983547155    0.9388345895029314 Fe
   0.1915085000170745    0.9367517879085968    0.0669511781232656 Fe
   0.1873797127876420    0.8104880957655647    0.6865289993581394 Fe
   0.8148968832869125    0.9367942954426812    0.4348797870488894 Fe
   0.1865025007729899    0.4371448600513413    0.5594801734396830 Fe
   0.8088656878548265    0.9390014999122414    0.9377876221264158 Fe
   0.8124661734067301    0.4382433259376181    0.4378018094166720 Fe
   0.9362175715741570    0.4368578763208610    0.3153050508429998 Fe
   0.6870693749553123    0.8122343265319378    0.6860739371285272 Fe
   0.6878118016964122    0.3131204656596317    0.6884577035680622 Fe
   0.0619130981983487    0.0649873430926449    0.8089183370717923 Fe
   0.0591266111989000    0.5614988906773941    0.3151243017307166 Fe
   0.0622329385046005    0.5599871702768423    0.8120317294418070 Fe
   0.5658833059553873    0.0612070913373010    0.3112483178259622 Fe
   0.5597588955140376    0.0624014347658070    0.8150577261151943 Fe
   0.5626518162378329    0.5629290540531807    0.3130418843049756 Fe
   0.5622692099546316    0.5629416606290567    0.8103915482456345 Fe
   0.4404787858954801    0.0592343537989516    0.1863317123080073 Fe
   0.4356052373586195    0.0637123553290497    0.6892061285312753 Fe
   0.4376773669758647    0.5647590382919262    0.1902412361489933 Fe
   0.4411848472360690    0.5621371354551843    0.6854302029587906 Fe
   0.9360231019716795    0.0629700807223472    0.1899669325009535 Fe
   0.9370180443876442    0.0642145908043704    0.6861072363316365 Fe
   0.9333864079406676    0.5634832673747259    0.1898155644758905 Fe
   0.9408118430531872    0.5600927583726587    0.6834092160614136 Fe
   0.0614209311352130    0.0656282236866593    0.3136463596036185 Fe
   0.6870364844389145    0.3131741649142742    0.1915589829842144 Fe
   0.5612252543497499    0.6905829757854092    0.9383345821284853 Fe
   0.5611133539164119    0.1861609751665777    0.9364595880760209 Fe
   0.6881142697231891    0.8116816005876052    0.1878877280459368 Fe
   0.6887899416813470    0.0613896028116717    0.4350617206476465 Fe
   0.1843333799896421    0.1884068630903720    0.3124100984201345 Fe
   0.1871730187546541    0.1865441456161791    0.8092182325584244 Fe
   0.1896896487035980    0.6878006437536666    0.3146052070996487 Fe
   0.1884365521358252    0.6872366918696553    0.8129270077019802 Fe
   0.6896170810250170    0.1879453567219606    0.3120699669207352 Fe
   0.6868892358043571    0.1890593286851170    0.8125221318156320 Fe
   0.6875096647644631    0.6864306672751593    0.3125430784456289 Fe
   0.6856335116783011    0.6911341675973395    0.8100282783244112 Fe
   0.0598993689510762    0.1880813772043356    0.4382138795937950 Fe
   0.0615554256045917    0.1878371621410662    0.9342552010559748 Fe
   0.0616054061080497    0.6845238068694907    0.4386997828239168 Fe
   0.0611138479803534    0.6877953888547315    0.9389770508508208 Fe
   0.5623924740683829    0.1896369088256605    0.4376274869223744 Fe
   0.5640079650349068    0.6858668707711122    0.4362423093539615 Fe
   0.1870612478941698    0.5622918634850947    0.9373776510003763 Fe
   0.8113923754441354    0.0615393382232526    0.0651645758867175 Fe
   0.1896470128588243    0.0635920416119779    0.9347466663675418 Fe
   0.0607777130046274    0.3149709584230715    0.0636702433582273 Fe
   0.0608818933320568    0.3120308395369507    0.5614137358192750 Fe
   0.8744416729081765    0.3737348600357392    0.1270046187810204 Fe
   0.0618129994585704    0.8120477075192918    0.0658871321529151 Fe
   0.0625563147263157    0.8102522702863023    0.5636236672551853 Fe
   0.3753349680765069    0.3749432617422821    0.1243499193897861 Fe
   0.5622978237346963    0.3113886728260649    0.0640346339250383 Fe
   0.5607156010718641    0.3156864813338214    0.5615551149920573 Fe
   0.5617864891291806    0.8119601533220990    0.0629663679270630 Fe
   0.5652667968134006    0.8110039616762583    0.5604916277043062 Fe
   0.4384689207896699    0.3151084298370926    0.4389588170936454 Fe
   0.4395910404812409    0.3112262864644824    0.9334374172692333 Fe
   0.4383912105557142    0.8118314470723347    0.4352635835205120 Fe
   0.4368273592374007    0.8121903952441839    0.9394008140311766 Fe
   0.9380120645239794    0.3122738827213193    0.4382104580934655 Fe
   0.9404717818169140    0.3132144792821106    0.9358887816234150 Fe
   0.9355661988348773    0.8110178283736991    0.4362523460686016 Fe
   0.9372660047395016    0.6854917000397406    0.5606767355764070 Fe
   0.9357004403820974    0.6895659033196071    0.0649381475722936 Fe
   0.9378946958014684    0.1880454401515369    0.5613909995591759 Fe
   0.6262824729310013    0.8740668557990394    0.3737705619116053 Fe
   0.9371262819281241    0.1867063009116503    0.0652146896473607 Fe
   0.4399913667061450    0.6855605631022034    0.5593184655650677 Fe
   0.8748531206379376    0.8750748779890219    0.6220233683067112 Fe
   0.4371139438530064    0.6898998423722934    0.0634562116647878 Fe
  -0.0012160624496863    0.7497149149261370    0.7503458136803742 Fe
   0.4997489908413923    0.2496095450422907    0.2526578853613194 Fe
   0.4412188820501312    0.1846615024634981    0.0629695272922789 Fe
   0.9355060618476977    0.8118658502928152    0.9402988955736316 Fe
   0.4992461918592886    0.7516940777097585    0.7493883205131925 Fe
   0.1244110149395572    0.1256512834956818    0.1245338137847808 Fe
   0.4370082078728522    0.1892416671789768    0.5629533527055733 Fe
   0.2503626471447595    0.2503145670163234    0.4988281600686557 Fe
   0.5613352023922683    0.9386990495656858    0.6898288724482182 Fe
   0.5640360818141403    0.9364096556357413    0.1860836976432986 Fe
   0.3121252668394840    0.6875522565473511    0.6866165743314014 Fe
   0.8135669323738600    0.1853626832447021    0.1907762936073394 Fe
   0.8139784435035056    0.1896365692999709    0.6892139243781150 Fe
   0.8113023871657936    0.6882517387803055    0.1899987339251407 Fe
   0.8115215696973062    0.6889005468780491    0.6830177561025300 Fe
   0.3156898700049916    0.0605154834895701    0.0644844863943135 Fe
   0.3147903305810244    0.6903939257092175    0.1892541068521142 Fe
   0.3104867212253153    0.0624297346332301    0.5633512138534257 Fe
   0.3146962872314863    0.5642568103266667    0.5595927623403062 Fe
   0.4375209158605624    0.4385018216361092    0.3133597180518224 Fe
   0.8144268829115537    0.0617801695227166    0.5590000019798637 Fe
   0.8102658542261622    0.5622948148075078    0.0663389533474855 Fe
   0.8132199291814778    0.5628118758915894    0.5595031117819526 Fe
   0.1860041246314277    0.0630354649738699    0.4394132794171254 Fe
   0.3129513923911207    0.5645208131394778    0.0607743842015130 Fe
   0.1874769228104511    0.5626770051986519    0.4387016394717960 Fe
   0.3120314602652306    0.1870011875401692    0.6882589333906010 Fe
   0.4387689457888985    0.9355672018164669    0.3121847557096464 Fe
   0.7497030680248570    0.2499172890448137    0.4997111467888486 Fe
   0.7494300489247742    0.7507738311041179    0.0001295120966362 Fe
   0.5619377402058314    0.4368021244336933    0.6852537491797601 Fe
   0.5640457546181932    0.4379551481858544    0.1912850250901911 Fe
   0.0621547509505457    0.9395965029535120    0.6845394915351795 Fe
   0.0633274998351659    0.9368205194748769    0.1885477302299273 Fe
   0.3133031819377243    0.1853366663158464    0.1879728022276803 Fe
   0.0615763005412709    0.4348738583028525    0.6849337222805438 Fe
   0.9338710998372489    0.9395208442361914    0.8090074486969193 Fe
   0.9363684971161678    0.9389887057565895    0.3112136424865933 Fe
   0.9416054681253487    0.4344589653194452    0.8117194064127106 Fe
   0.2491952776727230    0.5018713341045347    0.2505219522575300 Fe
   0.4371647103978725    0.9393042125227606    0.8154939884657517 Fe
   0.7481770811132534    0.0018235305497724    0.7483393638546288 Fe
   0.0595103004257779    0.4362165638924793    0.1899428863089399 Fe
   0.4398776022861193    0.4353673264756112    0.8100753952683153 Fe
   0.1230162356657486    0.3749226700078415    0.3753134741572254 Mg
   0.5014863218006697   -0.0014580019991591    0.0004191667016554 Mg
   0.6234786257058906    0.6255306513821267    0.1273111208467430 Mg
   0.6263166785951706    0.6243401890102441    0.6228596431525060 Mg
  -0.0000689100879283    0.4990254804193552    0.4992180526832009 Mg
   0.4999538088689027    0.4995293067859828    0.4975991225321422 Mg
   0.3768119954173517    0.8745755795107454    0.1263528472403941 Mg
   0.8742056277207390    0.3753027488478160    0.6234365342311465 Mg
  -0.0002176727164455    0.2492533413428809    0.7471744094361072 Mg
   0.7506328390792564    0.7492241886411066    0.4979413944669859 Mg
   0.1234593275844040    0.1256157402209149    0.6239801121912630 Mg
   0.2508501287038394    0.0007125548699566    0.2529446412009829 Mg
   0.1266056502442543    0.3733166703366598    0.8745720506555685 Mg
   0.7501988797130807    0.4993653897732495    0.2532212980593653 Ni
   0.6272504278458569    0.1254121499796267    0.1262538386930892 Ni
   0.2509231004070551   -0.0018658355520751    0.7496446261465075 Ni
  -0.0004367926604223   -0.0000813968275875    0.4988594690312610 Ni
  -0.0013137993213821    0.5024543328032275    0.0019808487164931 Ni
   0.5013879365344606    0.2489943674323260    0.7475402726161620 Ni
   0.0003057755968494    0.7490047026860478    0.2512726391943513 Ni
   0.3737722211804891    0.3758116940220088    0.6252308712612265 Ni
   0.8752997473852858    0.1248988504977028    0.3750765525237902 Ni
   0.3760369302177812    0.6238609331457358    0.8747560602627619 Ni
  -0.0017660137658559    0.2507874988600493    0.2519291470889153 Ni
   0.6238282289298206    0.8750419713676417    0.8751619221414269 Ni
   0.8738355393326990    0.8769156303381048    0.1272516208133425 Ni
   0.5709419739939620    0.5748780026778230    0.9280335149527843 O
   0.5677640567272675    0.5669686815548968    0.4317493371095957 O
   0.0675561371009779    0.1837798061599683    0.3189413585116386 O
   0.4454422121328457    0.6924528098600952    0.4405371863181011 O
   0.0666034894781600    0.1833855647714869    0.8144280394042313 O
   0.5694242051624384    0.0690899272024976    0.4317503634666303 O
   0.0665741132124810    0.5684825838990901    0.9321082884846458 O
   0.0681916117831387    0.5658304845438600    0.4330832719276602 O
   0.0711283264793773    0.0701373105617019    0.9264612595286105 O
   0.0674055779283108    0.0693149570058579    0.4325049776126927 O
   0.5567776551500244    0.9425367562216190    0.8090943864095779 O
   0.5620708458991914    0.9396290469790850    0.3085293717642140 O
   0.5602963884615850    0.4437969888303430    0.8060686164601135 O
   0.5668717619518844    0.0665834837959032    0.9330538542637715 O
   0.0690029651422169    0.6807741806865295    0.3188875668710360 O
   0.4400051425014717    0.4409615024478588    0.1917570481395704 O
   0.5669555173777381    0.1839420853210524    0.3169257266000158 O
   0.5679266292564711    0.1814000899386368    0.8173280152564952 O
   0.5684464599064907    0.6819825415170286    0.3170739095314623 O
   0.5652014999268211    0.6871841293933080    0.8143980411276146 O
   0.5553417404103937    0.4425059116508417    0.3087587798652536 O
   0.4440458383550416    0.4436788750948747    0.6907445002496294 O
   0.4454125798176521    0.9407917471928956    0.1926248741684023 O
   0.4453884933583333    0.9463276825410198    0.6984789693154713 O
   0.9378339980930291    0.4396138678795891    0.1926497921696031 O
   0.9430656697011914    0.4404266555741335    0.6902773358365117 O
   0.9438251877054655    0.9445053206498764    0.1923707712964375 O
   0.9381948866780956    0.9418136451608822    0.6880549846416800 O
   0.1823399442810328    0.0700281059468669    0.3182429500235840 O
   0.1822475204174624    0.0659106656131743    0.8148284858484737 O
   0.0636729923015225    0.6849042460280903    0.8164826616367278 O
   0.0495537280773408    0.9469866544151625    0.8005103377464512 O
   0.9470231320434706    0.5524532413898722    0.8006287642515481 O
   0.0607256368839205    0.4404071127188250    0.8056352271088717 O
   0.4340065247144344    0.8159882319346968    0.8164921391211949 O
   0.9309198610037084    0.3180429823497220    0.3199452458909099 O
   0.9358526390879319    0.3157306577625117    0.8169103093260890 O
   0.9331121613583521    0.8184039085999684    0.3177405887334075 O
   0.9309068380168141    0.8158603256237892    0.8142363832671643 O
   0.1837827623136730    0.1858800378493480    0.4336243677872804 O
   0.1786261145490898    0.1794450332219415    0.9268687576747526 O
   0.1821112289421971    0.6815809331622911    0.4333014021807535 O
   0.1805532670939719    0.6828713741782783    0.9330098759026192 O
   0.6838922666458525    0.1837394419364009    0.4342550630332624 O
   0.6781192526501659    0.1766692133393345    0.9277468783398635 O
   0.6830634404774852    0.6822486427719698    0.4316589266911157 O
   0.6845128276282243    0.6869242728240202    0.9339340832618865 O
   0.4502655738260926    0.0516913958773269    0.3035016878649154 O
   0.0536655374658556    0.9498020761315265    0.3033915369335238 O
   0.4409640736724327    0.0580880812819820    0.8100358348237426 O
   0.4441629822972664    0.5566859965376000    0.8053507330898958 O
   0.9424494611526316    0.0583439254388880    0.3074701779368211 O
   0.9396927116043839    0.0584807263786286    0.8051660474146288 O
   0.9401028486100295    0.5558108500769188    0.3090804277874054 O
   0.1827882049678781    0.5653705645470890    0.3162624433000161 O
   0.0597524443912141    0.0609477712362521    0.1906206779953895 O
   0.0548561828040142    0.0581938652823816    0.6892827811112691 O
   0.0495999775430578    0.5519831299090173    0.1986773222090960 O
   0.0593159153701109    0.5551677453289933    0.6911763672927905 O
   0.5604670084493523    0.0558009738356947    0.1925074515368681 O
   0.5530445268926387    0.0546224361117107    0.6979604978350626 O
   0.5559016842467043    0.5565917053259163    0.1931943277539565 O
   0.5600829209274125    0.5575809211064201    0.6911250529738727 O
   0.0550636941839807    0.4416169831579052    0.3091833141874996 O
   0.4424362500886338    0.5563501855240317    0.3077044140281239 O
   0.1777040622137256    0.5712409121830300    0.8213579080585450 O
   0.4410323973135045    0.3080910783808129    0.0597745787400508 O
   0.6833273653875133    0.0652843098772086    0.8146634358005359 O
   0.0674918247035358    0.3149357998467510    0.6797179256258719 O
   0.0696464472477937    0.8172162606522317    0.1858835951417671 O
   0.0644763374856340    0.8160051993096544    0.6848576002201093 O
   0.5642305222018396    0.3150257412236297    0.1883302324844748 O
   0.5690007497795424    0.3174206797176368    0.6799356582003040 O
   0.5694344812568917    0.8170113403278090    0.1818210106453748 O
   0.5658390036822761    0.8165930194646155    0.6825982607100689 O
   0.0668482040031220    0.4342367436921942    0.0700567541699333 O
   0.0672820871803422    0.4306516099621514    0.5644604559294902 O
   0.0740997880089200    0.9292900470333122    0.0728768553619324 O
   0.0661480237830575    0.9302356939464984    0.5671135462617828 O
   0.5696806469700051    0.4277972709208761    0.0754452703379261 O
   0.5677038080733520    0.4333973298995218    0.5649206715977471 O
   0.5687923276932754    0.9308610872069828    0.0675701836171679 O
   0.5683722417164201    0.9320055042703875    0.5686700141467034 O
   0.4457275912981290    0.1986032847787245    0.4452270651036344 O
   0.4429208458876792    0.1922859203140924    0.9446855058803247 O
   0.6843801916955364    0.3150227921318410    0.5641209712700310 O
   0.6782259489739968    0.3207491732482312    0.0757958466296856 O
   0.1812420697394198    0.8169837039338500    0.5679375634573350 O
   0.1835642907031810    0.8170735066540694    0.0693478562486113 O
   0.1837252031024863    0.3139912454232593    0.5624094062536060 O
   0.1777949260826826    0.3229121514746779    0.0730961578066766 O
   0.9424547956898811    0.6963694891179876    0.9471211716979536 O
   0.9413467906991672    0.6914780922100890    0.4428658699377829 O
   0.9434094072418177    0.1929465773441215    0.9453521384951569 O
   0.9415899374383044    0.1931229150119504    0.4433019027140795 O
   0.4426524543111566    0.6928451019627252    0.9438263533014637 O
   0.4346705756559943    0.8175223991575572    0.3173960360177618 O
   0.0664118022851500    0.3184354658276781    0.1837290643742539 O
   0.5605182940454042    0.6921556224972840    0.5554076343603710 O
   0.5573803493185753    0.6922862082698713    0.0577754836740890 O
   0.5538120049333617    0.1987795833297358    0.5533231073436241 O
   0.6813879637463810    0.5681162070966119    0.3173419879699438 O
   0.6797870436329053    0.5755050054619657    0.8219007869132378 O
   0.1826454081542297    0.4363834791603950    0.1858258475474047 O
   0.1786214545436851    0.4255838861081492    0.6751307783716022 O
   0.1843608766744938    0.9332980665230656    0.1860171351345452 O
   0.1801681971161378    0.9304569844322583    0.6829410001827662 O
   0.6819937090479222    0.4318223866213440    0.1864750733812411 O
   0.6792965476908984    0.4283890655459599    0.6757195994635954 O
   0.6831321137382526    0.9305907757903621    0.1816498529548959 O
   0.6834838727683979    0.9346539291964934    0.6823781670105976 O
   0.4414292485481109    0.3102878556364592    0.5567288521677433 O
   0.4429383150046767    0.8080707490993596    0.0582507495941438 O
   0.4499729692475259    0.8028830614561526    0.5508836296782095 O
   0.9406792303390381    0.3087733478395893    0.0603008328204472 O
   0.6832503109075808    0.0686580360762526    0.3176235178827929 O
   0.9413697593122802    0.3070341746633363    0.5573861563599317 O
   0.9395890793130870    0.8076375915711084    0.5594307167622500 O
   0.0566808868822970    0.3070436249108082    0.4421784061359186 O
   0.0588760104372494    0.3072536148402418    0.9445498424338407 O
   0.0513096760169473    0.8011462989542047    0.4483817553630391 O
   0.0521003887453252    0.8063577153185483    0.9475855434350279 O
   0.5573245222642497    0.3098960420105065    0.4409058961052587 O
   0.5584702557547853    0.3067851341447873    0.9446564744752841 O
   0.5619427408211983    0.8086114403912262    0.4392497881044088 O
   0.5562735258562589    0.8076931842811819    0.9435160815652588 O
   0.0592182516005677    0.1921133442468534    0.0587016686647614 O
   0.0562471731408849    0.1925388057856819    0.5566947155746730 O
   0.0521671143153547    0.6961613838386674    0.0561359950725190 O
   0.0561333032167628    0.6912990521224602    0.5586010071974170 O
   0.5585966449036652    0.1926997282499595    0.0577230413987106 O
   0.9401774938075987    0.8100060006050788    0.0591965207700253 O
   0.4351672878151346    0.3157277135508177    0.8149285947026206 O
   0.8088805070021096    0.9394433754636607    0.5562626721931756 O
   0.6918032735719859    0.6939499531598563    0.6895970924822271 O
   0.6841666396998816    0.8155127559185210    0.0660423685897473 O
   0.3204984761842610    0.0668855717983667    0.1857152909164311 O
   0.3169395866307604    0.0680592614485228    0.6818258364634087 O
   0.3148354620159967    0.5662692669348806    0.1851587066239798 O
   0.3248363838519046    0.5727415255740010    0.6762490989242523 O
   0.8167105556683270    0.0667486434283958    0.1847432350809940 O
   0.8143269080560728    0.0666939683686530    0.6816091260699647 O
   0.8150980080640985    0.5689522778559455    0.1836831010888928 O
   0.8234522104140241    0.5730813691784106    0.6766745472219756 O
   0.3248464695477906    0.1778120562852039    0.0736013250804781 O
   0.3151990263127573    0.1846014939379974    0.5646611035880161 O
   0.3170284541078051    0.6829795674814577    0.0693806306818722 O
   0.8066805983297088    0.9422755205426059    0.0562361157382758 O
   0.3204365558753087    0.6840136450538419    0.5663702012854738 O
   0.8146192187448760    0.1833366195047051    0.5661762197892999 O
   0.8132679378551099    0.6842145539218981    0.0669433904667720 O
   0.8182014661927346    0.6834849779949674    0.5651859861331454 O
   0.1923954276508666    0.4423788728200612    0.4404482494842380 O
   0.1936170887331750    0.4411471215640028    0.9420610989128230 O
   0.1947211997836447    0.9467502557816679    0.4461930672121691 O
   0.1978024204371120    0.9481654949495213    0.9499882038111869 O
   0.6931074212267674    0.4430059291316728    0.4413190690462089 O
   0.4312604601172349    0.3163240010261579    0.3159622148641578 O
   0.6921274482458202    0.9392447930936987    0.4395369080641891 O
   0.6916905033666130    0.9424715548052668    0.9432244475657187 O
   0.4355364208659346    0.0661185971463483    0.0687566546227162 O
   0.8208719809471147    0.1787353820225182    0.0742056804325079 O
   0.8071098169795956    0.4430174296084416    0.5567839386289700 O
   0.8085029959319402    0.4391315309644087    0.0620285620719130 O
   0.3028083967494613    0.9461879093601875    0.5552173954347922 O
   0.4359748550825273    0.1830495200621602    0.1868140216811340 O
   0.4308919075901963    0.1822633370036471    0.6810758883304312 O
   0.4331088936554677    0.6830571566588439    0.1838671649423830 O
   0.4371213446362910    0.6859483648134630    0.6820996442283902 O
   0.9326717292999721    0.1826780880781987    0.1845640875193336 O
   0.9310256282348883    0.1823326294369832    0.6807948139269221 O
   0.9303385069810136    0.6824122555806122    0.1838796241180453 O
   0.9347340111870692    0.6849274946965038    0.6833266625962896 O
   0.1927782579290803    0.0614742906933525    0.0614220586053453 O
   0.1904289951011894    0.0587836395468162    0.5588758871277953 O
   0.1972002076449716    0.5531049222400022    0.0537831070050145 O
   0.1939703245975876    0.5566982132702305    0.5567869584659361 O
   0.6922735102918970    0.0570142187574226    0.0572032139636164 O
   0.6979307232071892    0.0510663973667436    0.5514176829339223 O
   0.6903186754312423    0.5572522226518981    0.0601036732856268 O
   0.6936119929527702    0.5575925413563065    0.5560098511267637 O
   0.3030695853425603    0.0557848574654678    0.4464237585582231 O
   0.3087378762415882    0.0587497946031701    0.9455109124789256 O
   0.3074249662556184    0.5576207177458181    0.4411752647394978 O
   0.3080291935204293    0.5560895857212511    0.9422920681849735 O
   0.8076380485860594    0.0554376967888933    0.4411269759633877 O
   0.8064684951795305    0.0574546681741985    0.9434063326228148 O
   0.8071101817586316    0.5570180127379321    0.4414024257033903 O
   0.8025087269573393    0.5525799030477823    0.9495768153410561 O
   0.3102959853322838    0.4402473089816537    0.0585839724768340 O
   0.3070118582772355    0.4439213970006540    0.5558854541616517 O
   0.3102043704270456    0.9429759862423075    0.0603090806355781 O
   0.4318219287435607    0.0691982863807360    0.5676506407991257 O
   0.4277390645790271    0.5723421567520465    0.0739156790056553 O
   0.6920490976776724    0.4417317208547064    0.9457355900803172 O
   0.9289043311107469    0.0705714638860790    0.0731656726386294 O
   0.8069584330337363    0.1936329332840083    0.3091560226176576 O
   0.8080987690173284    0.1926697627826133    0.8083337919003424 O
   0.8063839486031692    0.6939889720882411    0.3081125201736821 O
   0.8026537113135098    0.6985358871469927    0.8001624697826104 O
   0.4352798321710747    0.5681828118124195    0.5654139170157834 O
   0.3225934556330026    0.3192699165416027    0.9276223429791589 O
   0.3192057192480340    0.8180746529753206    0.4331171266743868 O
   0.3180131561209912    0.8179214817569238    0.9334115245198074 O
   0.8153633559514630    0.3157152384167467    0.4356363397449017 O
   0.8239155801771957    0.3203557232017114    0.9301419240526994 O
   0.8171075512132089    0.8174348586497486    0.4316281844608425 O
   0.8133412414512526    0.8156241796490955    0.9315655155627276 O
   0.3152403515509016    0.4341705330442499    0.3154422425290504 O
   0.3222347236678911    0.4279132127943522    0.8180688700318475 O
   0.3194428403662780    0.9329805165031996    0.3183682978139987 O
   0.3177066539585273    0.9301644269714803    0.8197211003591311 O
   0.8174963901088117    0.4300286748911820    0.3196119498246912 O
   0.8239480134465085    0.4295326067746882    0.8219318249456372 O
   0.8173262596517828    0.9317651092637941    0.3169216624454419 O
   0.8128209606908665    0.9343261047985935    0.8133805007615573 O
   0.1905086173514985    0.1924310855848831    0.1897023550425078 O
   0.1925223959346952    0.1913418898958206    0.6903889201271648 O
   0.1986372586165644    0.6957810352814587    0.1978993087603742 O
   0.1921248459773006    0.6904798716518639    0.6924153610195020 O
   0.6940056883667287    0.1941190234525572    0.1945721478013094 O
   0.6975411378944476    0.1966532112371763    0.6962668628998632 O
   0.6918744490689390    0.6931115749295186    0.1933445781351202 O
   0.3078867571407211    0.6902803754580810    0.8071765988962430 O
   0.3097425336398192    0.6922479302865744    0.3090047986490067 O
   0.3152515128737330    0.3171067311659073    0.4315585065490850 O
   0.3013962397307580    0.1983394795651657    0.3022311558161102 O
   0.9311338789856470    0.0681043067510739    0.5670418684180775 O
   0.9288758662913265    0.5694483517894933    0.0701919377930559 O
   0.9336374612780550    0.5672639560317184    0.5652581407699089 O
   0.4303885346380515    0.4329146543838754    0.4307662631124520 O
   0.4314289554588400    0.4278681136481509    0.9273786715917073 O
   0.4340808197755499    0.9322698783742578    0.4322918096836919 O
   0.4330267669018341    0.9314790858656049    0.9341504181733916 O
   0.3069522011224688    0.1914796469799310    0.8065642177461677 O
   0.9351392303298924    0.4328561019912802    0.9330892379275050 O
   0.9330051786553161    0.9309030326111557    0.4312234744251479 O
   0.9244086274515193    0.9278105340124141    0.9247412902229820 O
   0.1909607686533995    0.3091624422231577    0.3069003843830481 O
   0.1931968739301347    0.3062098757188880    0.8060949022398705 O
   0.9314390707556097    0.4312270893726762    0.4338913609391416 O
   0.1949681554908338    0.8026405566139095    0.8042602892353956 O
   0.1991696767316195    0.8042093692351761    0.3060613396733173 O
   0.8080121848253284    0.8112354088503992    0.6880739382997547 O
   0.8062639686507685    0.8069836614877460    0.1937172585560012 O
   0.8085398389628781    0.3087541288314666    0.6924467066899873 O
   0.8093377871050597    0.3082630790576660    0.1924269911019695 O
   0.3042037471278162    0.8025686219458903    0.6966272070173729 O
   0.6835198818567720    0.8172543476457347    0.5669033196921954 O
   0.3064333547342211    0.3058331589173834    0.6908966867035732 O
   0.3076814644921850    0.3099491711500410    0.1894582543349054 O
   0.6915798734041044    0.8099667197599085    0.8041800391781245 O
   0.6916434831774648    0.8084530866669147    0.3089353954342783 O
   0.6942620616198195    0.3086481136075375    0.8084107541312175 O
   0.6936093615700349    0.3066521337481185    0.3094199418930766 O
   0.3104127738602759    0.8088674787788842    0.1934631079460154 O
   0.6258049827938775    0.3761283457503149    0.3749975480380146 Zn
   0.6256426630351529    0.3751875174988528    0.8756439969550122 Zn
   0.5015174069922481    0.7497993295479686    0.2500951278208805 Zn
   0.1257218825329967    0.6235709446155102    0.6242596802210425 Zn
   0.5000242945340051    0.0011909714524241    0.5002325189010023 Zn
   0.3740690683502641    0.1257783558375274    0.8760384896863704 Zn
   0.2506695175099846    0.7500676167145137    0.4997968275898377 Zn
   0.3763781079731101    0.6259324829632064    0.3750759465063316 Zn
   0.8747650783370081    0.1257711313486189    0.8768963842877717 Zn
   0.8736448207734516    0.6251183092324454    0.3748752747579898 Zn
   0.2492857419812788    0.7497020702402948    0.0007630166335870 Zn
   0.7498705935433113   -0.0010074264702773    0.2493375330467809 Zn
