Hf26 Zr25 Ti25 Nb25 V25 Te252
1.0
  11.8346103212848845  -20.5141120916303201   -0.0034337563912234
  13.7917357911763663   23.9242901556944965    0.0066201746385499
   0.0019030907911753    0.0045653062677040   21.3095399207324014
Hf Nb Te Ti V Zr
26 25 252 25 25 25
direct
   0.3302110600387677    0.7115570103561752   -0.0018708987326648 Hf
   0.1680295700259501    0.8572385831891121    0.6696983926677067 Hf
   0.3465551539727820    0.1456403282493332    0.3201195430466893 Hf
   0.1586780889152730    0.8599861353452511    0.3330782362447861 Hf
   0.1734325724403026    0.7217461532932711    0.3416274631066180 Hf
   0.1697235760508887    0.5649929696499116    0.3479173503727965 Hf
   0.4987490344436955    0.8557797519401794    0.0035864573215939 Hf
   0.3394496673964567    0.5725876535981349    0.3462742871248161 Hf
   0.6709187367700085    0.1472339502690997    0.6813974415175570 Hf
   0.6778019798116779    0.0044762615787466    0.6614920179730466 Hf
   0.1590439643348777    0.1379680432265911    0.3193104539037097 Hf
   0.6743345623333062    0.8560172518008173    0.0111462592984897 Hf
  -0.0018660934526271    0.5649149463220294    0.3339407390504936 Hf
  -0.0087393347663575    0.4187192961513556    0.3276802928074647 Hf
   0.4985851158647470    0.2890263708277627    0.6828971089809814 Hf
   0.6681423578956170    0.1493258372250614   -0.0056561363989920 Hf
   0.3298269074748836    0.4245195960240726    0.0124816392782159 Hf
   0.8320625179665893    0.5675972021510166    0.3220902811118295 Hf
  -0.0044905370023622    0.8601596197820418    0.6608579904475184 Hf
   0.3358012346754690    0.1490283462910205   -0.0079336295427239 Hf
   0.5053020879343564    0.4343967169964696    0.3233780209025260 Hf
   0.6660482843985137   -0.0028105661858700    0.3301660115520997 Hf
   0.1653792199948912    0.4283841883792540    0.0030098209951584 Hf
   0.0026526314574364    0.4305603637824275    0.6707940880045015 Hf
   0.1619175257174219   -0.0124993310372367    0.0008141897965067 Hf
  -0.0002331899922963    0.5728661665791464    0.6705228694744336 Hf
  -0.0061221572148649    0.1382986792576343    0.6608601646280161 Nb
   0.8208330967223810    0.1382430988939160    0.3262774353752179 Nb
   0.8205379048437992    0.0097531902558439    0.3304624913546650 Nb
  -0.0017982801277971    0.8713737641748862    0.3310286054751982 Nb
   0.1470203752261724   -0.0064095019874564    0.3223764431968913 Nb
   0.3521151058286269    0.7323682967565407    0.3436963444504191 Nb
   0.5015194965362817    0.0158410279964833    0.3320061987959174 Nb
   0.6653862995930170    0.1473878482138548    0.3237231271380355 Nb
   0.1869616638618438    0.2991843704840801    0.3284357127457795 Nb
   0.5043297716605244    0.8517989353893339    0.3414853769255589 Nb
   0.5110447480332589    0.1451679803642996    0.3228660336986449 Nb
   0.3477243949728463    0.7149598971507769    0.6528614157989433 Nb
  -0.0068216021769902    0.6963604719510358    0.6688809801484162 Nb
   0.5054074502076770    0.2732869514969858    0.3152304986552911 Nb
   0.8277968082322684    0.8613715270470135    0.0097711229151645 Nb
  -0.0171463788260563    0.1202527646804224    0.0031606101746899 Nb
   0.8214361220783502    0.4216713269654939    0.6802959547466274 Nb
   0.8429505857956537   -0.0083835862930718    0.0058416215272639 Nb
  -0.0032464275361855    0.5760574997652492   -0.0008859812634578 Nb
   0.6764555708070947    0.7136125989296188    0.6593045611957641 Nb
   0.1475766924448121    0.6954854559453235   -0.0035271754985047 Nb
   0.4880532731467972    0.8416778411907656    0.6597447753296896 Nb
   0.5112768482579927    0.6986559149875275    0.0014820388585377 Nb
   0.8403808109308416    0.5635409200580200    0.6754554392600509 Nb
   0.4974168584678750    0.5647866329361014    0.0107801892227878 Nb
   0.6188951514518330    0.4794423811027952    0.5954320006587182 Te
   0.4395098297964332    0.0491312545074895    0.5991759995743946 Te
   0.2786420601192831    0.9060406797819496    0.5895869339053501 Te
   0.9563762044775316    0.2017869078678360    0.5905130023121329 Te
   0.9353575655661656    0.3352027382698206    0.5939489649830434 Te
   0.4489595771611342    0.1932118601648546    0.5995799672547483 Te
   0.9335152036636601    0.4739030856940420    0.5944928536567617 Te
   0.9360240271562836    0.6124884128664906    0.5824576610485709 Te
   0.9455352303363721    0.7563629116260402    0.5915370249953770 Te
   0.9393427861070868    0.9093990366218315    0.5857405182982622 Te
   0.2711776081142567    0.6191166385289685    0.5853909790171331 Te
   0.2703669501295264    0.7551461387620236    0.5892502935865931 Te
   0.9535100493435403    0.0576902999445679    0.5723266484420518 Te
   0.7740175092208432    0.7605341983365022    0.5721594879177704 Te
   0.4480328787307252    0.3348555285066637    0.5945686474575346 Te
   0.6137923409279423    0.6220967441533081    0.5808484787300044 Te
   0.6124589996900200    0.1966983819472888    0.6072135725458687 Te
   0.6119027084627402    0.0531839988683739    0.5930078846330631 Te
   0.6084272652657815    0.7558270796275202    0.5828221325700936 Te
   0.4484979711933558    0.9078854645348755    0.5855694913686846 Te
   0.6068243307494493    0.9055514735468910    0.5856991802857991 Te
   0.7829141353312987    0.0529236010438676    0.5756044257115612 Te
   0.4454210978517314    0.7639801444400203    0.5671780367451937 Te
   0.7777162379416913    0.1995570422536972    0.5959556800241490 Te
   0.7740881107755075    0.3382922304273893    0.5933631166838323 Te
   0.4450671325772498    0.6226154106595017    0.5694565138936974 Te
   0.7740103930537514    0.4735247096779545    0.5925829697459553 Te
   0.4436285382585198    0.4706680078153832    0.5823229615063570 Te
   0.7770790978350429    0.6120014327475291    0.5991809652147472 Te
   0.6117839160500983    0.3315802947361654    0.6011398769426600 Te
   0.7909218103820274    0.9152369668836213    0.5859414439805951 Te
   0.2702678332694734    0.4809505322721643    0.5995102296468984 Te
   0.4471876782062505    0.8986408198692555    0.9115235793393210 Te
   0.2827974555922287    0.1912225349311827    0.5865447634876365 Te
   0.5652229137849821    0.6745098641523447    0.4015099140829376 Te
   0.5608202513733663    0.5258370553493334    0.4092447705067442 Te
   0.5536784330803186    0.3724403113949605    0.3953244707664267 Te
   0.5555514042073484    0.2343754694020017    0.4046952375266260 Te
   0.5600917133109997    0.1026670957263351    0.4139419818727677 Te
   0.3957771007021048    0.9596332182556038    0.4106555785761562 Te
   0.3975458796344196    0.8176561124220463    0.4269303933881451 Te
   0.3945028281266452    0.6716718094095253    0.4215297845760076 Te
   0.3898924366642250    0.5151473093732134    0.4136637074917544 Te
   0.5620161629752359    0.8157760792564233    0.4246350985175151 Te
   0.3926388010666365    0.3816982839098897    0.4037389176844914 Te
   0.4015884648623486    0.1054168380894346    0.4101950794709833 Te
   0.2257689813958967    0.9629467141245490    0.4001826175803609 Te
   0.2250049632648404    0.8199391404456318    0.4156212983657054 Te
   0.2303022101692070    0.6702987435776518    0.4156884131305535 Te
   0.2245919940114416    0.5143371506125108    0.4231269931074553 Te
   0.2253477745309271    0.3769242014178303    0.4208105227497975 Te
   0.2185790890241131    0.2345284964973229    0.4033604506475994 Te
   0.2259358583881711    0.0960555717913878    0.3946849289035378 Te
   0.0549490894785159    0.9580532532674324    0.4134293355705750 Te
   0.3923817777275626    0.2436026306331824    0.3941370583906113 Te
   0.5527795330291007    0.9574997631143611    0.4071175411735451 Te
   0.7161916809303742    0.0958105983131150    0.4085266038993889 Te
   0.7184327015511381    0.2349674493040268    0.4038902095931875 Te
   0.2771553088589488    0.0468534710337621    0.6063903559539555 Te
   0.1124415415753944    0.9061914421161138    0.5873807892267416 Te
   0.1034093767721747    0.7586537704207570    0.5902593602810160 Te
   0.0977729892956285    0.6157261540742280    0.5768720335197128 Te
   0.1038850515168709    0.4770478120957692    0.5817578102905089 Te
   0.1089066156071950    0.3419081061170173    0.5770100673495339 Te
   0.1123632012493556    0.1968602152572349    0.5837806131298736 Te
   0.1193698863599899    0.0521484768461072    0.5865629366349678 Te
   0.8847900740284411    0.9542693753006664    0.3869260806585089 Te
   0.0575866563361435    0.1033705044438374    0.7517375338000782 Te
   0.8990340266033779    0.8165687752238023    0.4168791968552728 Te
   0.8907731926026478    0.6628695246439430    0.4065571784646728 Te
   0.8829692788905195    0.5161507813936455    0.4083384889176179 Te
   0.8764466314490981    0.3670922731900586    0.4007754227589438 Te
   0.8796621630642913    0.2266997763706663    0.4074512217698793 Te
   0.8817924847742137    0.0961831823917740    0.4131804878072009 Te
   0.7223404922081212    0.9570716381840435    0.4178395055978950 Te
   0.7276575450044006    0.8200966696558813    0.4025315058081285 Te
   0.7249694323514284    0.6646741330728314    0.4122766099382483 Te
   0.7223539500721173    0.5189287921665617    0.4056782605902222 Te
   0.7163393164818568    0.3715097169315200    0.3922678275942248 Te
   0.2900940138010669    0.3438472580292318    0.5936880131212883 Te
   0.0509506554019963    0.2407600456783079    0.7367214279395240 Te
   0.3849347053411117    0.9456964035458302    0.7576271918862166 Te
   0.0576988041703766    0.5285578818925502    0.7509759502107033 Te
   0.4505240633710929    0.6294284299646393    0.2670406362212252 Te
   0.4376118954522883    0.4782502322958940    0.2574267765082893 Te
   0.4454355701677202    0.3310114494529017    0.2547936561483984 Te
   0.4509424812327971    0.1845508191983647    0.2331435546966872 Te
   0.4460189652212912    0.0476219782952219    0.2428425113627237 Te
   0.2838693225825062    0.9078795349009198    0.2694356950553453 Te
   0.2867018890870324    0.7660606467128828    0.2611766040006593 Te
   0.4479788359603252    0.7670810515541410    0.2560517086458208 Te
   0.2852471878415973    0.6275872728376695    0.2710650444817330 Te
   0.2813772753747731    0.3387057739712178    0.2403639823605860 Te
   0.2802800328709828    0.1922579166614178    0.2491390343391297 Te
   0.2724143477064631    0.0420354038596354    0.2566863906964074 Te
   0.1062332347364683    0.9041538683770854    0.2430824070875665 Te
   0.1154711942347918    0.7639138881572018    0.2553383825710741 Te
   0.1202773842396640    0.6193368908502809    0.2645331424941610 Te
   0.1166654535072764    0.4725901959279665    0.2630341683487042 Te
   0.2822625574933293    0.4799056625171441    0.2608293752426082 Te
   0.4506854860334992    0.9087567793627984    0.2679596870274980 Te
   0.6080712565590359    0.0453230291832639    0.2485935638872300 Te
   0.6095493446372532    0.1835044663494410    0.2363004220154938 Te
   0.9551914788681493    0.6264489925685538    0.2603795266944049 Te
   0.9458422026907765    0.4742663615121147    0.2467483415474951 Te
   0.9355785975688200    0.3247193036644920    0.2461975808879980 Te
   0.9305354881999219    0.1819062540705722    0.2394211353377780 Te
   0.9312586951040894    0.0339395879864397    0.2517640936564771 Te
   0.7786906426751081    0.9033439779388478    0.2721629686410340 Te
   0.7832776377096647    0.7647688838608432    0.2458853174218836 Te
   0.7872325205978399    0.6261070635297366    0.2451968603830952 Te
   0.7845226929594471    0.4748502581702717    0.2380062792016794 Te
   0.7758304043182550    0.3253917658366783    0.2533694119804357 Te
   0.7694258350502664    0.1802836076435064    0.2406926422108371 Te
   0.7685685719404037    0.0435575378641410    0.2398306691001038 Te
   0.6045354310260217    0.9017367483157880    0.2505695566798444 Te
   0.6167202096889409    0.7677263387990848    0.2705980589335021 Te
   0.6105861872417584    0.6272482646208253    0.2596146206085431 Te
   0.6101088296638156    0.4787073347625936    0.2346235829243434 Te
   0.6121478246353881    0.3261603516749273    0.2384581749816400 Te
   0.1069129352555333    0.3279105814465181    0.2621637991870348 Te
   0.0578580261990624    0.3865586758640471    0.7540087390191323 Te
   0.1092988618556951    0.1978025526579661    0.2516084514212568 Te
   0.8824846855535560    0.9501651497906786    0.7310558334209653 Te
   0.3902450874680931    0.8026930841283718    0.7477123975752007 Te
   0.3905827857167494    0.6704241609535595    0.7407543590571133 Te
   0.3864679288157397    0.5340010089758426    0.7410597971467476 Te
   0.3820441604194689    0.3828013810513116    0.7419131487784861 Te
   0.3884030214931199    0.2455672621151773    0.7636635984509985 Te
   0.3782519721165764    0.0875034011524310    0.7601352221958888 Te
   0.2147671806532131    0.9500308517076994    0.7515485792679656 Te
   0.0510977773478316    0.8188802156201334    0.4151389969267876 Te
   0.2165411027921743    0.7993304995799958    0.7417409734159446 Te
   0.2237507962953632    0.5315373954442341    0.7188158162749523 Te
   0.2255288934926614    0.3982589999004223    0.7364741626301911 Te
   0.2194791245677370    0.2476172896702389    0.7479998159135770 Te
   0.2140311403743879    0.0920645965706158    0.7516176627278763 Te
   0.0455264817146957    0.9507502100672943    0.7475836498367577 Te
   0.0466868011131572    0.8021471624710043    0.7382347497799909 Te
   0.0556150662726274    0.6660749818949909    0.7537184895846809 Te
   0.2273423141929486    0.6662865707798260    0.7262836049323811 Te
   0.5587099097364292    0.0923059317648516    0.7642291940555255 Te
   0.5622715667199618    0.2441652654938678    0.7603571554252140 Te
   0.5539433218323035    0.3840486546185575    0.7655393226586588 Te
   0.8871207892505427    0.8127744343853850    0.7468639036066530 Te
   0.8831812698613709    0.6647627629140579    0.7437461211226160 Te
   0.8912471855227723    0.5213649568120738    0.7585406839177038 Te
   0.8897223834437260    0.3872894096096426    0.7563647397462616 Te
   0.8954258528968635    0.2479842501941977    0.7339480614447004 Te
   0.8984260646339037    0.1033869589871200    0.7481852809003617 Te
   0.7333758875649007    0.9549146862705875    0.7378223903003146 Te
   0.7167600034138271    0.8057850651386030    0.7453564721828888 Te
   0.7171208253760524    0.6690281253195797    0.7511547722529265 Te
   0.7270524698947975    0.5350345171147384    0.7468209997268256 Te
   0.7263512993047292    0.3835552826142341    0.7688561125665819 Te
   0.7272273350095053    0.2427654634387650    0.7612438334567270 Te
   0.7289082269700584    0.0944324798143041    0.7528155323559946 Te
   0.5590260754573898    0.9428969752579408    0.7367314461611000 Te
   0.5549469020729676    0.8061262454677546    0.7339288003697039 Te
   0.5558760198257001    0.6736658465361200    0.7290136314717861 Te
   0.5534270344803134    0.5345730167549000    0.7500507205483427 Te
   0.1095993265291045    0.0455936601523652    0.2356026277447468 Te
   0.0532524530101304    0.6672355331588106    0.4075775304299399 Te
   0.9396093521682073    0.9043609169132983    0.2466784467183960 Te
   0.0508775096238948    0.3694386812936785    0.3987372407856201 Te
   0.5694303830261136    0.3882275595608723    0.0662282265512420 Te
   0.5499043132057103    0.5264393937005263    0.0983674808762207 Te
   0.5580134523602943    0.6628984100650667    0.0936692768509344 Te
   0.5513678033900760    0.7994264762885206    0.0783611603979702 Te
   0.5592745759841842    0.9503078960931312    0.0829063933749944 Te
   0.7187373363177820    0.0967778310693813    0.0756925624879393 Te
   0.7266196709797778    0.2424973855393678    0.0769491086701235 Te
   0.7235370963223292    0.3896498568306719    0.0647357984092288 Te
   0.5589988287565787    0.2367866861506486    0.0844164267644369 Te
   0.7402126351768497    0.5537481026301062    0.0819609062081911 Te
   0.7244366090125113    0.8126810534531215    0.1016504885293915 Te
   0.7278245008583932    0.9538169359792487    0.0845739849504864 Te
   0.8831409937812141    0.0891687269945879    0.0846859928601513 Te
   0.8887760479700313    0.2376909971799893    0.0821889578343792 Te
   0.8836074225812748    0.3845542318168904    0.0673191287148538 Te
   0.9022167358839754    0.5273599809087554    0.0893997791890535 Te
   0.8976932527133171    0.6579433032030810    0.0953201256279095 Te
   0.8818721388037994    0.7996564918733187    0.0720252656876946 Te
   0.7031729591448684    0.6617299990734442    0.0829605097814019 Te
   0.5547014383482236    0.0954252897829876    0.0715595475432774 Te
   0.3832681913839353    0.9450168072418327    0.0797741223758220 Te
   0.3831561281968404    0.8069728794924634    0.0827194747446423 Te
   0.0514214715231525    0.0910909344251842    0.0824418752443939 Te
   0.0511969502225852    0.2318855372644043    0.0565508986125209 Te
   0.0563912227586285    0.3765750552134289    0.0856071340919051 Te
   0.0510392905525786    0.5223807273692218    0.0781971461171910 Te
   0.0574038302435117    0.6625564066026136    0.0877848567480879 Te
   0.0493233101073374    0.5131505538769546    0.4162578876635963 Te
   0.0473397319235690    0.9459520368477543    0.0757413997734779 Te
   0.2287668944402187    0.0882762594389131    0.0794369316280047 Te
   0.2212810154054590    0.2313844602749462    0.0886382430769397 Te
   0.2154726478951228    0.3748326692580158    0.0867924722406927 Te
   0.2203899736247067    0.5285746306263555    0.0758514436885410 Te
   0.2196277111031488    0.6633647569049105    0.0794858558470564 Te
   0.2144491373451843    0.7999248580910139    0.0679682487770937 Te
   0.2189878768954812    0.9447047670473606    0.0846681906049278 Te
   0.3904572090580598    0.0905772968476727    0.0550621592891678 Te
   0.3967109552767697    0.2407554252755498    0.0756471898613977 Te
   0.3962176874631710    0.3787762004269594    0.0786714395289330 Te
   0.3843740893842483    0.5202227892753459    0.0935103231819180 Te
   0.3950912711426431    0.6672161448179884    0.0770644826347827 Te
   0.8909583920222539    0.9486130563613814    0.0916607443876785 Te
   0.1016393420918037    0.0371945802306991    0.9267591566839937 Te
   0.0538694235753980    0.7985641985362009    0.0753661451107781 Te
   0.1112566208306070    0.3261570486045987    0.9348321032507246 Te
   0.6132887117266926    0.7623637748327041    0.9229925961094667 Te
   0.6134781374088730    0.9000321113592491    0.9279325382172052 Te
   0.7824956177375518    0.0401281628569111    0.9268101682424867 Te
   0.7812302365290896    0.1939112647259348    0.9157170963271444 Te
   0.7823999437751834    0.3422721688125241    0.9411195941983991 Te
   0.7974747616182457    0.4920939789683106    0.9098686509899410 Te
   0.7600475190002783    0.5881611204917130    0.9359972503008496 Te
   0.7778554814130765    0.7548099787196808    0.9466482365691954 Te
   0.6077102094249733    0.6278389331206216    0.9403047234086566 Te
   0.7791273173188574    0.9030290385868388    0.9221414448520094 Te
   0.9532510753962865    0.1911063367344630    0.9253200349761586 Te
   0.9404118941346583    0.3314082086602931    0.9137939099502762 Te
   0.9478361114445044    0.4780235977275962    0.9263525583930537 Te
   0.9433463153559829    0.6157177692236170    0.9157215814002334 Te
   0.9347333038961744    0.7482791968487162    0.9365052780424573 Te
   0.9378438324938868    0.8962300443285856    0.9362765761265699 Te
   0.0602335665896254    0.2393094313509315    0.3927963912014638 Te
   0.1038443835824152    0.1863014700493189    0.9332953717524319 Te
   0.9383652611149162    0.0390657220805181    0.9145319346922244 Te
   0.6047975965864260    0.4858214733740671    0.9148579409345589 Te
   0.0506585055314808    0.0909684268952815    0.4025728118854574 Te
   0.6174708350144780    0.1989998614946727    0.9117411176424355 Te
   0.6241592922028835    0.3480550808866641    0.9324347909774091 Te
   0.1035931055345740    0.6146495123364676    0.9081224204847202 Te
   0.1160646219325683    0.4769254474037980    0.9170239272877408 Te
   0.1020116009871197    0.8943393864767282    0.9187976483949889 Te
   0.2756128504556087    0.0438489128555764    0.9237326528015272 Te
   0.2748607692418970    0.1931746949261448    0.9148921327836863 Te
   0.2838135953267557    0.3343603473726441    0.9249054682374105 Te
   0.2771181700118611    0.4685944394974487    0.9189863105856366 Te
   0.2740356261955886    0.6141800088200393    0.9215601582749132 Te
   0.1050239724571155    0.7563111738570664    0.9281153882410708 Te
   0.2656295760827778    0.8953301936524490    0.9119201255140585 Te
   0.4417362314314796    0.0510571942489370    0.9345056469847541 Te
   0.4504558110021170    0.1951942177178554    0.9164444193593186 Te
   0.4506316023870112    0.3388359330874571    0.9479440276171575 Te
   0.4430206894423538    0.4762810748997143    0.9293900201955579 Te
   0.4504903643577469    0.6141649538642362    0.9168311591813331 Te
   0.4516745655703037    0.7532433046656846    0.9293170002863399 Te
   0.9514686067576658    0.7730033125629787    0.2498107761288058 Te
   0.2655543338604595    0.7508830369105702    0.9179054250319494 Te
   0.6152739926417431    0.0470441496490317    0.9234521197636633 Te
   0.6616420049781472    0.2826831730813095    0.0012524304321314 Ti
   0.3297358762213436   -0.0060502609877082    0.6791364728243221 Ti
   0.1542759634194585    0.7041105329007634    0.6618997818926601 Ti
   0.8389983230704072    0.2847487141489738   -0.0001091132585363 Ti
   0.1590341816486460   -0.0026098651816797    0.6722408309825655 Ti
   0.6848308450756581    0.7231172540684638    0.3349163036854982 Ti
   0.8327389222583631    0.4251495034198327    0.3233984821730806 Ti
   0.8255711861843134    0.2688399111684900    0.3238571652525425 Ti
   0.3484247846488554    0.0115659300906692    0.3324419711615195 Ti
   0.3272647908816898    0.2902834599064968    0.3245777576943220 Ti
   0.6576478963496860    0.2724137359508608    0.3193419385655915 Ti
   0.5031617581520148    0.7269687548498897    0.3425761658202190 Ti
   0.1744863059029393    0.4217287035402852    0.3371278741856775 Ti
   0.3444127669045381    0.5850549014743195    0.6541650670863349 Ti
   0.4906122003359264    0.7140578423946339    0.6523076993098123 Ti
   0.5123712355682238    0.4451203274089237    0.0087722590665090 Ti
   0.4996622544966929    0.5720463903597703    0.3362964237181076 Ti
  -0.0049845842305232    0.6990075384365620    0.0043194891106900 Ti
   0.0008606922072101    0.8490059462727378    0.0052883634658551 Ti
   0.1644054100058343    0.8569276175817765   -0.0003278817071508 Ti
   0.6622981403248751    0.5772903943216158    0.6693934361076432 Ti
   0.3401968638031768    0.8573208138859203    0.3422493345314581 Ti
   0.5109465299364834    0.2823198701436296    0.0008234727964428 Ti
   0.3253182874922855    0.2797712652570952    0.0056208326233488 Ti
   0.6768361612094376    0.2941967206776506    0.6838857884240820 Ti
   0.8403129473423923    0.4486712198780155    0.0000815475928128 V
  -0.0092855285970427    0.2877760559152488   -0.0009597904652970 V
   0.3221677261317228    0.4181173920864438    0.3328051299833467 V
   0.6462220127577982    0.5653185866735165    0.0092966268430864 V
   0.5141026220488537    0.1560867509489633   -0.0048751815918099 V
   0.1786413718412402    0.2826177585383297    0.0052784998892186 V
   0.1550540404463029    0.5730439869625696   -0.0040631758410583 V
   0.0037617321062712    0.7276029901198789    0.3329169979659925 V
   0.6714891304608813   -0.0004046412424151    0.0025422554165977 V
   0.0069455037674225   -0.0017814006549512    0.3212383182656656 V
   0.3210492060124522   -0.0170374965198641   -0.0031864790451859 V
   0.8509121346615569    0.5716082680129910    0.0082208349772863 V
   0.6655590439151013    0.7274242222975222    0.0151461767119955 V
  -0.0182575950627856    0.2705917539016413    0.3234378343185402 V
   0.3404143808179626    0.4411393020803986    0.6654566604284189 V
  -0.0114929141204685   -0.0017929063061783    0.0025762728303801 V
   0.6605681631473922    0.8658797869984607    0.3370086534402578 V
   0.8204266106144774    0.8470408092721102    0.6610909915232608 V
   0.8383397198536134    0.8493196570224225    0.3316075976397524 V
   0.0109982237218170    0.3036327719897237    0.6649737552469481 V
   0.8281534359798632    0.2975398935579073    0.6766542072313299 V
   0.3307907330439265    0.2829097948111426    0.6705251025351227 V
   0.1494210419710885    0.4257963485364654    0.6620018927360779 V
   0.8499801425156855    0.0173261684963858    0.6585694745225256 V
   0.1512854213822927    0.5712763253529618    0.6568121544840168 V
   0.3371841282157829    0.5676183072919804   -0.0003270488870884 Zr
   0.4924182596564897    0.5700887512650914    0.6553744108121414 Zr
   0.6685973176124144    0.4285307760897081    0.6842597888941395 Zr
   0.8384181631803701    0.1451615893094812    0.6629426738128518 Zr
   0.3311038536318437    0.8554692066795776   -0.0091567818150915 Zr
   0.1677088666386776    0.1384902948666959    0.0031704383261127 Zr
   0.8265852067913161    0.7182647106235948    0.6637182851457808 Zr
   0.0044194249231754    0.4233422422999812   -0.0016994383359291 Zr
   0.6735267400125089    0.8568555474766122    0.6548875089828773 Zr
   0.4973399594243538   -0.0069080093662825   -0.0018271993106716 Zr
   0.6706524803686588    0.5731713678633662    0.3223800648518472 Zr
   0.4969841162393514    0.1412735209308286    0.6890934618400694 Zr
   0.6678965666801834    0.4280217090038902    0.3138759838978684 Zr
   0.3363223215191347    0.8547009574002851    0.6668665182852406 Zr
   0.6881917314817212    0.4610405171479395   -0.0078461512028687 Zr
   0.3340273167548977    0.1496328550538318    0.6819692038576990 Zr
   0.8356324323895035    0.1437426383635037   -0.0020624004751638 Zr
   0.1692215536039391    0.2995135332762583    0.6608199554844603 Zr
   0.1712006155142396    0.1518838026834509    0.6678083561676406 Zr
   0.8204413987557611    0.6858885349863616    0.0174160162397252 Zr
  -0.0137713453429575    0.1353711732888854    0.3226003207210866 Zr
   0.0020784998060852    0.0107299637835341    0.6637704222063143 Zr
   0.8400447732030927    0.7221475657323483    0.3326444999294417 Zr
   0.5033381209497690    0.4339435594845644    0.6753908780888846 Zr
   0.4965797292297879   -0.0006510651111423    0.6765512356429556 Zr
