Mn38 Fe38 Co39 Cu39 Ni38 O256
1.0
  16.7162463718173768    0.0023447929281418    0.0039513075663761
   0.0023445412933115   16.7153690312205185   -0.0055739954123385
   0.0039511637698669   -0.0055744312781078   16.7094761489668997
Co Cu Fe Mn Ni O
39 39 38 38 38 256
direct
   0.6930435497662892    0.5590260438377026    0.1901253156698664 Co
   0.1830373933219157    0.0608456502360164    0.6868973759459316 Co
   0.0620042798752436    0.8143143432704416    0.3142971170332002 Co
   0.9366521989003673    0.3160436237209895    0.1879756883931782 Co
   0.5610992908673768    0.6871074544562362    0.6837687276676091 Co
   0.1894759842469600    0.6887526588516069    0.0624387002911244 Co
   0.3760203201870804    0.3755154132796811    0.3764493195214225 Co
   0.3088036413029138    0.1874259979374169    0.9366006258535944 Co
   0.3763476845149525    0.8750685457946213    0.3775260900646596 Co
   0.9383684123214504    0.5640067879360335    0.4380067572935918 Co
   0.5590072808874903    0.1891461959032000    0.6895465936102100 Co
   0.8791301738372679    0.8771557347665505    0.3761930923544797 Co
   0.5648246455417771    0.1889856556808611    0.1885601240897147 Co
   0.3129263310253275    0.6883456468945518    0.9380546404654869 Co
   0.9383899404970617    0.1869056158669272    0.8135091667183328 Co
   0.8129126547057405    0.6880351741748110    0.9354087056373975 Co
   0.0636771856702273    0.5659551317595020    0.5605457140150781 Co
   0.0610061853341564    0.3105620230692754    0.8143505873743707 Co
   0.4387225541942118    0.9389458959097154    0.5616334543312631 Co
   0.8768284355473661    0.3749783942433269    0.8734025921338970 Co
   0.6269290987600743    0.6208395863955625    0.3743831848143040 Co
   0.6868615352053279    0.6880407062068010    0.5627885091360204 Co
   0.3129725905149054    0.9378682744895284    0.1904238451664114 Co
   0.4373410835164404    0.4337032444419575    0.5594390372285122 Co
   0.0603774621682696    0.0616821628149177    0.5654208617917801 Co
   0.8130031530141123    0.4365176123254805    0.1893810723075708 Co
   0.4360761944412700    0.3125447187041533    0.6844355540135775 Co
   0.6229593306082101    0.8732689891048708    0.6259219850652548 Co
  -0.0027046020960910    0.2497643815816007    0.0023305250764489 Co
   0.9363920763815093    0.9379069769268021    0.5642783465726253 Co
   0.0004728287493139    0.7502099291891416    0.4979636425869107 Co
   0.5624287006524741    0.4419659170967317    0.9374636237819243 Co
   0.0605983895389660    0.8094722422243554    0.8107632005811142 Co
   0.8140586456268382    0.0648091129248876    0.3095408550528906 Co
   0.3139321200826420    0.3125322225193340    0.5601411532824043 Co
   0.9371428951112466    0.5628547445042991    0.9374266958364325 Co
   0.0591074257810157    0.4361153948561985    0.9354197198588783 Co
   0.6880926673779943    0.9365833036748644    0.8134597478369995 Co
   0.5621904740332370    0.4352219786651436    0.4372951202785108 Co
   0.6840523550903197    0.5659205572582013    0.6863806158985493 Cu
   0.5675819235037086    0.5616195061453062    0.0646195725253546 Cu
   0.2479317167806067   -0.0072278041812396   -0.0017917073608455 Cu
   0.2432874058939626   -0.0070484127414911    0.5111273983324565 Cu
   0.2523826598028331    0.5026983420823278    0.5018862534412025 Cu
   0.1865930214504573    0.0608996362426045    0.1887390596360155 Cu
   0.1851202423359777    0.9379003415405259    0.3144365623908651 Cu
   0.8132771727367460    0.1885726758758547    0.4343171951950329 Cu
   0.6908941282699796    0.6870340985200745    0.0630698497338559 Cu
   0.4378922490063361    0.8128161073856828    0.6854395355742070 Cu
   0.1871473442917432    0.3136508318696575    0.4389885554904429 Cu
   0.3120594496543081    0.6878974594706438    0.4375020547046315 Cu
   0.0614995273541708    0.3136311635132260    0.3132991316264493 Cu
   0.6875155733301904    0.0636870706494328    0.1894394910772831 Cu
   0.4355027274851386    0.6886791548945330    0.8099759275539345 Cu
   0.0631174184200861    0.1875979399033502    0.1884669009683214 Cu
   0.8131560714449708    0.8112994802886750    0.0613281714949001 Cu
   0.6264120695826068    0.3772078897621083    0.1269898480801929 Cu
   0.5634600516112729    0.9362725385072277    0.4385799952687511 Cu
   0.8128288879951238    0.3111950851950923    0.0649365414511660 Cu
   0.0013580535177696    0.7516668856820162   -0.0032238294208120 Cu
   0.0621537239393304    0.9332516640643125    0.9337184677058441 Cu
   0.0627642891315204    0.4384456104408077    0.4376140854397139 Cu
   0.6316843534394880    0.1286151512750217    0.3718025303310352 Cu
   0.3121423635705980    0.3112337783409876    0.0605700644101929 Cu
   0.5657657612159697    0.3120575026611423    0.3143698839188872 Cu
  -0.0008898839492992   -0.0050097133778885    0.7477876433392324 Cu
  -0.0028211081938545    0.5005727770488243    0.2512481056400398 Cu
   0.9397124856516148    0.0611198790477205    0.9370901572973136 Cu
  -0.0024479056579607   -0.0012282010650603    0.2517882873983671 Cu
   0.4378279788801624    0.5591408526317820    0.4363578041872058 Cu
   0.4934310826899904    0.5031892672293637    0.7454547074108889 Cu
   0.5674906197344726    0.6844289274346368    0.1878542323493597 Cu
   0.3703700464234537    0.8690611238570247    0.8694353319110417 Cu
   0.0653160166668893    0.6891312603489700    0.6850679123153789 Cu
   0.9401518577949088    0.6878166640895313    0.3148151354633649 Cu
   0.2523495391730585    0.7503133909499027    0.7479660609313737 Cu
   0.7500947092068148    0.2508489414897981    0.2462556402594873 Cu
   0.4352506392337126    0.9381820562350951    0.0629732434635177 Cu
   0.6859662886890004    0.3146319888201441    0.9423512378015345 Fe
   0.4406661781366842    0.4354714953378475    0.0608522015193402 Fe
   0.5568536101838751    0.3173718063828919    0.8126935798959710 Fe
   0.5624020797405647    0.5605749817946187    0.5602206768037964 Fe
   0.1872457958053490    0.4383924406906045    0.8097355451125118 Fe
   0.4420561319930040    0.1889270782345270    0.3134652956695989 Fe
   0.1847961366295712    0.9305639160090559    0.8085750782327701 Fe
   0.9367924381330265    0.1885433048923158    0.3099426733186607 Fe
   0.4324314795716232    0.1930574643050124    0.8113858189962226 Fe
   0.4373302794463821    0.6844338301151710    0.3111781853021078 Fe
   0.6901107498735735    0.4353331963981789    0.3144701630463100 Fe
   0.0601873411412376    0.9404349728695119    0.4390587708773463 Fe
   0.1874460912895363    0.8138161030891241    0.4407319183448201 Fe
   0.3055045796720809    0.0606696107807646    0.8124966377911064 Fe
   0.5621181425014420    0.0629455538086952    0.5609487321696995 Fe
   0.1199604089028650    0.3767239460082156    0.1254694293222949 Fe
   0.0637929402612246    0.5658739158270876    0.0579530534469999 Fe
   0.3729619261991050    0.6247843669634708    0.1232552267823888 Fe
   0.2489701142344577    0.7530440002860274    0.2525337530639327 Fe
   0.5634804226175749    0.0657099485412340    0.0637556715655056 Fe
   0.8790789693935948    0.1192181738551395    0.6310999096862160 Fe
   0.0614091793186505    0.6892358878240403    0.1864255082526549 Fe
   0.8746679320060788    0.6265077347441914    0.6254014579047065 Fe
   0.4976499369720786   -0.0008564716223607    0.7521933649955801 Fe
   0.7531599117059070    0.5018614562070833    0.0018228659193520 Fe
   0.9423799880714869    0.3159842444677096    0.6887342557301811 Fe
   0.6199482805791078    0.6269879865892788    0.8715334627845295 Fe
   0.1225679137480301    0.6242081623528256    0.3773457207774443 Fe
   0.1222785845043025    0.1228063258199845    0.8752327030972381 Fe
   0.4988179006248614    0.7492525431967113    0.5018098805192397 Fe
   0.7531369353998448    0.7460351293148167    0.2517168008626483 Fe
   0.1873747438193288    0.5633236946987856    0.1858761735990534 Fe
   0.3120790452421678    0.8165147863245568    0.0616046807438323 Fe
   0.1270265639338130    0.8753672090947905    0.1285678412171511 Fe
   0.6837535453751370    0.0588773204048401    0.6923920489992186 Fe
   0.8122676211137805    0.9371212895486695    0.1910502844836599 Fe
   0.3147517459399253    0.4344111276668285    0.1872224293272902 Fe
   0.3125309066117531    0.4369477201114418    0.6855689951332991 Fe
   0.8139979397102356    0.8131556542419810    0.5636583525447715 Mn
   0.6202331282964091    0.3744214566457342    0.6232286014991237 Mn
   0.3112492025696756    0.0601643306716315    0.3149514960663834 Mn
   0.9363879668242904    0.6884996228783432    0.8147744592716385 Mn
   0.4346598836230414    0.0639285197868592    0.9370019083101991 Mn
   0.5015221697333578    0.7483777766222106    0.0044296280037489 Mn
   0.5601867050597137    0.9367890206638708    0.9353772668282599 Mn
   0.4354112654980565    0.5643775848014413    0.9359306482601659 Mn
   0.5027996121280957   -0.0038194036799382    0.2511464043951969 Mn
   0.0083143220924015    0.5067423003665257    0.7518371013750500 Mn
   0.8153465691571289    0.3116722753292729    0.5615775606118300 Mn
   0.7492997020970025    0.2529237655962774    0.7504700311401684 Mn
   0.4378548920740206    0.0624531393223775    0.4390504348988560 Mn
   0.1274550186391230    0.6294100720187069    0.8760951729963288 Mn
   0.3736848856189982    0.6247804739297139    0.6213106639452183 Mn
   0.3711211650200679    0.1257350448468376    0.1235793563378319 Mn
   0.0626092008242032    0.0587796511182112    0.0650806176046036 Mn
   0.1863536251843912    0.4367231322540693    0.3147388309567289 Mn
   0.4421816240877109    0.3114821457079735    0.1866052763223917 Mn
   0.8120960923861014    0.4426231783520150    0.6873158340670836 Mn
   0.6844378992490224    0.4423760889802383    0.8130116952197796 Mn
   0.1826666091567150    0.3132913677961487    0.9371353781823882 Mn
   0.9384744370824326    0.9339687215867131    0.0637084598929030 Mn
   0.9391341001105581    0.4421540987786530    0.5624479288587866 Mn
   0.6890223349060589    0.1857427393931267    0.5668433170991578 Mn
   0.0641664376226656    0.1849468519458277    0.6882753774173432 Mn
   0.6876488423920012    0.8096953146840885    0.9326479506316865 Mn
   0.6886336330390471    0.8083163381096026    0.4388696958537351 Mn
   0.1854829014062752    0.1847437708893887    0.0623888659647326 Mn
   0.8146396203792915    0.1895362062675629    0.9374018997959692 Mn
   0.9364857504188405    0.4380401974447293    0.0622298617595908 Mn
   0.7544522737153245    0.0011709053600424    0.4928280252947790 Mn
   0.7500797716485377   -0.0009759983672600    0.0009643635429566 Mn
   0.8702641572670188    0.6261324817313673    0.1258585596405653 Mn
   0.5640710025356886    0.8085522180487361    0.3118192351812486 Mn
   0.3703083180404229    0.1241013322517107    0.6255471859217324 Mn
   0.3103363174128290    0.1884060336426952    0.4379487281850187 Mn
   0.8150034647262224    0.0613026211613505    0.8145110294072047 Mn
   0.9376908605990939    0.8122582319402439    0.1903422135152604 Ni
   0.3127074214024869    0.8141089016696509    0.5623780525525246 Ni
   0.4379128697235652    0.8129905995927502    0.1879454196809132 Ni
   0.9381439028517198    0.8132645495871309    0.6871861903363538 Ni
   0.8122841875433660    0.5653274561157087    0.8146361212635652 Ni
   0.1217008178836437    0.8753441658613559    0.6260981703622774 Ni
   0.1265730090850735    0.3745044330862002    0.6199428504715346 Ni
   0.6260353753638415    0.8747930099426515    0.1231722882023965 Ni
   0.0017459873552449    0.2501852472896149    0.4982954750887865 Ni
   0.5035390116738347    0.2488234122619970   -0.0002752903384851 Ni
   0.5006949045573945    0.2517020815548503    0.5019657124348730 Ni
   0.1236458894315327    0.1241416223181282    0.3761126524060321 Ni
   0.6243333497945991    0.1285233075839617    0.8733087958373791 Ni
   0.5060860560217602    0.5000635862067322    0.2517364698781452 Ni
   0.3722667147975109    0.3759274373184431    0.8774565699204869 Ni
   0.8762854394703838    0.8737066819880902    0.8761314690207715 Ni
   0.2490115561571610    0.2503488612161522    0.2504169654406953 Ni
   0.2483153445248917    0.2526871036054663    0.7481179653112844 Ni
   0.7487604627171484    0.7479830681720032    0.7478810686066887 Ni
   0.8771630518904686    0.1256129567438750    0.1286523525064856 Ni
   0.2507394411494777    0.4988009105492132   -0.0023047498731290 Ni
   0.8763227180067256    0.3746592683427549    0.3754519807950420 Ni
   0.1858423434811401    0.1864618676595091    0.5616225742587260 Ni
   0.3104887763149367    0.5643643901093056    0.8106216340696455 Ni
   0.7498195720037641    0.5036749154228453    0.4973909408443560 Ni
   0.3130662032660493    0.5609612151306984    0.3152099263620629 Ni
   0.9377691540291930    0.0650618540082062    0.4365030887632459 Ni
   0.5621898733026546    0.8116167682175733    0.8075414140448823 Ni
   0.8150599143506794    0.6849614105276882    0.4379341746950435 Ni
   0.6876267817637549    0.3103639561671204    0.4377489532073432 Ni
   0.8162889287775154    0.5607249271789965    0.3141059043253605 Ni
   0.6895025158389203    0.9378292277040945    0.3137171655840491 Ni
   0.8123175064412550    0.9341442624219916    0.6896585314894806 Ni
   0.3117340605531270    0.9366653802936966    0.6857949546401594 Ni
   0.1888782676552406    0.5634741761765035    0.6836159706058508 Ni
   0.6891368651575165    0.1891853878512440    0.0654768722512670 Ni
   0.1875696035571126    0.6882960651081678    0.5628230670152310 Ni
   0.1869943323424906    0.8104313728797772    0.9354429405200685 Ni
   0.8228263053149918    0.1810105543117618    0.8188469472534237 O
   0.8177609430728194    0.1778431418255715    0.3039482580553642 O
   0.3160111025195341    0.6874559612920034    0.8250585735489454 O
   0.3161407744209533    0.6864034499863619    0.3152345085754902 O
   0.3131037455135114    0.1836541488775864    0.8204825488953360 O
   0.8178180389606874    0.0721556769755465    0.9297663302242614 O
   0.8204315810050901    0.5699275683216463    0.9382271081604686 O
   0.8253624614401036    0.5659458154105853    0.4352456334630391 O
   0.8166411033728003    0.0740674473239694    0.4236157200168673 O
   0.3208638389028990    0.5702737505181084    0.9348159595944999 O
   0.8200160864070875    0.6846297148749033    0.3159221344130727 O
   0.3173295094056304    0.1792599614625262    0.3197243422149607 O
   0.3199089397845241    0.5681244492247954    0.4364571643071109 O
   0.1840018016247252    0.1821869493011855    0.1800841730140568 O
   0.4462953800372717    0.4350407321493423    0.4450905351211604 O
   0.4461334154862139    0.4471820934985793    0.9397649664642558 O
   0.4431808399150914    0.9468909241425775    0.4448134561460199 O
   0.4414952499393042    0.9488633664247078    0.9344092808437846 O
   0.9390007736076825    0.4477201316154171    0.4479242768912479 O
   0.9428580444711996    0.4448412871079464    0.9418979943459933 O
   0.9394948223542549    0.9424403876710106    0.4493340353431372 O
   0.9436933345350942    0.9398834951080695    0.9473283565725991 O
   0.4299896319372775    0.0670739774388965    0.3227056289265126 O
   0.4310017698317389    0.0682471108567684    0.8182726817754000 O
   0.4349042856792488    0.5664917060097588    0.3183059912120337 O
   0.4349555338145478    0.5693737389881564    0.8220719913973272 O
   0.9300937011257471    0.0690342364248559    0.3120593054439268 O
   0.3178990209265821    0.0706357256842797    0.9343202078417255 O
   0.8213537334441995    0.6867306712964372    0.8205953190802978 O
   0.3186012640393294    0.0693462536621637    0.4326771987443821 O
   0.6884218642953723    0.5578882427621333    0.8119386127981326 O
   0.8120654572422557    0.9471177666372856    0.3106723456050097 O
   0.1775469338049263    0.1784605439159224    0.6866028963592591 O
   0.1867299204743629    0.6849037833579028    0.1808915287246031 O
   0.1843617345528247    0.6852238656667129    0.6838920164679676 O
   0.6775591462770475    0.1824670366205327    0.1874912067526213 O
   0.6750311555289005    0.1811604433090568    0.6849533597999770 O
   0.6945005077626492    0.6741692505147543    0.1886511033434565 O
   0.6772241394202407    0.6861931279359754    0.6770351102293531 O
   0.1975192637926118    0.0581203593463774    0.3107630746076856 O
   0.1839771431558869    0.0588438021302970    0.8058369779124784 O
   0.1879161004735501    0.5545584335846733    0.3080150432198638 O
   0.1881061621279284    0.5545018283818575    0.8070870190057609 O
   0.6983115452923839    0.0606281886173126    0.3091024582233287 O
   0.6947455577089717    0.0542260368482766    0.8123357116356834 O
   0.6919277858482004    0.5560737550698508    0.3047417618071356 O
   0.9322338862875005    0.0711008840978964    0.8126507256389225 O
   0.3111553232703039    0.0531256483531762    0.2001265509586470 O
   0.2978602014229156    0.0605016359037817    0.6946538125473350 O
   0.3085431035480238    0.5556504560777348    0.1887307463057699 O
   0.3106679512430320    0.5545370585760551    0.6887855287363881 O
   0.8090128535691418    0.0572875797580661    0.1946008341559063 O
   0.8072596542741782    0.0600927351573408    0.6984680054291785 O
   0.8067281736401061    0.5495711054798583    0.1925552061095936 O
   0.8098690549731465    0.5603686092270266    0.6902236518753548 O
   0.3031566207784249    0.4382299710318939    0.3069194859560392 O
   0.3064245840486443    0.4382663873129453    0.8065109148603864 O
   0.3127413817612335    0.9455851810382724    0.3073172661648216 O
   0.3046867261002816    0.9432118957726967    0.8099416766618990 O
   0.8097891544537733    0.4380380184490359    0.3035811370130244 O
   0.8029095081016314    0.4413321908310580    0.8058398693975639 O
   0.8043896056657376    0.9455076023356770    0.8138246245836365 O
   0.9401556021446947    0.5666148165598688    0.3246753728248472 O
   0.6944192827885932    0.8049979597393655    0.5561340801978659 O
   0.1856180566965686    0.4362256882357510    0.4278183234171157 O
   0.3126859072507911    0.8209453708040970    0.1869477611124690 O
   0.3218754606852459    0.8157636908254637    0.6839665613852897 O
   0.8231039474150440    0.3220726509407550    0.1864372927175472 O
   0.8212224934299481    0.3230854921238603    0.6806640746290268 O
   0.8132012866501853    0.8160526957325739    0.1863144240218292 O
   0.8147832286740181    0.8141027955412498    0.6772225541054893 O
   0.3186733243435823    0.4298721553395513    0.0664986263262908 O
   0.3223841481508417    0.4267401809609888    0.5620377257525693 O
   0.3140060757694105    0.9364448667364049    0.0745299839991253 O
   0.3259137134020120    0.9375124944462874    0.5646859058282570 O
   0.8192022948429007    0.4369227361984296    0.0696971941511694 O
   0.8224819603886945    0.4411638839257426    0.5702769234809558 O
   0.8242356445283739    0.9311108051748912    0.0669168234200680 O
   0.3209037683251358    0.3132715440347898    0.6759023983802805 O
   0.8195664531335261    0.9281108574444832    0.5664217272245512 O
   0.4436474940369776    0.1960923628034915    0.6919230551909820 O
   0.4371551889277856    0.6879546562396504    0.1896209534422992 O
   0.4478474331959306    0.6894476431043931    0.6855749683967207 O
   0.9443625124831144    0.2014332073927924    0.1877868925478672 O
   0.9447415981757885    0.1909162392316504    0.6955107349884492 O
   0.9453193817340501    0.6910255184880641    0.1937286172973180 O
   0.9370610912742712    0.6865581750195575    0.6976536668714619 O
   0.4418157719006204    0.3164246313873663    0.0713901916522397 O
   0.4303896818060475    0.3185291262317024    0.5693183265933972 O
   0.4304665932368744    0.8201294477880553    0.0666894779316622 O
   0.4387519114583538    0.8235021955742677    0.5630977839645629 O
   0.9342344469487581    0.3221867136487924    0.0703294221970375 O
   0.9348937277925180    0.3243721830464478    0.5665553279470318 O
   0.4468547321001313    0.1959351337965027    0.1925058369380361 O
   0.9343115667636296    0.5724508583509752    0.8234264340078045 O
   0.3240578845838543    0.3133049752472125    0.1816039186682253 O
   0.8074288550338239    0.6935940747536119    0.0482793790381162 O
   0.1752161144214115    0.4324240177517567    0.9338611923236181 O
   0.1811780280611757    0.9353029903612878    0.4335245178578449 O
   0.1789145402524519    0.9333679141382331    0.9293860558521824 O
   0.6783521834332041    0.4336885467174891    0.4355947986845272 O
   0.6812893616473109    0.4395656441449740    0.9323395524299307 O
   0.6810225117338360    0.9231249190200761    0.4364729501807785 O
   0.6816425739859389    0.9265561841249312    0.9289203856924957 O
   0.1780997431901186    0.3120185284813771    0.0532326337126653 O
   0.1990920324792549    0.3094645065312546    0.5575934849667098 O
   0.1900839206643783    0.8058232034859559    0.0626141120491189 O
   0.1904946403756386    0.8104719405947601    0.5569118028030996 O
   0.6942764219144614    0.3122926645174109    0.0581233473196519 O
   0.6976538184981919    0.3001483324265413    0.5640312537611687 O
   0.8056709116434466    0.6944912288429023    0.5637099836031053 O
   0.6888914301959229    0.8062783778508278    0.0483959560471793 O
   0.3014700313021541    0.3032533433160474    0.9402589166627668 O
   0.3072893881115324    0.8081570729125083    0.4378806234797585 O
   0.3105066188216798    0.8026691248889596    0.9433902422208208 O
   0.8114162501833955    0.3042736058963405    0.4472897571239864 O
   0.8089400208794831    0.3054500554022465    0.9367753229020974 O
   0.8044786694284508    0.8100796135907840    0.4460619927338833 O
   0.8036663745658402    0.8030228695194144    0.9371311133665238 O
   0.3005492655120484    0.1931285493636800    0.0519238358462272 O
   0.3092863410065311    0.1961179332142993    0.5509968855634416 O
   0.3064686640765032    0.6916079015199479    0.0573840026034718 O
   0.3101031786712695    0.6921932905188450    0.5544512376806973 O
   0.8133532080036197    0.1902189917497529    0.0511029820672713 O
   0.8046657027252592    0.1844956346648687    0.5772377608407909 O
   0.3118660089563077    0.3036390026524877    0.4436362558010462 O
   0.6862599762200228    0.8218264050233407    0.8166644917269865 O
   0.5561681888909163    0.9436239425311613    0.5583521194965939 O
   0.6791280143700477    0.3266567138426801    0.8182471287409121 O
   0.0651460031235006    0.0627127549732161    0.1790264599845536 O
   0.0667853182857788    0.0698837221396410    0.6820197810633809 O
   0.0684734387322160    0.5671629495534265    0.1792180760166235 O
   0.0671828867033204    0.5724956828109895    0.6736890200415261 O
   0.5634290692423919    0.0736731198516772    0.1835442400407694 O
   0.5614236773684953    0.0706268726868691    0.6872263040570028 O
   0.5783240726905746    0.5638604025439267    0.1831193174838999 O
   0.5625981990159979    0.5718131236005655    0.6804729488875957 O
   0.0673280640935625    0.1749895778356664    0.0639034950704251 O
   0.0621906644307412    0.1787526043156623    0.5741670812292741 O
   0.0730817521807102    0.6849886153547181    0.0643841975863334 O
   0.0636385462584884    0.6796751875593420    0.5633877133094259 O
   0.5659300852061666    0.1845248790761679    0.0727035457003206 O
   0.9360293913263585    0.8201277853858506    0.0650469039996777 O
   0.5707319726224218    0.1850215161635659    0.5729269664414628 O
   0.5697269209556219    0.6847204839529335    0.5666491159932160 O
   0.1910064475712979    0.4397021334214207    0.1928908216955463 O
   0.1920170833471221    0.4375241180451648    0.6909337502960126 O
   0.1959177848932649    0.9389481461797093    0.1927130232791343 O
   0.1878864185611387    0.9475552076959564    0.6904761803982298 O
   0.6976602553243549    0.4436449875866896    0.1911653990577792 O
   0.6861738850462458    0.4442181905587920    0.6991759890855307 O
   0.6924989754353388    0.9442012596482849    0.1906639185357172 O
   0.6870295712430580    0.9419769855179060    0.6977628166486384 O
   0.1771349912493602    0.0586492074043875    0.0672496516977899 O
   0.1753214660902900    0.0634195097550419    0.5729479686164480 O
   0.1846643043235016    0.5711776660943889    0.0654746235344755 O
   0.1758267210761343    0.5650238441879047    0.5604216627453600 O
   0.5739876673365850    0.6789112024591801    0.0700562699958667 O
   0.6807658363427864    0.0669790325828609    0.0683870944713233 O
   0.5584704500494704    0.9427691444172406    0.0515436216899093 O
   0.5602140387569442    0.4442985614075172    0.0523629332426087 O
   0.4295454385341712    0.1809860338718129    0.4349883060214657 O
   0.4255142171110973    0.1821925516221774    0.9338992954586129 O
   0.4366850832238960    0.6850549826173760    0.4343547247439595 O
   0.4283957776463798    0.6782232293767320    0.9371734450436604 O
   0.9295480081536176    0.1879519622500746    0.4301930751636509 O
   0.9313174019486498    0.1861790062165360    0.9285545773908644 O
   0.9373336938521888    0.6779186556156170    0.4347781195801298 O
   0.9294845808447988    0.6796503173280419    0.9318472389012059 O
   0.4411373157111919    0.0587077548517288    0.0509034609559655 O
   0.4424084657416126    0.0558185291067075    0.5538662663892415 O
   0.4355956416366273    0.5581903578473221    0.0544425144276111 O
   0.4416125581474091    0.5495316041995345    0.5553438491666277 O
   0.9459103439150481    0.0526048760926156    0.0610366100400934 O
   0.5532665554906069    0.4410685114949177    0.5522623624731167 O
   0.9422615774418247    0.0553645825769411    0.5639561634733008 O
   0.9435471002893981    0.5597496589377985    0.5581109204130034 O
   0.0587983327612642    0.0601477526634474    0.4506760993120411 O
   0.0607996338092807    0.0588366900248083    0.9454157356784687 O
   0.0554258528940826    0.5601726123360886    0.4441615008077424 O
   0.0529495573383573    0.5523139379958794    0.9388663032908857 O
   0.5525249598224690    0.0685012373948591    0.4420358111404041 O
   0.5509673678260912    0.0652898313242110    0.9401774442022368 O
   0.5586778666888698    0.5523025165297225    0.4394985000679087 O
   0.5550066636876397    0.5594904522372774    0.9409925216308449 O
   0.0551216412606953    0.4406859572458325    0.0540476620780299 O
   0.0536115346880465    0.4483790518778745    0.5606064934354552 O
   0.0562506791502487    0.9412367064398343    0.0635852600589148 O
   0.0514536433548924    0.9468098261939456    0.5612277814418523 O
   0.9422883486647805    0.5547412525971079    0.0534344737104287 O
   0.6821045332623169    0.0691991043056918    0.5710289221562512 O
   0.6957797743696499    0.5662001452603382    0.0721898221495134 O
   0.6826440065145079    0.5735678225092523    0.5646271110052297 O
   0.0625922196067709    0.3191172142910084    0.9295660983428200 O
   0.0658229228653627    0.8184004587186172    0.4291640073369508 O
   0.0640661954102723    0.8133849868373169    0.9252498435303890 O
   0.5659363209157744    0.3200994927884714    0.4355510810303644 O
   0.5654591797981120    0.3247505187809534    0.9333927706128327 O
   0.5714483049041087    0.8042296835472277    0.4305560949348076 O
   0.5733112186609031    0.8108845173555140    0.9295699390128229 O
   0.0714232488543712    0.4342680471421467    0.3148091848344088 O
   0.0639840896234629    0.4250176757650026    0.8213968294501891 O
   0.0618859919559507    0.9289829737830796    0.3174707758829590 O
   0.0627987640908642    0.9242135111190530    0.8120435200915374 O
   0.5677204250057405    0.4311639676593166    0.3229069166961503 O
   0.5682019991918102    0.4390975331789542    0.8208853604825048 O
   0.0670782268573241    0.3207180149268782    0.4352118070946378 O
   0.5671289443491390    0.9230117844354305    0.3206499917007091 O
   0.1974542140130326    0.1911413878432361    0.4392954442539043 O
   0.1905158311362779    0.1894109327155311    0.9398676918926120 O
   0.1890161501217607    0.6911832341924632    0.4371952669369054 O
   0.1992810887859777    0.6901713414999341    0.9490472994070539 O
   0.6964294827683570    0.1866103716107976    0.4523363336107034 O
   0.6982003491005496    0.1948650697846769    0.9378343829735687 O
   0.6914931221557716    0.6924342490996421    0.4467671317963000 O
   0.6953286845323952    0.6930668527727650    0.9289981802273792 O
   0.1828417465123634    0.3224113958051693    0.3172869844567401 O
   0.1764536432543586    0.3136484756574576    0.8212101102276336 O
   0.1790080330280529    0.8168723365002597    0.3155081719453323 O
   0.1753001283586579    0.8120011061632711    0.8129320784143590 O
   0.6844928041667397    0.3154593694197056    0.3153588393726328 O
   0.5695700685652949    0.9378904152273159    0.8168492671225727 O
   0.5584538870559953    0.6877387623327301    0.8002140075830337 O
   0.5597034463155883    0.6923234880966452    0.3068156713594142 O
   0.5546151168540101    0.1955845221682834    0.8058116376283962 O
   0.4364032039718918    0.4276780996896532    0.1833774455036719 O
   0.4360761752434552    0.4271820426410814    0.6758035954131584 O
   0.4262982253488117    0.9347364395126911    0.1848411560281760 O
   0.4382684949030348    0.9400331918074059    0.6787601700542542 O
   0.9301439324095034    0.4325282314909039    0.1803572631578353 O
   0.9393668788372554    0.4354333413150608    0.6796667927095653 O
   0.9331216718315430    0.9333499457407941    0.1783581238375868 O
   0.9333059695600816    0.9348650867263735    0.6773195690264900 O
   0.4407975112700742    0.3076076613384585    0.3034817691146263 O
   0.4378127195253624    0.3118094638887902    0.8029696968311751 O
   0.4496879934142007    0.8068370643477568    0.3112460724282486 O
   0.4403694667380922    0.8064986540239122    0.8053033235557546 O
   0.9417060237956175    0.3108329149268848    0.3022212368676936 O
   0.9450147000529494    0.3042357458125096    0.8079701902728624 O
   0.9481168928277326    0.8090579044296388    0.3128312285674655 O
   0.9436179621959118    0.8026287229100562    0.8104544772562382 O
   0.0531523792496328    0.3146010460757903    0.1888111038052457 O
   0.0610755368698145    0.3024483534651369    0.6960680584167384 O
   0.0630499298144053    0.8103910462675581    0.1963862460733111 O
   0.0584532923337884    0.8049766282688652    0.6967495785315199 O
   0.5570600701330214    0.3053475810630006    0.1909427612530212 O
   0.5519421998171682    0.3039494292644995    0.6929013453769396 O
   0.5625286281754643    0.8063042617458926    0.1975579712981758 O
   0.5571077122659780    0.8022866319904209    0.6866381994850663 O
   0.0585280053406106    0.1940223253867718    0.3076829243139227 O
   0.0559022765144454    0.1921441540611874    0.8088099209187690 O
   0.0643993455315752    0.6957757782906526    0.3090453165045011 O
   0.0506864835547591    0.6945010447386362    0.8097062193368382 O
   0.5592948768380328    0.1904729875915606    0.3049995212859766 O
   0.6825367919082934    0.8099904151801398    0.3209133515785408 O
   0.9285928766569000    0.8202769306444408    0.5633296226234197 O
