Mg38 Zn38 Cr39 Fe39 Ni38 O256
1.0
  16.9704799665226744    0.0047530669656586   -0.0077679051138494
   0.0047533420157974   16.9688386417766779   -0.0029942038898726
  -0.0077659321678105   -0.0029930426640982   16.9625320409174236
Cr Fe Mg Ni O Zn
39 39 38 38 256 38
direct
   0.5629975770920124    0.4361787904644572    0.9350115604044796 Cr
   0.9414040357053667    0.1892706832299382    0.3104415571580749 Cr
   0.4363995198098889    0.1872060136514791    0.3113532949756722 Cr
   0.5615345201532421    0.3136557179589209    0.3130965935934724 Cr
   0.0628127990270894    0.8120083098554136    0.8135763352026569 Cr
   0.0621961772622727    0.8105389130939601    0.3118854167686265 Cr
   0.3118671775846135    0.1881135788220266    0.4370896156053914 Cr
   0.6866682977487680    0.9366527469299909    0.3116167869229941 Cr
   0.6858469206405362    0.4372807424271229    0.8126191850037454 Cr
   0.2491704444117217    0.7504094652305309    0.7501470569961122 Cr
   0.7493058224285666    0.2477200025052932    0.2495375332681159 Cr
   0.1901460174291245    0.9375812542619746    0.3118540539231863 Cr
   0.1872263311564049    0.4352430174368563    0.8130932643433691 Cr
   0.5613952904363438    0.0655917582012173    0.5656566221889712 Cr
   0.0595245762856945    0.5599025592422131    0.5606009909460263 Cr
   0.3744018326927772    0.6250601125971444    0.6268621428899128 Cr
   0.8739027976860295    0.1209884759181860    0.6229734203731038 Cr
   0.8117210980369729    0.9354150500469179    0.1881533581571630 Cr
   0.8123463153163617    0.4396968161157367    0.6882859184523876 Cr
   0.2491464751936114    0.5019412898520571    0.4986253165774324 Cr
   0.1859348870890963    0.5642412090282245    0.1864791546371524 Cr
   0.6862354877392792    0.6881221474852360    0.5604795368116391 Cr
   0.9365538881320962    0.0625800615986670    0.4367663014006046 Cr
  -0.0007638622797015   -0.0013473291813292    0.2512083090534998 Cr
   0.1898772220092509    0.6885104434821542    0.5623071990427384 Cr
   0.9364426557519502    0.9357544605489673    0.0629804374184010 Cr
   0.4355850810747202    0.9372099924466402    0.5642524329185328 Cr
   0.4354551941504066    0.4361767501108685    0.5634618632030309 Cr
   0.9401798376054727    0.8108145295650462    0.6890489457864490 Cr
   0.0619884011883641    0.6859360068454872    0.6875869036971807 Cr
   0.6255002533395064    0.8752887619386437    0.6230647214784415 Cr
   0.9353797965920847    0.0633105577547999    0.9374376219407674 Cr
   0.3135965820597060    0.8095034042287645    0.0660360829135210 Cr
   0.3107906566921910    0.3095876903521264    0.5606970655004447 Cr
   0.6238649737839440    0.3745539546135807    0.1229323310616396 Cr
   0.1254453493973669    0.8757365032945161    0.6263110406400789 Cr
   0.1261488208717960    0.8750343131597409    0.1262853213178645 Cr
   0.1267003270960513    0.6253379566865946    0.8735751310329795 Cr
   0.0036093201023488    0.7509950676964722    0.5009624769836643 Cr
   0.8170077745318062    0.9332803124939718    0.6863748075986321 Fe
   0.0669726564160378    0.0648022741146974    0.5645746039245249 Fe
   0.6864894990932059    0.5631690718478041    0.6877129421874292 Fe
   0.6852091922459455    0.0578656911923710    0.1837517620896644 Fe
   0.1889706663514729    0.4376544236232334    0.3107967049282790 Fe
   0.9387606470095350    0.3141329803885654    0.6878195805219420 Fe
   0.8179820396292015    0.3155772935369843    0.0588627010900240 Fe
   0.9345168230803195    0.5636898996767628    0.9357071782228081 Fe
   0.4333642639629298    0.4380537023681200    0.0629074334302142 Fe
   0.4370739100273803    0.0619531647867055    0.4358454951299268 Fe
   0.0571495104319743    0.4349365883933854    0.4379632114256810 Fe
   0.4413722629617722    0.6869020527824778    0.8158169381159545 Fe
   0.4392829073752075    0.6863392071074820    0.3111201708828768 Fe
   0.0602604175310923    0.9396010519279832    0.4396800167090503 Fe
   0.6829999668240667    0.1877349466294045    0.5641448830662587 Fe
   0.1898564625576131    0.9414006769949490    0.8129582250069436 Fe
   0.0610151360161989    0.9365943295906455    0.9366380517829058 Fe
   0.8089230906243939    0.1876809860190608    0.9364115785505743 Fe
   0.3155111968479152    0.6922365933190182    0.4346771046648343 Fe
   0.3134373610930127    0.1867434376668966    0.9391901385682933 Fe
   0.5632840291996849    0.9360790727051613    0.4333182383099996 Fe
   0.1884232308955711    0.8132674693446229    0.9391657524850215 Fe
   0.1863627046715468    0.3095817703157863    0.9381358380875989 Fe
   0.5626518038183480    0.4378816828603647    0.4391457056689324 Fe
   0.5573922365908193    0.3101084404027058    0.8117486928748040 Fe
   0.1259423228510749    0.3777187018612795    0.1222594709920466 Fe
   0.5005019378514062    0.7524932290139523   -0.0002614583990502 Fe
   0.8739201639223295    0.3730717480424721    0.3742442222649127 Fe
   0.1219004779251221    0.1242498789187892    0.8749947678503840 Fe
   0.2483801010477958    0.2519875988089779    0.2511463326641783 Fe
   0.2529680235853544    0.2479828639430862    0.7504705145583686 Fe
   0.7503462454237509    0.2527532111900713    0.7509493136972883 Fe
   0.7511105440385289    0.7522306292966827    0.7520780586963209 Fe
   0.3743923273754428    0.1249202211590582    0.1228516028736585 Fe
   0.6222951809185553    0.6246628606269135    0.8760234284418352 Fe
   0.8757644092034684    0.1252977182591476    0.1230966714672779 Fe
   0.2533907018025379    0.0005485900631180    0.0030096068094319 Fe
   0.2520548307541304   -0.0008310077066210    0.4984034380937923 Fe
   0.6237121418756700    0.1254851633113759    0.3747583708777533 Fe
   0.6887234454839944    0.5717324521248424    0.1876198309427239 Mg
   0.0609404224493309    0.3083166889973314    0.8110514538176091 Mg
   0.8109281389665743    0.0610061098665614    0.8146385150418790 Mg
   0.7475239716761733    0.5030399063940302    0.0003493202008872 Mg
   0.3160132391118817    0.5606265821713933    0.8179032484195802 Mg
   0.1863710411563992    0.3097776702744636    0.4381967604972457 Mg
   0.6856359215678536    0.1841995730067546    0.0585863664426264 Mg
   0.3135390634282302    0.5629315887951073    0.3083334037676087 Mg
   0.3108493180821384    0.3119212103623352    0.0628716254104063 Mg
   0.6255039247843502    0.6230764359063735    0.3770454031348821 Mg
   0.6862994604441169    0.3108559172747536    0.9336572882617472 Mg
   0.6241424439320996    0.1220609776139561    0.8748300347204022 Mg
   0.5628584636212806    0.9396339149223105    0.9377772105495440 Mg
   0.1264156954664714    0.1249562926996385    0.3738415473678842 Mg
   0.0001552195804039    0.5012848560082814    0.2549377399793857 Mg
   0.1863333105989286    0.6844935726125625    0.0645721362271850 Mg
   0.3157235534877269    0.6865386966982420    0.9411113387369157 Mg
   0.6889005824567085    0.3120895325380010    0.4398842095231199 Mg
   0.9357827118523591    0.5625858245456239    0.4364795832467291 Mg
   0.5654851632593265    0.6855212223779300    0.6868966845950091 Mg
   0.1860725803134048    0.1880909502032810    0.0654977110829445 Mg
   0.4409669969021333    0.5622776964644526    0.4346219901373255 Mg
   0.3122902809655579    0.4379418901884096    0.1869653273358514 Mg
   0.0004519985156390    0.0018682767171291    0.7514974886873464 Mg
   0.3174680388365074    0.9378029440758223    0.1876815585989852 Mg
   0.3131747948910881    0.9415925486484560    0.6888250842461691 Mg
   0.9358090556485164    0.8088334781633272    0.1866153570872484 Mg
   0.1874471206914320    0.5592030472985529    0.6883479432490994 Mg
   0.8748437427692202    0.6240262536931892    0.6233831192443872 Mg
   0.8768551581200331    0.6246803700430501    0.1210490482476960 Mg
   0.0644501823710917    0.0632691273375168    0.0643200132787193 Mg
   0.1249268738106991    0.3736485836477733    0.6277607953444657 Mg
   0.4382819479086612    0.8108234529557000    0.1860052387008397 Mg
   0.8120504922725209    0.1874322904095693    0.4360399191692950 Mg
   0.5598929982813102    0.0635552779144406    0.0603991888945189 Mg
   0.9376188917155649    0.4379292548591836    0.5630271887228566 Mg
   0.3730234316224657    0.3734425994515060    0.8796516381554549 Mg
   0.4999262616193664    0.5011397058103739    0.7481178427996621 Mg
   0.4385059387992124    0.0620441244445417    0.9385486540210565 Ni
   0.4375416248622891    0.5630742849545146    0.9385382289563616 Ni
   0.5625357762815079    0.6887355695218478    0.1872439226516528 Ni
   0.3129961372350081    0.0609589230309674    0.3111408418354129 Ni
   0.3130113802176931    0.0622668911354854    0.8133047617439938 Ni
   0.4987521344016855    0.7521898548802262    0.4999541184705110 Ni
   0.9364035588069278    0.6877303729768441    0.8132330747269623 Ni
   0.4379976235491779    0.9380435630682814    0.0618970846058914 Ni
   0.9368091600518358    0.9354727328181156    0.5628548002916491 Ni
   0.4366440246890302    0.3107931857952397    0.6884531374939277 Ni
   0.8147683605095856    0.8127155312788257    0.5612692414109388 Ni
   0.0636540710681243    0.1901948570592857    0.1883627650269051 Ni
   0.0018738006261550    0.2468549559124707    0.0030169259279443 Ni
   0.5589128604569915    0.1886071952968649    0.6890101533855039 Ni
   0.6223838812187835    0.8715862279314979    0.1228056171397919 Ni
   0.1253780045906487    0.6236564884974167    0.3741984672506438 Ni
   0.9355011505890332    0.1847921474430877    0.8155649743999349 Ni
   0.3127887886760854    0.8143183978042601    0.5638159612478004 Ni
   0.2521366467486306    0.5002103435676288   -0.0009145626796692 Ni
   0.7472867234508292    0.7543647816593395    0.2477736999768211 Ni
   0.0649684219742957    0.5631003070641344    0.0621874534114735 Ni
   0.6877100958202943    0.9364146895771859    0.8141853124108674 Ni
   0.6873247802337322    0.8117759188384286    0.9372471530232145 Ni
   0.3755198000893332    0.1238797733361325    0.6283588607577729 Ni
   0.7505767421489753   -0.0018254870162939    0.0016093973712390 Ni
   0.3743822874759063    0.8767587505206214    0.8775267781587133 Ni
   0.8100661972276690    0.6926088800755761    0.4387577618329886 Ni
   0.1888976380839539    0.0636767036698398    0.6885411180646037 Ni
   0.5632701379915798    0.5686077429335408    0.0633035632672435 Ni
   0.0646680074134686    0.3133809184815597    0.3131431128362099 Ni
   0.4987860244997508   -0.0012858356160754    0.2458177743014621 Ni
   0.7511218644988245    0.5047300494893120    0.4978840303026814 Ni
   0.8103108247208987    0.6879736493746564    0.9359810763149014 Ni
   0.6851469987196410    0.6893762023288335    0.0598117798374390 Ni
   0.4378418760069321    0.1862400578743889    0.8132826447898549 Ni
   0.7510657895260846    0.0012026739190161    0.5001079901708551 Ni
   0.6253638932064948    0.3714382148058067    0.6248455021485154 Ni
   0.3761037139765919    0.3756690108521029    0.3740125429888840 Ni
   0.3117679145747161    0.5691714382364429    0.6878966267410269 O
   0.4443556292014446    0.9432917182202687    0.4442846564476789 O
   0.4456293720418696    0.4411465505810689    0.9464886680916200 O
   0.4422807714325354    0.4414194032349894    0.4462791651225936 O
   0.8096292067591971    0.0576862285408204    0.1891642029426880 O
   0.8185963402383757    0.0576471720781647    0.6828731895409051 O
   0.8068461717915077    0.5629460007892617    0.1893060488849938 O
   0.4385872776310453    0.9460220451988589    0.9473401224712721 O
   0.8141198726497556    0.6887618545618146    0.8176253089355683 O
   0.8068727599865708    0.5548761444978967    0.6920140964605849 O
   0.2989185486210860    0.5605352411318606    0.1866392440603812 O
   0.3168555522967125    0.0674086452630772    0.4359689823548968 O
   0.8126892928813113    0.1842704625267128    0.8159787926572103 O
   0.3019383131756116    0.4424406038610866    0.8132467606797945 O
   0.3101576042502276    0.5636280871066700    0.4399835813612412 O
   0.3184336944373047    0.5691810668966362    0.9358486044850726 O
   0.8211851718625341    0.0661116607572237    0.4307533371484880 O
   0.8157462255474689    0.5807661090038444    0.4360800769694273 O
   0.8044222726308348    0.9395731219462595    0.8017881058078690 O
   0.8167156729917671    0.5722764471327093    0.9338798656984354 O
   0.8056143538307924    0.9387019430455277    0.3057362663569295 O
   0.3173407098572483    0.1860045761709933    0.3185735683076598 O
   0.3045838329051472    0.4419585262749790    0.3098768556404146 O
   0.3155251360474037    0.1836397641325406    0.8186099819680558 O
   0.3110053968085396    0.6904188078484175    0.8112869124775020 O
   0.8043782667739463    0.4390871880417300    0.8029112960478587 O
   0.8136544501549836    0.1898217230547554    0.3086839419754054 O
   0.8071282011681254    0.4340732824318352    0.3078348761193969 O
   0.3034613080012903    0.9402704810991538    0.8094027401151900 O
   0.3176496447236907    0.0650237875869868    0.9361593440427368 O
   0.8127405148969861    0.6976700948483177    0.3237614259328904 O
   0.3046566956191269    0.9398214422446614    0.3082567468504847 O
   0.3180710811658163    0.6836311013087469    0.3193843740186783 O
   0.8189698844658970    0.0680764664239860    0.9363167866334996 O
   0.1832977681729849    0.6757530523936739    0.1855500938036410 O
   0.3147712636135204    0.0581519314834642    0.1897121556313883 O
   0.6868201801183771    0.3027290599850698    0.3098286713648092 O
   0.1863396779697517    0.8132568045001898    0.8149955293719531 O
   0.1793372813604478    0.8193175194555696    0.3151350063769690 O
   0.1864971894840610    0.3175872179554302    0.8143666909964311 O
   0.1871220426042842    0.3196238894877955    0.3179483276464900 O
   0.6874983182165441    0.6929270281010469    0.9372259669217635 O
   0.6882447985960370    0.6941428728042849    0.4502758587286660 O
   0.6943548886697861    0.1909921034357445    0.9405028251894264 O
   0.6893728761058809    0.1863867340123820    0.4425199651893254 O
   0.1866005356229112    0.6897947452829964    0.9349125298757291 O
   0.1951962526542106    0.6902029928281753    0.4473988624850825 O
   0.1898392530834072    0.1877303292158376    0.9400838159176702 O
   0.1987422616778347    0.1893520567150178    0.4392055219999816 O
   0.5730663024364053    0.9336552536658649    0.8148773772332284 O
   0.5683054665186495    0.9354310530940880    0.3167281964084815 O
   0.6817529176892260    0.3184694634002054    0.8116131652944739 O
   0.3062140714792361    0.0599719478325827    0.6949806408080560 O
   0.6842000219558967    0.8207387349827771    0.3121845112259677 O
   0.1810018336805209    0.1855516268407154    0.1888963517870830 O
   0.6856216640389295    0.5577283462192545    0.8088764768075566 O
   0.6934453279721805    0.5624239636048330    0.3066122199891205 O
   0.6914961379184895    0.0499644572400389    0.8060043980438940 O
   0.6864686135458559    0.0588950493934436    0.3075318880899744 O
   0.1877950462490624    0.5607164682183472    0.8135134389012340 O
   0.1905385259378434    0.5563415848954008    0.3038227128375578 O
   0.1871854736339822    0.0568625031495875    0.8110712672421604 O
   0.1912831683225212    0.0530469268875074    0.3067430560850001 O
   0.6890643590489877    0.6862644628724176    0.6818775056062719 O
   0.6785950454218563    0.6927904579875129    0.1833657058480465 O
   0.6866470068323539    0.1876491960915769    0.6837383511956847 O
   0.6933995286683139    0.1855824446317172    0.1910771373645241 O
   0.1854355951471283    0.6880673358630456    0.6860535936163797 O
   0.9384604488474794    0.4390402963452068    0.4395811894883339 O
   0.1905451002663074    0.1845251222723826    0.6847167479532078 O
   0.6860819159618081    0.8202409547333037    0.8142998377785976 O
   0.9413000962165035    0.4475589626996097    0.9362259453726751 O
   0.4371931929131112    0.1902965107097983    0.1932079017158328 O
   0.9434233858758350    0.9420684673586586    0.9450839444573577 O
   0.8165383115585744    0.3203701559837366    0.6875166257460052 O
   0.8034677521294001    0.3061577501428643    0.1888054819879173 O
   0.5665745804167804    0.4319175837023072    0.8180122972262280 O
   0.3052378505757790    0.8123760430519251    0.6879518702767992 O
   0.3140036036791097    0.8152889597225177    0.1756353162357726 O
   0.3145317647411013    0.3112023219112799    0.6777331624148908 O
   0.4258292160983694    0.3201475782381275    0.5648801846775431 O
   0.4279410737337629    0.8138835403761273    0.0629881025527090 O
   0.4312619222989908    0.8204852608028717    0.5705863008961068 O
   0.8041701389977931    0.6952785176603095    0.5552163741144798 O
   0.8011639908062179    0.6884638449569866    0.0512325508407996 O
   0.8121342436944464    0.1762029643956563    0.5636204356859977 O
   0.9320749727961508    0.3149687795592390    0.0674394615342933 O
   0.9315705390578833    0.3146045671238994    0.5715462570602381 O
   0.3098607338450617    0.3154369609001296    0.1857389995892154 O
   0.4341611722690698    0.3220285185708127    0.0654308241620154 O
   0.9464358941093798    0.6932385853329885    0.6910623868413869 O
   0.8144011478965937    0.8197272078494446    0.1853122675841337 O
   0.8180960127292703    0.9309116903971331    0.5688292688901848 O
   0.8213330498531251    0.9334932509699752    0.0710499608399106 O
   0.8135312572875811    0.4397045517806938    0.5775494173770243 O
   0.8132882259086118    0.4296820020977661    0.0681627707170336 O
   0.4403835448040059    0.1913037099374384    0.6952807552019203 O
   0.3171615919788767    0.9359528787346989    0.5652312491920907 O
   0.3169219815588269    0.9292588152368855    0.0640346120096714 O
   0.4463551323392058    0.6893184784069070    0.1916170419695477 O
   0.3115399738371136    0.4349833191324817    0.5573891361213066 O
   0.4373845244355397    0.6854195236277358    0.6859660773266048 O
   0.3193728467639018    0.4345011764780726    0.0646938401766431 O
   0.9427956334777675    0.1874107904090892    0.1913414764266829 O
   0.9279215397551975    0.1815002088561949    0.6830711961205256 O
   0.9429611440448776    0.6925569517198900    0.1865156260038810 O
   0.8211209996749775    0.8139530379080623    0.6838548484256205 O
   0.8094429426164284    0.1938740624058831    0.0613436241501252 O
   0.9442878574401995    0.9435902603971276    0.4426309144315886 O
   0.3101312354170374    0.6874537593728625    0.5643149071717661 O
   0.3146988630013376    0.1963081653041840    0.5541231022081555 O
   0.6803402852498924    0.4344746214235117    0.9299886790919624 O
   0.6800654398440259    0.4323222649579893    0.4392662591438655 O
   0.1833586289201308    0.9329134401996784    0.9353983127725399 O
   0.1809938699111220    0.9364903581963887    0.4314861926249339 O
   0.1856136130565458    0.4306724373344937    0.9260356593987603 O
   0.1889802341903691    0.4402727155933914    0.4384809833372477 O
   0.6814029929417410    0.9370546102383052    0.4304012756104101 O
   0.9367805544078346    0.5688431389240637    0.8194076362122270 O
   0.9321839344457236    0.0655874857553766    0.8215321902387731 O
   0.9409887103570187    0.0640482410704719    0.3157783067327746 O
   0.4340419250513317    0.5724132026979188    0.8160765790372529 O
   0.4327109212087579    0.5702101674122120    0.3156127879049940 O
   0.4332388813878322    0.0644932373583409    0.8255465635409431 O
   0.4343472847632328    0.0688842344915905    0.3191553075209875 O
   0.9324345639978414    0.5721234022170167    0.3188974233330099 O
   0.6862251954463775    0.9279524069578505    0.9352928789978022 O
   0.1882539410930114    0.3110598952975643    0.0564261044716114 O
   0.2002996096299560    0.3115829259840328    0.5596123210320989 O
   0.3084094958822560    0.1888227810466216    0.0581272100735774 O
   0.8081577797156262    0.8015527224580529    0.9382313491095126 O
   0.8090566714703475    0.8054982029921882    0.4440903342743897 O
   0.8072524212406713    0.3071681437488559    0.9439436344062191 O
   0.8102388989023017    0.3072994961304495    0.4389721879734149 O
   0.3019734437115019    0.8083407255547170    0.9473259768771701 O
   0.3104745507683367    0.8073235341794868    0.4458501897030394 O
   0.3038359662621813    0.3030558997568928    0.9416450167685207 O
   0.3113613697987500    0.3049579719918112    0.4460738825684362 O
   0.6854795722713319    0.8128113092778990    0.5663017196960726 O
   0.6902854341531092    0.8016116261738203    0.0556628773485302 O
   0.6939920976232630    0.3010089653647949    0.5598576423740870 O
   0.6848230189556079    0.3155057123624816    0.0655763872471679 O
   0.1875668291233561    0.8071895223280535    0.5647385892799606 O
   0.1885574543206809    0.8119912346153465    0.0622026176921042 O
   0.3063537501715385    0.6982724209925213    0.0598283600488924 O
   0.5681863584916701    0.4298214430072221    0.3168070286057572 O
   0.5613443911525547    0.9401463210666193    0.5625773910309061 O
   0.0629847517097729    0.9357681316810366    0.3154652283306635 O
   0.5658436965718601    0.4336959933468523    0.0604098934294681 O
   0.5510869237387456    0.4370294943549339    0.5600079178073748 O
   0.5516077352476719    0.9395561388522724    0.0604940703621823 O
   0.9352365258157412    0.8205744555308812    0.0665246012215905 O
   0.0567982704447357    0.0553186660283943    0.1917328542714287 O
   0.0693210633965999    0.9294321811891406    0.8184647691065376 O
   0.0752307882019840    0.5622300517732663    0.1861827689895818 O
   0.0681371049277831    0.5706977787563795    0.6790655932621622 O
   0.5707868828825842    0.0644482081028416    0.1844648771412638 O
   0.5606165604199738    0.0722219624403344    0.6814397595578338 O
   0.5672687401186393    0.5759417680002973    0.1798136152342575 O
   0.5709811743536609    0.5661620296385360    0.6813106051531724 O
   0.0656513009660558    0.1808989878135259    0.0752665107750612 O
   0.0672947035460947    0.1790455699829913    0.5627577298428679 O
   0.0676479829350451    0.6776197005302693    0.0639300265527209 O
   0.0680054240933152    0.6866403222680877    0.5651255420963621 O
   0.5678024705414242    0.1851117505741961    0.0678099452143286 O
   0.5645914538619246    0.1825153636957393    0.5694532218112455 O
   0.5688884398173535    0.6889320936189147    0.0644317135653714 O
   0.5747408885498815    0.6884385728852378    0.5657764840254913 O
   0.1884606607991999    0.4456936389887192    0.1904314572245161 O
   0.1933235860709812    0.4420784514362756    0.6986373447137091 O
   0.1870271600145474    0.9336691394611971    0.1895503993349382 O
   0.0618307817927547    0.9396936423383448    0.5592482292588363 O
   0.0621488771859315    0.9348724490750890    0.0624604880682791 O
   0.0606298803728793    0.4446165840859858    0.5572885002574937 O
   0.0640329831951998    0.4473411626118169    0.0559618272019895 O
   0.4310064860216520    0.1820150940363651    0.4308327080559025 O
   0.4316120350988544    0.1789906013539866    0.9323538661769830 O
   0.4305637730039447    0.6824279561422425    0.4343366165202617 O
   0.4357747191063790    0.6876750839604302    0.9324434358250624 O
   0.9337669774018487    0.1795167440607156    0.4269958613750165 O
   0.9298937880777336    0.1792583097700172    0.9364255083033610 O
   0.9432094916452965    0.6928795225981592    0.4470332754099273 O
   0.9336994750856982    0.6804163248238273    0.9315827790463389 O
   0.4380750253588863    0.0603333762069855    0.0555561792706442 O
   0.4440626105054100    0.0562682544076104    0.5563046126557019 O
   0.4478578263439541    0.5554750931795417    0.0595609136291350 O
   0.1863412706786563    0.9367130234128638    0.6926861539494957 O
   0.4303593736950872    0.5611663556508887    0.5653341154855730 O
   0.9380210678584758    0.0628948680215947    0.5598760453789363 O
   0.9502745308031204    0.5609874420752439    0.0506995123004988 O
   0.9467393351203248    0.5601490021640347    0.5581625891590896 O
   0.0564243351277832    0.0561669370483405    0.4440864440695855 O
   0.0572587793117914    0.0553113518840377    0.9415554323095828 O
   0.0595343454839393    0.5556050296546428    0.4441700329686055 O
   0.0658478083180879    0.5689720753260150    0.9316530224856131 O
   0.5591495929827671    0.0595367602960433    0.4428590245203215 O
   0.5512048457104397    0.0585149084914511    0.9407275422289720 O
   0.5592332347326380    0.5544570974588027    0.4450535014278976 O
   0.5607742759619839    0.5563689934951920    0.9435848421874389 O
   0.9404615382867639    0.0562784195415383    0.0597105333107897 O
   0.6782461821534846    0.4360814249553241    0.1774877802399428 O
   0.0677319425852273    0.0643219650897013    0.6789180624633251 O
   0.6946583465820688    0.9410573097427734    0.1928341884154411 O
   0.0610065931145721    0.8079752266055772    0.6927890182376056 O
   0.5695222166790256    0.3164683437754287    0.1869969079733364 O
   0.5559349231588941    0.3044871689115349    0.6921391788435244 O
   0.5593825514717943    0.8005527965294127    0.1891277476485262 O
   0.5677544735739580    0.8153897007665792    0.6810894420533887 O
   0.0562795106536747    0.1911295635729670    0.3038072755681895 O
   0.0566383257605560    0.1846615466509184    0.8095073607780120 O
   0.0621116524347448    0.6983987249659664    0.3104901843452315 O
   0.0671342243187549    0.6894751278404965    0.8081741166344962 O
   0.5571501297915525    0.1929187139522309    0.3092398901429362 O
   0.5583094041048643    0.1925315166409094    0.8046880562776086 O
   0.5548485480042482    0.6893682492853925    0.3094813239967176 O
   0.5589724149408509    0.6911501428808331    0.8072753597786279 O
   0.0673792729173353    0.3195586872542092    0.4352756368065680 O
   0.0696442352221555    0.3100795660456968    0.9328317686333470 O
   0.0609914797050335    0.8159928798337581    0.4348806960416449 O
   0.6943933604286441    0.4430799107890680    0.6925860664220317 O
   0.5665226211454296    0.3170572071323460    0.4285340690788782 O
   0.5649355717116181    0.3187045444455064    0.9294898041740527 O
   0.5657312447721760    0.8213774778859509    0.4362092117766036 O
   0.5648074662018493    0.8171859008307881    0.9385798687933535 O
   0.0721006841750846    0.4348991682189912    0.3223864356092405 O
   0.0749658012656259    0.4334509750810324    0.8129724114702934 O
   0.0645162286765855    0.8180521480505801    0.1909369604482224 O
   0.0531670754122391    0.3052173938162813    0.6899090659027661 O
   0.0702632878740416    0.8169476568482824    0.9315393307232258 O
   0.9474877676918512    0.8083571391865695    0.8062465664023780 O
   0.0663032302660743    0.3114694650897685    0.1911396542592885 O
   0.6883407187685028    0.9323022461925266    0.6803882461987222 O
   0.1853002259753323    0.0608598045495378    0.0675774542176014 O
   0.1858169059125851    0.0602186549596994    0.5633553766532836 O
   0.1790176492518812    0.5644427984782675    0.0692810652761736 O
   0.1876310019318722    0.5658398355816204    0.5631945196304923 O
   0.6839740461477074    0.0647749902401524    0.0705780193418985 O
   0.6792373207978637    0.0686231197330360    0.5691803843919060 O
   0.6782635903138685    0.5763513908963115    0.0649649960366196 O
   0.6898949497609704    0.5755888841991661    0.5688084302927165 O
   0.4351874137915929    0.4363177549785724    0.1782370272043998 O
   0.4290856317755803    0.4344278484779339    0.6792218652009069 O
   0.9431208370699935    0.8111337701915370    0.5662366340117850 O
   0.4325387988608086    0.9368001585368080    0.6803950492796130 O
   0.4364817013236819    0.9316726593909291    0.1756302132896763 O
   0.9398416266784629    0.3031384567531487    0.8033595262243043 O
   0.9483266698412000    0.8107398361775977    0.3078499186515298 O
   0.4401006231923024    0.8046780151855433    0.8057722010106252 O
   0.4389968222497785    0.8032519119231570    0.3077719486800584 O
   0.9405451532570532    0.3052433958949556    0.3089956815757900 O
   0.4468721162799991    0.3058484751271521    0.3068044261294461 O
   0.9344371565441477    0.9289658268193894    0.6837345436683174 O
   0.9352456675682974    0.9378152167321663    0.1874282466780155 O
   0.9277937952651786    0.4336843851271447    0.6865925731575723 O
   0.9381622358823010    0.4340805164917126    0.1840041315134953 O
   0.4411370782338161    0.3082987160053143    0.8083686464990096 O
   0.6813351952714555    0.0663215605817259    0.6922680169824024 Zn
   0.1959675145051388    0.0672570119452118    0.1876863563348669 Zn
   0.1884714828922634    0.1881200371125322    0.5613801034536140 Zn
   0.3749953861869753    0.6247345052363782    0.1249313762662627 Zn
   0.2507578899157547    0.7481246046148465    0.2493861547426716 Zn
   0.8718460976703577    0.8735812991253503    0.8732861670243554 Zn
   0.8748798143817433    0.8719515799692102    0.3744015353679180 Zn
   0.0007372276754963    0.4999576418972302    0.7505178410810338 Zn
   0.3760393873425083    0.8732302880217413    0.3740767552022505 Zn
   0.4999206916920213    0.5050199308655179    0.2477293394065404 Zn
   0.5001819638002299   -0.0004449753559209    0.7528093399003479 Zn
   0.3127090954125648    0.4319983193859047    0.6954550245830829 Zn
   0.4986139265345399    0.2527512381048320    0.4986563466383995 Zn
   0.5005935677634218    0.2492264369234291    0.0012716706858347 Zn
  -0.0026398526328657    0.7466118641043182    0.0028178220048496 Zn
  -0.0016888777472395    0.2506551262404830    0.4995054723072809 Zn
   0.8758314378357497    0.3722495080580428    0.8732423052643600 Zn
   0.8227216375387252    0.4485199001499670    0.1882295188357774 Zn
   0.5619792104495579    0.8146247922562717    0.8180696161548701 Zn
   0.6892490790291440    0.4486739190537343    0.3220164450668861 Zn
   0.8136692931585925    0.8085800874790317    0.0606510369723423 Zn
   0.8127607915037801    0.3184068913913489    0.5591493084699342 Zn
   0.5558253156227023    0.1824215398700240    0.1827525313377171 Zn
   0.0591424532048602    0.6823679673894266    0.1848822385473034 Zn
   0.0680887122871917    0.1867797032258889    0.6876831779686402 Zn
   0.9471754451116372    0.3173327362833165    0.1868100965834014 Zn
   0.4362822195058402    0.8175486772807475    0.6893386384047752 Zn
   0.5654800166708687    0.5620232088087010    0.5625388124627022 Zn
   0.9392094372091440    0.4394777408704304    0.0628074856863738 Zn
   0.8125752603620516    0.5695743384943678    0.3101025776094745 Zn
   0.8098279382989961    0.0594360441591609    0.3130648266519550 Zn
   0.0599466308044251    0.4300853762137087    0.9353466836607142 Zn
   0.9345056984410293    0.6878413336200835    0.3042878872244378 Zn
   0.5604323479082535    0.8101679445186228    0.3111238412717630 Zn
   0.6882294599851618    0.8132562242188588    0.4325418207904842 Zn
   0.1921780813259963    0.8125078125519068    0.4355809155243356 Zn
   0.8133756295811742    0.5640433695064194    0.8131410114584610 Zn
   0.4304792516288799    0.3137634485304303    0.1856676828299464 Zn
