Hf32 Zr31 Ti31 Nb32 Se252
1.0
  11.0236023134158181  -19.0843567695768108   -0.0019660850085780
  12.8583399570506227   22.2636219118959247    0.0011948754425993
  -0.0008351673127609    0.0015233067443717   19.1626039732057585
Hf Nb Se Ti Zr
32 32 252 31 31
direct
   0.4954235675038669    0.5713506517281123    0.6646749209229156 Hf
   0.1752015566303590    0.4309384352315305    0.3346967774556692 Hf
   0.4958960475942293    0.2859827848488037    0.0031143309312741 Hf
   0.4995121453303444    0.4317048867828132    0.0009593035876030 Hf
   0.3260500291787989    0.1416425956050913    0.6687968749274348 Hf
   0.8419953027469931    0.7174235555144725    0.6652647467592107 Hf
   0.6667273638486946    0.4279770473820090    0.0000978426465466 Hf
   0.8351465618389853    0.5694873213514039    0.6646114917263642 Hf
   0.3413193754245182    0.8596494978739496    0.6658785673292984 Hf
   0.3252864789906428    0.4255537092445176    0.6681007494538568 Hf
   0.6694041082578646    0.2901876177740870    0.6665873098042100 Hf
   0.6660390468422523    0.5697188746385300    0.6626562912294987 Hf
   0.8342962078141198    0.4286394216583855    0.0002999516543530 Hf
   0.8409370540645215    0.5759738872607845    0.0007347526376311 Hf
   0.8416983550331142    0.7207478339699753   -0.0023398903489293 Hf
   0.8284878964514770    0.0013306969443804    0.6659121885818058 Hf
   0.6668460877203392    0.7164326272975629    0.6627065084499194 Hf
   0.8262611233200576    0.5746815125064080    0.3306242228301198 Hf
   0.5002796919715461    0.0029818783909711    0.0010878200806028 Hf
   0.1721243390733951    0.8602100081819912    0.3331793377418095 Hf
   0.0018203897311203    0.5678087060857068    0.6641556281162643 Hf
   0.0053360041224829    0.2899416509056965    0.6671460504645256 Hf
   0.5071405862165342    0.7207353765541012    0.3315385702051610 Hf
   0.0018896193302443    0.1450922192191785    0.6680925906015592 Hf
   0.1686857244201915    0.2815192457979679    0.0021374026229370 Hf
   0.1625241220312638    0.8576006594705567    0.6655090543527211 Hf
   0.3397842647909673    0.2879126858104596    0.3348436203734413 Hf
   0.4971810975743884    0.4261826358636623    0.6657703578876651 Hf
   0.1635467168434219    0.8574593507543248    0.0014969493215942 Hf
   0.3296085507777303    0.7092840262184492    0.6664516379447218 Hf
   0.3340891422010369    0.1413702571880690    0.0017310702242885 Hf
  -0.0077630248059915    0.1376531460758131    0.3353593059380252 Hf
   0.6636187838420711    0.1312812407467351    0.6674149995506473 Nb
  -0.0047585692075464    0.8627448942101158    0.3326905453207660 Nb
   0.3491053273614720    0.4397873408669565    0.3339494822775561 Nb
   0.6548029902933766    0.2840543396498225    0.3345453085855049 Nb
   0.5137500407041138    0.8666366057268681    0.3328380438998227 Nb
   0.1607952518499082   -0.0055991989360903    0.6649939985982777 Nb
   0.3470581724910463    0.0006457729723642    0.3345962093175590 Nb
   0.4913068028323060   -0.0054236791399504    0.3341384676880267 Nb
   0.1687756524741990    0.7182042914606243    0.3318225889519236 Nb
   0.5153606552254665    0.0043888176018864    0.6672807394594152 Nb
   0.5086472710455445    0.2834090797257288    0.3352868644260803 Nb
   0.6622893365030129    0.0053090163395939    0.6666012429229047 Nb
   0.6607962365009222    0.8656780520854611    0.3321056633369346 Nb
   0.6555828741616222    0.5786220066317470    0.3332581224061458 Nb
   0.0100161552603212    0.8576440926258078    0.6647602449866028 Nb
   0.0038946386341923    0.7247103062220508    0.6642272154285506 Nb
   0.1653383602866567    0.4351994155534497    0.6663690362815049 Nb
   0.0011660087439601    0.8598854882222591   -0.0004098564993757 Nb
   0.1758785772211298    0.1477407119744479    0.0036015630959241 Nb
   0.1662000171095565    0.5622486031049591    0.6652450494319853 Nb
   0.1672193590360173    0.5824897350316242   -0.0001347360581666 Nb
   0.1686337795010047    0.7081376715323778   -0.0002689166438142 Nb
   0.3438513603015269    0.0061129119342814    0.0019836888058827 Nb
   0.6530707714792738    0.4064914321473691    0.3328655176118263 Nb
   0.3233567654588064    0.2754003891411609    0.0022433194581151 Nb
   0.4926849929124922    0.1312844877508288    0.0035141045230749 Nb
   0.5000274450986150    0.5747540285512730   -0.0001332035051305 Nb
   0.8351881693913636    0.2770369793157605    0.3345376067555254 Nb
   0.6730629909995582    0.1375767819706627    0.0001359503209466 Nb
   0.8226259594748419    0.0054323601585495    0.0013020800183011 Nb
   0.8208608554084793    0.1322442009440855    0.0007617179717132 Nb
   0.5022455617454920    0.5664616171885397    0.3325878652895308 Nb
   0.4441188305492954    0.7681170445151271    0.5845533892513097 Se
   0.6123688419234318    0.0477248244161290    0.5735404656743481 Se
   0.4518517767398758    0.9083915578988225    0.5831835683389827 Se
   0.4357269206467001    0.6165885788349413    0.5848575740492920 Se
   0.6122055364152010    0.9077605080877963    0.5868241387923786 Se
   0.6116798559293564    0.3353684621650412    0.5834670805688039 Se
   0.0576236479839672    0.5217224127240637    0.7489216494017064 Se
   0.0566083314638796    0.3851770627109663    0.7503821681934669 Se
   0.0593314536121450    0.2405775939967540    0.7504639056037314 Se
   0.0593066641359553    0.0973264974542308    0.7491665474797147 Se
   0.9488151492304496    0.9030104654825482    0.5832137514411042 Se
   0.9486278901133846    0.7656573327628792    0.5769455300301481 Se
   0.9490921139126343    0.6229817787842117    0.5851791608766618 Se
   0.9442316881048118    0.4723791956012203    0.5855229185814139 Se
   0.9484811990447234    0.3367690238969956    0.5858686223926456 Se
   0.9388851352450107    0.1897160663705937    0.5898546175662596 Se
   0.9439047011530617    0.0480419914060940    0.5844696435696850 Se
   0.7730839382738477    0.9059910605943240    0.5812794290436183 Se
   0.7802815344871634    0.7622043155301309    0.5812467910654114 Se
   0.7803839389964574    0.6197294904526899    0.5816277369397775 Se
   0.7782073229078363    0.4735230434493609    0.5856814082016004 Se
   0.7799274025730542    0.3357781483805410    0.5838337015712576 Se
   0.7753286350690426    0.1867042825865539    0.5852487838446637 Se
   0.7737115550358352    0.0498159161648246    0.5843674464389518 Se
   0.6134221490814237    0.7666533685940256    0.5805620987963861 Se
   0.6084740525339546    0.6185432974230671    0.5805488475409326 Se
   0.6109254385133356    0.4728365517952937    0.5833926970568738 Se
   0.6165811223912138    0.1892776379939637    0.5859209521225136 Se
   0.4397398094782652    0.4742743047310004    0.5830875440989234 Se
   0.1122791291926599    0.9060378714935406    0.5756303362529184 Se
   0.4418317906100009    0.1857224462541112    0.5868292444373996 Se
   0.7225241228867827    0.6690009089831732    0.4138736915137661 Se
   0.7103181862549224    0.5176672315946473    0.4036810843216220 Se
   0.7135387698684208    0.3752294979937378    0.4226778020123563 Se
   0.7211327176863170    0.2393628126975825    0.4150595459594897 Se
   0.7208053979643789    0.0900079787831718    0.4124114145473665 Se
   0.5582371060710948    0.9558726623888190    0.4168231543504959 Se
   0.5578316917301868    0.8142699374869203    0.4196775079788916 Se
   0.5594705767242225    0.6669464668781517    0.4105576831433940 Se
   0.5545647426483009    0.5231681946240868    0.4210290839303986 Se
   0.7212715800724921    0.8108570383712801    0.4029328180424323 Se
   0.5504395981365829    0.3790574052561932    0.4141597645218556 Se
   0.5490583085807282    0.0919240511534689    0.4148172924517056 Se
   0.3886353741983632    0.9495476935126641    0.4229305299689708 Se
   0.3953774407921292    0.8177132365403939    0.4100259907164305 Se
   0.3921977906512039    0.6666115976282868    0.4102268162347552 Se
   0.3951272163620687    0.5284761708422081    0.4188814359892142 Se
   0.3960814638827235    0.3856501979260645    0.4158133577100402 Se
   0.3936769172412727    0.2353204007820058    0.4135491051773284 Se
   0.3918290766187777    0.0942565987771908    0.4157768441582049 Se
   0.2264071289426199    0.9558218105443029    0.4114386721131577 Se
   0.5527788418820513    0.2321984953935914    0.4216797798024418 Se
   0.4373611570650117    0.3301308915971889    0.5836744946089728 Se
   0.7209819636379564    0.9522827585638330    0.4182412880617831 Se
   0.8865145138607072    0.2323705519737324    0.4200827491680217 Se
   0.4468793214974322    0.0427907875769275    0.5842187415501985 Se
   0.2766835644387561    0.9034393842732917    0.5845933817497071 Se
   0.2792376111692839    0.7622587663756465    0.5823433099024424 Se
   0.2751918104211653    0.6149539283576292    0.5818153312749199 Se
   0.2742816091067347    0.4768796059531791    0.5832300304385487 Se
   0.2734227451201866    0.3300653458564077    0.5867991583678388 Se
   0.2738882550899463    0.1910981574390627    0.5866776815591217 Se
   0.2740425336918020    0.0472126812636253    0.5825391720116878 Se
   0.0514998996334124    0.6668442167643107    0.7462029756048957 Se
   0.8801015555629754    0.0899253378336957    0.4137632728933234 Se
   0.1103162984520154    0.7637693967334260    0.5793235258972937 Se
   0.1084847001877165    0.4739708665356019    0.5774246781990299 Se
   0.1161732004650753    0.3361377430928747    0.5863183540575528 Se
   0.1122484726718069    0.1916620236044410    0.5856251021545279 Se
   0.1167091286222139    0.0508745584308654    0.5823958148307269 Se
   0.8856803548247133    0.9498149635362824    0.4114719187281149 Se
   0.8863242876913631    0.8108734781112039    0.4138634148318318 Se
   0.8831313852697198    0.6695359000405414    0.4125395048474890 Se
   0.8841495353584027    0.5241689675419662    0.4107070110697470 Se
   0.8833427506025470    0.3736854550659384    0.4164058602616993 Se
   0.1136691176642028    0.6162213199328328    0.5833042003213652 Se
   0.0564640263110573    0.8101783187580452    0.7556563758748938 Se
   0.4460783551303167    0.9062456859039026    0.9177748945915446 Se
   0.2138439535579261    0.0917756861046718    0.7476527345613373 Se
   0.4515669589235494    0.7688340771243900    0.2505317955994962 Se
   0.4478072479710248    0.6193730788412944    0.2548775587303356 Se
   0.4503993412443980    0.4772435127150086    0.2448293211684314 Se
   0.4531825049702429    0.3373721253151270    0.2575928175539999 Se
   0.4438765172287183    0.1874731671145770    0.2555891671278666 Se
   0.4490822693421661    0.0499924255072705    0.2488035109741907 Se
   0.2835902534235138    0.9076957681330449    0.2505806175066381 Se
   0.2801648657370973    0.7695914568051898    0.2508464625957771 Se
   0.2855177340574751    0.6196432458041625    0.2524487179849980 Se
   0.2852825388671814    0.4790301786715407    0.2506876675355961 Se
   0.2833755476734056    0.3378613539712064    0.2559557499688184 Se
   0.2844587230424745    0.1892741982883122    0.2554587931781026 Se
   0.2782467606541301    0.0444946567189224    0.2605674620859975 Se
   0.1095490576311537    0.9056807088525883    0.2532770013995113 Se
   0.1124508687488229    0.7645521787037652    0.2481676691857356 Se
   0.4441573587415944    0.9039247799233373    0.2510804012391305 Se
   0.6070171028982364    0.0408131667986558    0.2568176100945596 Se
   0.6051216602020301    0.1877348280825745    0.2536936464561458 Se
   0.6068519844148301    0.3262807487595542    0.2393990870221178 Se
   0.9408620738782200    0.6197802533252018    0.2487084346411116 Se
   0.9396670905379881    0.4729320834993141    0.2536585749436340 Se
   0.9402000203365222    0.3259410566438933    0.2488950905723460 Se
   0.9384663266772453    0.1877723446232531    0.2541800142279454 Se
   0.9386808496280928    0.0405870085247695    0.2559222531865798 Se
   0.7758115506832789    0.9048525535146716    0.2542305020424642 Se
   0.7779948908948447    0.7646732024938772    0.2540890713187825 Se
   0.1155939556072297    0.6244954047850811    0.2467209100574442 Se
   0.7706375429107000    0.6232415990343317    0.2516521403233818 Se
   0.7711392153319083    0.3235312875496880    0.2551726478967748 Se
   0.7763840411816941    0.1856829629393936    0.2498665201500878 Se
   0.7760713493764801    0.0459863658769991    0.2584035053346043 Se
   0.6133991095318211    0.9096457491434202    0.2416361851241254 Se
   0.6185445171821194    0.7665390074094116    0.2534059263931618 Se
   0.6077471007090592    0.6218449685847035    0.2448051161389349 Se
   0.6119165839141090    0.4765144794612877    0.2608937755264664 Se
   0.7668290149125110    0.4718780197700900    0.2540654615673275 Se
   0.1128213417349468    0.4751769491083773    0.2520832943436991 Se
   0.1051812801635218    0.3311485741899777    0.2562851426477311 Se
   0.1082699664264269    0.1860270739739700    0.2529628298106115 Se
   0.5594730675338857    0.3834251281652494    0.7477839404371005 Se
   0.5572192273465137    0.2373049579912208    0.7497967755982524 Se
   0.5597059832867977    0.0920858771416308    0.7558117407171857 Se
   0.3958826958921955    0.9553126332919577    0.7459503665931713 Se
   0.3941916118061194    0.8096750066505715    0.7457642213354299 Se
   0.3850692399268815    0.6615485040957744    0.7463154518060859 Se
   0.3836927655069299    0.5237728866091020    0.7467226351422268 Se
   0.5543475931206199    0.5239779381349738    0.7472471604643819 Se
   0.3843382707038938    0.3779436289989074    0.7477739608391090 Se
   0.3888049517998123    0.0969752587013055    0.7513118520727489 Se
   0.2191364635638159    0.9518972248381787    0.7509217526860068 Se
   0.2241606905814716    0.8123581369890363    0.7471732631701118 Se
   0.2178892783694438    0.6614650311764759    0.7472585801812704 Se
   0.2231507875034677    0.5236824748623062    0.7541489633615173 Se
   0.2140660015444316    0.3784579763166473    0.7471019966955437 Se
   0.2204074267147741    0.2371413590013821    0.7436351020181996 Se
   0.3835339542288427    0.2388406464792517    0.7496704085714941 Se
   0.0564048276748719    0.9492058564088802    0.7519804856408117 Se
   0.5559568627977076    0.6676916837890916    0.7480765830718772 Se
   0.5571244204760124    0.9517280449708925    0.7528128245676308 Se
   0.1062180738262181    0.0404756860344426    0.2538395532736246 Se
   0.8901651754045901    0.9559453099177492    0.7483232290096079 Se
   0.8945871193018321    0.8127534626025925    0.7456123407376725 Se
   0.8930865330247094    0.6679761094343190    0.7483519051734007 Se
   0.8903499238099473    0.5222108315882544    0.7474429690909608 Se
   0.8945388875195656    0.3860647093309760    0.7443713343576440 Se
   0.8887812367529847    0.2341364733746457    0.7473557762716693 Se
   0.5581567746503600    0.8155977394325628    0.7443498918791711 Se
   0.8852858625192365    0.0964840863797122    0.7477560635308858 Se
   0.7192640138067441    0.8117116974642491    0.7463996305135153 Se
   0.7251559915821747    0.6681899573600897    0.7440529497640136 Se
   0.7219021527151818    0.5223922101386641    0.7455113322940782 Se
   0.7265638114918862    0.3853424807905825    0.7464631804986895 Se
   0.7175719654720116    0.2326231582919245    0.7476899346080699 Se
   0.2277501898846357    0.8127680150062635    0.4149235708394002 Se
   0.7226771134806117    0.0939702272011595    0.7546306923362897 Se
   0.7164731737611169    0.9517396393550954    0.7451807277544541 Se
   0.2230686956088999    0.6714015090612686    0.4173675797081606 Se
   0.9411447765605369    0.9056910313211547    0.2469713634895223 Se
   0.2327136756359565    0.3845278896639398    0.4154241989378983 Se
   0.5549987019060738    0.5267442613055181    0.0850883571001124 Se
   0.5504823581397247    0.6669858561082775    0.0848479451343942 Se
   0.5605361518418378    0.8069670381420790    0.0800819427259517 Se
   0.5602829443807358    0.9546640172831941    0.0770854809544605 Se
   0.7185593811433222    0.0892220244225717    0.0897580356724676 Se
   0.7181288653561307    0.2295816232243623    0.0877560625538934 Se
   0.7221763640345084    0.3794276338776066    0.0836045482958168 Se
   0.7250761685302824    0.5253278077020535    0.0823862480186235 Se
   0.7257769700857769    0.6722421326876429    0.0806356025091902 Se
   0.5549532221789449    0.3823717866967366    0.0849915631378022 Se
   0.7236225332322277    0.8155437370361134    0.0813362161376271 Se
   0.8831255246032574    0.0930440158541861    0.0878990355641205 Se
   0.8828032321896414    0.2290723542246254    0.0845991657680154 Se
   0.8882894645388979    0.3790274551486518    0.0825249649127037 Se
   0.8974119561511339    0.5273909271593394    0.0796323490051626 Se
   0.8957933721439750    0.6721171597783249    0.0816550188348939 Se
   0.8925612368372089    0.8137395121621356    0.0843493885836670 Se
   0.8924372248446357    0.9610732443056945    0.0791383041642410 Se
   0.1086149198507313    0.0501307389947433    0.9201248612761128 Se
   0.1114316559487686    0.1866590890318104    0.9194158012269271 Se
   0.7194385979676857    0.9518508040277441    0.0840582193864273 Se
   0.1117832586458771    0.3308237903747491    0.9201456139918081 Se
   0.5489263857664267    0.2311854922707307    0.0825256682063739 Se
   0.3905347190699769    0.9537781404858456    0.0859164650817096 Se
   0.0585910111700430    0.0903072420201535    0.0808029558706729 Se
   0.0552703492462451    0.2338824679258822    0.0845469334854692 Se
   0.0538075962583273    0.3807189180705729    0.0843637422927662 Se
   0.0591000348952888    0.5316259381682580    0.0840674277160337 Se
   0.0578168722095462    0.6698073581414533    0.0788331414449085 Se
   0.0536158301522327    0.8100182686540823    0.0837587645567991 Se
   0.0509992039206145    0.9506804480596704    0.0869543191159246 Se
   0.2241514155786754    0.0961182631889115    0.0878063386073204 Se
   0.2219491821806421    0.2357481178878363    0.0925478658883155 Se
   0.5585337562536151    0.0959693839307479    0.0859426868225801 Se
   0.2235982613602662    0.3795646865100752    0.0842815836321689 Se
   0.2252325541450157    0.6698362176639517    0.0891958960402577 Se
   0.2180199552668962    0.8061127141241842    0.0822832820899135 Se
   0.2263540868209436    0.9545212036622036    0.0815485928360726 Se
   0.3885693463484953    0.0940094418485844    0.0904149412625744 Se
   0.2295564699110257    0.5267027879464022    0.4144587156805186 Se
   0.3877033041843563    0.3762661126020788    0.0829876991716381 Se
   0.3914117000888088    0.5256943076018874    0.0847292285457713 Se
   0.3917128348015145    0.6732873957452410    0.0791647991220085 Se
   0.3869257617326480    0.8059833405909607    0.0809743693656085 Se
   0.2220815687863064    0.5298153392086058    0.0807289725305760 Se
   0.1163035535573568    0.4834845561707823    0.9174544074922185 Se
   0.3863093130231972    0.2358662549485321    0.0873724693734361 Se
   0.1125702103099383    0.7610477050173154    0.9211522498666678 Se
   0.7793380467720158    0.4782193644536442    0.9173836862206359 Se
   0.7820795892016549    0.6222604754460734    0.9169549705434932 Se
   0.7790442414838282    0.7649257002457002    0.9175297709768918 Se
   0.7759045814827843    0.9086568712468336    0.9177319568819972 Se
   0.9388052154328075    0.0389624151590499    0.9217287748770634 Se
   0.9369414800057158    0.1836473658945450    0.9202963651667148 Se
   0.9477132135717311    0.4842182264306171    0.9190473137708557 Se
   0.9530670358200223    0.6255009576357063    0.9215140414462658 Se
   0.9517342557260546    0.7656981351581981    0.9155598755605456 Se
   0.7762635217717812    0.3314709226811829    0.9173930300025245 Se
   0.9500072453730889    0.9080122138293465    0.9143867270736691 Se
   0.0497197694981744    0.2355681672022739    0.4155267578211470 Se
   0.0560485392129504    0.3746433328480653    0.4130749660971501 Se
   0.0556667275988576    0.5228734684265907    0.4140788151024253 Se
   0.0585740093125002    0.6715597231252782    0.4164695963219966 Se
   0.0558166920360704    0.8150769630905036    0.4131397437359516 Se
   0.0547968320940300    0.9535286995453915    0.4168285362992553 Se
   0.2260168968322868    0.0901217662516823    0.4155658684202259 Se
   0.2261436392476529    0.2375842515394053    0.4172235018368200 Se
   0.1104692210563430    0.6208364766361023    0.9104219739458262 Se
   0.0503907633443176    0.0877486846145015    0.4136254040678214 Se
   0.7752728706575840    0.1849880377344729    0.9127484490215253 Se
   0.9437459272977586    0.3339755477075927    0.9190598321019823 Se
   0.6179437070422215    0.9094507747527540    0.9205921639200468 Se
   0.1105197792032153    0.9054578373203925    0.9153725242022417 Se
   0.2780431238328327    0.0467902553376868    0.9205099767452607 Se
   0.7740319642745488    0.0462096722339360    0.9093012988019501 Se
   0.2781889912653085    0.3294552015006347    0.9175373688961704 Se
   0.2796374549281296    0.4778558915680649    0.9167246516763379 Se
   0.2762770360339666    0.6224133957068839    0.9170137921900020 Se
   0.2765361814396936    0.7598569503388337    0.9159802353353781 Se
   0.2778399758743793    0.9085471369343124    0.9192121351904614 Se
   0.4443302134851772    0.0466944168568053    0.9106208781396633 Se
   0.4457503345466793    0.1884827686656878    0.9214968715388916 Se
   0.4392891995829656    0.3317739649494271    0.9206324098247107 Se
   0.2777336246860032    0.1873139361838550    0.9139630289033079 Se
   0.4495472651244060    0.6232627055812152    0.9143282191843908 Se
   0.4476577747684816    0.4797376721568014    0.9143804171054963 Se
   0.6102592519433400    0.4762162154453534    0.9172361832742359 Se
   0.6084143883510583    0.3299305967932885    0.9200456073662949 Se
   0.6072041249882278    0.1809514258910241    0.9213112021086007 Se
   0.6090450501787177    0.6209237632568868    0.9148473543513782 Se
   0.9408929536108021    0.7664623904388317    0.2510060099086013 Se
   0.4378882531787327    0.7545695142537407    0.9199982648161010 Se
   0.6132069920502765    0.0449320909153886    0.9184937947184763 Se
   0.6072709826430809    0.7674270368983437    0.9187136601645012 Se
   0.6686239212332704    0.7121904777698778    0.3317466451984351 Ti
   0.1618969446024764   -0.0023791475890469    0.3345273686208418 Ti
   0.6657468370322338   -0.0050453872773457    0.3338490461539073 Ti
   0.5013937912168639    0.4350648712979465    0.3331009560642406 Ti
   0.4979498670140597    0.1415852876856910    0.3347494663599039 Ti
   0.3366336439265920    0.8628177027204612    0.3331643514450839 Ti
   0.3388796421620036    0.5700419822719814    0.3330013059498064 Ti
   0.3353933892992913    0.1389505123044394    0.3357949592537051 Ti
   0.6728816929256888    0.0033480145748440   -0.0000251409940486 Ti
  -0.0050635336317407   -0.0071282032367819    0.3339896305775747 Ti
   0.6697602381204244    0.8611149128524029   -0.0009883516748378 Ti
   0.4997395457310855    0.7137005522271055   -0.0007552806237840 Ti
   0.3261173126770228    0.7125667721680228   -0.0002432172858622 Ti
   0.0038583340540822    0.7190767182133948   -0.0002980989612648 Ti
   0.0098279799014374    0.5783574729983643   -0.0002657141020358 Ti
   0.8272519728653289   -0.0054995076640230    0.3336434025734460 Ti
  -0.0089799557582587    0.2801463766253329    0.3348114293919074 Ti
   0.8304352566090681    0.1422752591892519    0.3350951084555844 Ti
   0.0012834755394421   -0.0034542723248751    0.0007030471672454 Ti
   0.8367814073744611    0.8589106195593355    0.3322778122403990 Ti
   0.6659429627938085    0.8587942217960794    0.6639815913876881 Ti
   0.0066557808642355    0.4313434470365063    0.6657835721522358 Ti
   0.8310739204548980    0.7184436242349929    0.3302240836333129 Ti
   0.1649249686550931    0.1431417823535423    0.6656820813794192 Ti
   0.1654466999184293    0.2841112353898442    0.6665295730026544 Ti
   0.5042029062738129    0.8633601582946243    0.6649005462085712 Ti
   0.8354419972038201    0.4282868877035031    0.6660360328715246 Ti
   0.3295005883809541    0.2845560169553775    0.6666811230341900 Ti
   0.3244603503573801    0.5675720858086609    0.6651714953736080 Ti
   0.6685193341710812    0.4281279571892069    0.6648772264738717 Ti
   0.8253314624760358    0.1402454540572236    0.6674261630101502 Ti
   0.8227478678062095    0.4206442870898603    0.3338605460127332 Zr
   0.5013663103081717    0.8520884337810797   -0.0015289244999749 Zr
   0.3306997080734232    0.8561389579904756    0.0000765420290555 Zr
   0.8328258776058671    0.2849959314756786    0.6688149939609536 Zr
   0.1609999636623194    0.0002008095443301    0.0023865211533164 Zr
   0.3375529206466144    0.4291530656555927   -0.0001660204781127 Zr
   0.1668787306887941    0.4302509448987575    0.0026390306519406 Zr
   0.8322338401596958    0.8602932772266854    0.6646021434072860 Zr
   0.0041870196040009    0.4358867054326985   -0.0004631699802910 Zr
  -0.0042774688453085    0.2809274283076700    0.0015040293005225 Zr
  -0.0048293537437963    0.1343114657702222    0.0021792800103350 Zr
   0.3386807661547220    0.5772316778213583   -0.0006877773188775 Zr
   0.6626175448599507    0.2768205403790679    0.0027712394846420 Zr
   0.8383680681813497    0.8650040884338300   -0.0006913384448372 Zr
   0.6610988767439711    0.7175457800261920   -0.0004273022170821 Zr
   0.0061480277086645    0.0003460579107004    0.6647383611097464 Zr
   0.6650439675767130    0.1416284343365360    0.3357801646674890 Zr
   0.1638772669306879    0.7143393755394382    0.6655802305018403 Zr
   0.3310363435941255    0.0013484364166300    0.6671466723780739 Zr
   0.3350147134186524    0.7193803641941053    0.3321772389844624 Zr
   0.1718387289921730    0.5762987129201216    0.3317554973864866 Zr
   0.6666301484890852    0.5750729435142368    0.0000271550993041 Zr
   0.1639659560707977    0.2838031582634917    0.3349298740478444 Zr
   0.5045276609442669    0.1378171071843075    0.6669630456460516 Zr
  -0.0014910272102441    0.7181264723548200    0.3317724950368043 Zr
   0.0031457432434789    0.5754192064032043    0.3322489886385044 Zr
  -0.0039575488954272    0.4209954122188770    0.3340446477828994 Zr
   0.5002602802367897    0.7183684266368687    0.6633449650132872 Zr
   0.8279251346495790    0.2775215942615354    0.0015482900749957 Zr
   0.1684465082263242    0.1371034743894104    0.3350505797226900 Zr
   0.4973260520853970    0.2855780248038514    0.6672677864721422 Zr
