La13 Ce13 Gd13 Dy13 Y12 Ta64 O256
1.0
  14.9652628967611427   -0.0006530060301564   -0.0107689491486043
  -0.0006767498298432   15.5852949529584759   -0.0007028941472137
  -0.0159707632342625   -0.0009743500137237   22.0954863480923969
Ce Dy Gd La O Ta Y
13 13 13 13 256 64 12
direct
   0.1128335080731948    0.5638043144247190    0.9793209367402955 Ce
   0.3783537245309096    0.6873868937816033    0.0201833177534325 Ce
   0.3863768597687274    0.6903612199130501    0.5143266002272876 Ce
   0.0989219237563350    0.0613770293597338    0.9802740514054530 Ce
   0.3505741883071407    0.0577577959030502    0.7650130338681019 Ce
   0.8768858953113100    0.6908461641434684    0.0207068490004322 Ce
   0.8785080261300495    0.4366518718172524    0.0042517969754145 Ce
   0.1503239822031447    0.1849308678578365    0.2341905803827979 Ce
   0.3922333772392104    0.4405676358564561    0.5147111084977972 Ce
   0.4003848911777864    0.4360414798698620    0.0133843408404075 Ce
   0.8682469909213018    0.3165352259342741    0.7676422234503656 Ce
   0.6494216448523344    0.4391132455022019    0.2323176561865790 Ce
   0.6334731680074940    0.1886244588607267    0.2460700887473112 Ce
   0.8630845056529006    0.0656080572515691    0.7521857242122465 Dy
   0.8691763926108383    0.8240416435693744    0.7683754818567767 Dy
   0.8651377114949059    0.0600974996814630    0.2548254790733820 Dy
   0.3536549114159310    0.5644650176120267    0.2693014421554681 Dy
   0.3951169289686712    0.8095955061998918    0.2657940894509030 Dy
   0.1234000142817402    0.6906179647027485    0.2425628546619587 Dy
   0.3682082536368650    0.3195876487767672    0.2609454080413739 Dy
   0.6053308702876161    0.3085009286374160    0.4851098602723712 Dy
   0.6330145038149523    0.6812175224054805    0.2474375874090511 Dy
   0.8650030859869926    0.1866144777992402    0.5154104087971992 Dy
   0.8965811497679295    0.4391715575283978    0.5144045620687848 Dy
   0.8878507370439105    0.9342301456696837    0.5120009023974662 Dy
   0.8671713450122449    0.5658577642973597    0.7515182609651848 Dy
   0.8743882245921700    0.5654986261833329    0.2525933840290331 Gd
   0.3581509607671723    0.9393469530136047    0.5136281847431731 Gd
   0.6248295047564766    0.8177230594374121    0.4976478793445891 Gd
   0.1442019157088534    0.8168313599249061    0.4841560035180769 Gd
   0.3975751370318847    0.1821681543063562    0.0163998593703221 Gd
   0.6293957950934972    0.9265495759457800    0.2356696645373002 Gd
   0.6170943639212236    0.5626413236268365    0.4809291067920485 Gd
   0.6464915969516403    0.4349220010772065    0.7294510407047361 Gd
   0.3850840456039546    0.8087227389686241    0.7660303381898632 Gd
   0.1318998999743554    0.9331895702061139    0.2290756719040179 Gd
   0.8826508349855350    0.8151951850417355    0.2729408064828531 Gd
   0.1084465827467545    0.5696581142131294    0.4822823039670890 Gd
   0.1317564207817024    0.4359000367504647    0.7405816158943029 Gd
   0.6238920923994518    0.9413372172415519    0.7303710797857542 La
   0.6260524805941087    0.6838460258787398    0.7445784815396941 La
   0.1289757900089744    0.4390397763575402    0.2350511027025450 La
   0.1336297525251358    0.3126064325228544    0.4888598130757038 La
   0.1228628033938975    0.3097564865875926    0.9898810040661493 La
   0.1156605372947506    0.6891235596163733    0.7330508427304606 La
   0.8743768554865274    0.1839388752862935    0.0179898233471885 La
   0.1205041887762363    0.1881706223090753    0.7308053408333909 La
   0.8781957754324008    0.3087154607628150    0.2712856900407981 La
   0.1309260070754713    0.8152139176203674    0.9926382790991205 La
   0.3881315349617271    0.1814758536044968    0.5126676150382448 La
   0.3785860631797396    0.0608850321154907    0.2644326739346621 La
   0.3706253778451004    0.3143332652731338    0.7667232328932836 La
   0.2375493862811844    0.8127416663284892    0.3937576289689895 O
   0.7764297220503918    0.3132100330261972    0.3638094329777169 O
   0.9755656153560065    0.9365628735390432    0.6039920876311942 O
   0.2430467885271345    0.8135006389361880    0.8989795467517571 O
   0.2424069803142447    0.3131811945043626    0.3895228872784504 O
   0.2611408248605468    0.3112684296364691    0.8793422257032405 O
   0.9813643509598113    0.3122360740841284    0.3637798509670472 O
   0.9823270152051927    0.4381828559258181    0.6042974417538189 O
   1.0308546892706136    0.4353489824132780    0.1358175311915494 O
   0.7687216142048023    0.3154829479483509    0.8643859502473090 O
   0.5166827850748124    0.9375124714466283    0.6416932836248933 O
   0.5343755024118402    0.9353840064280383    0.1420750525421425 O
   0.4826725764421231    0.4366660270488085    0.6119966848842279 O
   0.4978894917940717    0.4353779873819954    0.1104540576592433 O
   0.4783303761823081    0.6878157199366532    0.6142326079351437 O
   0.4791440937676953    0.6853024779844885    0.1168252914443245 O
   0.4848068579006604    0.1872342627104686    0.6099220447450547 O
   1.0325683051493824    0.9351671901041354    0.1403348485166302 O
   0.7823476693056297    0.8135963098805744    0.3621092770177648 O
   0.0217110145976369    0.0627333383700761    0.8829711168636131 O
   0.2624429947205797    0.0620105820466629    0.3570636709835008 O
   0.9687565102603144    0.3129941086731490    0.8616266029304677 O
   0.9801883370901578    0.8138948395414650    0.3607385439264946 O
   0.4637393793862549    0.8137346136052559    0.8586580133618130 O
   0.4747693015549486    0.8108755595045568    0.3578407678370390 O
   0.9644335710377434    0.8138882121645763    0.8569839542107094 O
   0.4729839739650079    0.3151053787664002    0.8652185371412079 O
   0.4743654244208769    0.1846595777293016    0.1132503672565394 O
   0.7713292581687904    0.8160730927580124    0.8643812734127663 O
   0.5145764099876544    0.3141242186514974    0.3937081259023065 O
   0.7127923677797101    0.5655112998743114    0.8893425517757836 O
   0.7254306207097468    0.5649130667688775    0.3923199392642495 O
   0.7128017398427139    0.0652966803525751    0.8873238569993074 O
   0.7259599737649282    0.0631304150901410    0.3910558452467328 O
   0.2272069637566967    0.5639562467705576    0.8759975643676574 O
   0.2611594211607037    0.5631478465174097    0.3576558201177687 O
   0.2470988462004141    0.0605595225812924    0.8578790191628217 O
   0.0298057412397359    0.0609009760541385    0.3886291242708775 O
   0.0204464562117811    0.6878001071802203    0.6374818222255192 O
   0.0218526584998911    0.1945374240175483    0.9611671719696540 O
   0.0143997703354249    0.1868462874841145    0.6350929319090298 O
   0.0278425039319057    0.7035407812073898    0.9599723739423363 O
   0.0502751988789590    0.7105235783220447    0.4550527954684776 O
   0.0219801427963829    0.5635632088806096    0.3893357153249735 O
   0.0431007246553395    0.1996461946694407    0.4568737174411072 O
   0.9528986783134883    0.9524615922239043    0.7863229283378190 O
   0.9587318517054306    0.9516227055015163    0.2881844728812404 O
   0.9525938086695297    0.4518552223639173    0.7868037978333702 O
   0.9653742288661549    0.4523216930682333    0.2886378398142193 O
   0.4605948334763603    0.9564465281442033    0.7858590743039541 O
   0.4761318041375316    0.9385018736161862    0.2783886444082878 O
   0.4510444840311862    0.4592434338106333    0.7915578460885182 O
   0.4537141186170530    0.4426597903105493    0.2952319797534383 O
   0.7831498249506312    0.6702280564506132    0.7975146813007290 O
   0.7812641174721968    0.6682980611948645    0.2951577076581667 O
   0.7802853634118286    0.1750531925829561    0.7936561873413193 O
   0.7799376415948353    0.1697405608914088    0.2947773058530961 O
   0.2833621159372786    0.6974083784757662    0.7953196342620530 O
   0.5398529847024945    0.1688491838644011    0.4610068078116423 O
  -0.0226890953863270    0.6859258904320342    0.1154266919635459 O
   0.5359418849554711    0.1921893202575156    0.9628057748808074 O
   0.5303488780712321    0.7049483777845231    0.9636691081079911 O
  -0.0181540946664156    0.1844130786452322    0.1144751531652271 O
   0.7157048349229612    0.8038588848451356    0.7168677258745230 O
   0.7141780485414649    0.7969467057938562    0.2156821845172720 O
   0.7193399538602319    0.3023169688761309    0.7121173598837838 O
   0.7260818634757442    0.3020414604173794    0.2152845036461914 O
   0.2004635713159954    0.8232053054523181    0.7069476552362475 O
   0.2094321335479877    0.8013461105822687    0.2097385718631946 O
   0.2145013106684326    0.3192748708262165    0.7138366137823264 O
   0.2174250523418119    0.3115446470899058    0.2126567994024829 O
   0.7892115185221924    0.5446573183938733    0.5342460689423565 O
   0.7944517387733400    0.5539916904124105    0.0339774746594699 O
   0.7871130042166904    0.0449683050925507    0.5335864567155910 O
   0.7897853226226071    0.0475538861132597    0.0360079809385366 O
   0.3087345705885607    0.5700390766043577    0.5480386027721017 O
   0.3059455636187989    0.5480978087735823    0.0442572801781465 O
   0.2922516266936109    0.0728580708640366    0.5433321081598235 O
   0.3058960377890809    0.0610601964112647    0.0434042789132353 O
   0.5368295626788836    0.7027803428531391    0.4630848260448246 O
   0.0215474307228561    0.5649285014997881    0.8832164161878738 O
   0.7777321054685259    0.4503948337831761    0.7849363534926498 O
   0.5199482455478005    0.0622469054738435    0.8878445528346653 O
   0.2955177985203549    0.3059641233760618    0.0413514645951494 O
   0.7262920815771174    0.5771609612577998    0.7051268566366855 O
   0.7263898079079675    0.5770942605126020    0.2046082406439010 O
   0.7224378969923874    0.0860859516856115    0.7040670474317882 O
   0.7186074872606616    0.0769762546138590    0.2058399280363364 O
   0.2163527973173036    0.5616094573252193    0.7141116422055797 O
   0.2208344547903139    0.5776764961038757    0.2127410637847985 O
   0.2168914411663383    0.0417981963297256    0.7126245499886097 O
   0.2259487037185114    0.0580779271519666    0.2156949447138888 O
   0.5277382510234905    0.8027247608986130    0.7170726052029452 O
   0.5376610018696847    0.7918651261568629    0.2172325487833468 O
   0.5394931292546863    0.3137869789229293    0.7087534527791554 O
   0.5487026340915803    0.3208646515918703    0.2065584919001091 O
   0.0258740911078104    0.8249163902564209    0.7136874688703455 O
   0.0336171071600010    0.8032072954544252    0.2184507770030490 O
   0.0326051318628875    0.3226352179251977    0.7136227664832679 O
   0.0380086216353210    0.2960312078936780    0.2150412324802043 O
   0.2846532292170405    0.3040337822857471    0.5407635152862329 O
   0.9671197738871513    0.5796722317580956    0.5332235375342650 O
   0.2863382376440922    0.8303314209188133    0.0404683765509408 O
   0.7886305937506390    0.3248844138590484    0.0420714349516283 O
   0.9600878275008780    0.1717128093905204    0.7857622358692329 O
   0.9503208247556489    0.1675509964541241    0.2944338662656526 O
   0.4615769945823917    0.6656442660177775    0.7921889045501315 O
   0.4722953395600740    0.6586005552406730    0.2918885203969646 O
   0.4541717841493886    0.1707164785060757    0.7932412971120288 O
   0.4689271042920483    0.2113046335338026    0.2905778164683365 O
   0.5317737867351001    0.9189085806176055    0.9560362633771401 O
   0.5462715524989827    0.9428070457586424    0.4512572248588477 O
   0.5373856953292151    0.4292800193896989    0.9590542346276842 O
   0.5320607140812981    0.4395331980741009    0.4672175838991832 O
   0.0234028297141383    0.9229786657404780    0.9559717149621236 O
   0.0312599937846505    0.9209442363997348    0.4614734401479862 O
   0.0231724877583278    0.4242341218856841    0.9555611199837697 O
   0.0302170906753307    0.4263039368630682    0.4630915475751110 O
   0.7800755914806369    0.8403172265841049    0.5465600173236330 O
   0.7861116865061983    0.8265469724765657    0.0445116380943788 O
   0.7972534685934006    0.3395926157624751    0.5435901110496230 O
   0.2834708529155226    0.8029905484608915    0.5359002297883746 O
   0.4897835664267960    0.0632518275439151    0.3593478579939188 O
   0.9743828570028876    0.5557130656442829    0.0339639826659321 O
   0.9686382827709819    0.0467480658950091    0.0366559629364876 O
   0.7277770240028921    0.9347131445699968    0.1379694993011224 O
   0.7272701994336744    0.4380058494308698    0.6370313296072340 O
   0.7250034385059744    0.4353212255885824    0.1338283619284647 O
   0.2683230730616035    0.9363638075033541    0.6098454869818313 O
   0.2267207821863766    0.9359976684923139    0.1344515119236165 O
   0.2612245395523984    0.4372774361645939    0.6249715096135040 O
   0.2377518572382019    0.4367936575365138    0.1332079015276820 O
   0.7692868971907086    0.6883575882479476    0.6062457465110443 O
   0.7790675121358667    0.6856192077029839    0.1135452717552013 O
   0.7705626943971350    0.1887273276553036    0.6024242212900537 O
   0.7797647851273722    0.1850339456748665    0.1147802608974533 O
   0.2363893090449490    0.6888759493838619    0.6320265029465306 O
   0.2815863486459008    0.6879409238350418    0.1135642909720216 O
   0.2283368403477002    0.1847080401109530    0.6377642661229561 O
   0.2558793322352075    0.1835895189356323    0.1370972607044159 O
   0.5210215558391061    0.5658248916104820    0.8894313520288285 O
   0.5262604269568859    0.5624691795740095    0.3899617053346317 O
   0.7302436771920959    0.9397015007909992    0.6407516352723484 O
   0.9645085061594687    0.0752400318344743    0.5322716692188477 O
   0.2799171586513674    0.4306867437188259    0.2880261892239444 O
   0.2966711444053615    0.9168472975595433    0.2906194548524260 O
   0.4736464452050403    0.5650443730864989    0.5316677830837905 O
   0.4753146180490787    0.5638839339485856    0.0309301683591498 O
   0.4604460598268916    0.0396383816665973    0.5424621654502290 O
   0.4797357610295208    0.0481870315824457    0.0348720174638489 O
   0.7112471632879416    0.6997068522951189    0.9673764588576147 O
   0.7185408476389822    0.7057025679052507    0.4664145464509344 O
   0.7133618167994794    0.1985894953596249    0.9656942595708607 O
   0.7189900046160119    0.2021537186539581    0.4669967320075981 O
   0.2113303107668564    0.6778297376990301    0.9696783619188307 O
   0.2194439221927793    0.6677846221234374    0.4612795322861190 O
   0.1995607442153013    0.1728908213458507    0.9578883109352057 O
   0.2112929992977043    0.1657017227454118    0.4566068039197955 O
   0.7778136041604381    0.9522966695247459    0.7864779307573471 O
   0.7789771369366130    0.9483054080403839    0.2844020530731066 O
   0.2994285613584776    0.7023666868517811    0.2943557493389546 O
   0.7836999462091736    0.4511912603724605    0.2868195012142256 O
   0.2863847962731600    0.9174437917145255    0.7941084224739492 O
   0.2782778941864359    0.4411382041413308    0.7926387422138981 O
   0.2768468407504124    0.1888816332699799    0.7863595134990045 O
   0.8726767332050899    0.8129271774220753    0.6652662874190699 O
   0.7083950067276216    0.9253171355005384    0.9584824606084871 O
   0.8677619567994717    0.9595790991540768    0.9026055165443765 O
   0.1257393439229177    0.1946916725309606    0.3378665957407434 O
   0.1195005361128140    0.2039094469823614    0.8457601007616958 O
   0.1269083087886903    0.6911494982446820    0.3413861423355283 O
   0.1190356481012685    0.7069094169035669    0.8473131529874437 O
   0.6282295293365571    0.1970852737584065    0.3495704842188707 O
   0.6194369012153141    0.2076111896065066    0.8453213863097482 O
   0.6272463152173176    0.7085965664643621    0.3485240920489419 O
   0.8772413430720657    0.9557989121522686    0.4052644607407939 O
   0.6197042609703373    0.7112329878124910    0.8521460952202841 O
   0.1202483882643355    0.4210957179853605    0.8439806148334567 O
   0.1264700106072510    0.9304169181023434    0.3368123664104230 O
   0.1186857582614674    0.9231584111002122    0.8430861035021769 O
   0.6259708085809687    0.4299521748725387    0.3363216356708891 O
   0.6200805073510871    0.4242619098751851    0.8366521882144784 O
   0.6262420215072834    0.9218236957493408    0.3407066104745279 O
   0.6185569960954687    0.9191098723084297    0.8415570894095498 O
   0.3760737296203890    0.1925610436805627    0.4034936100653896 O
   0.1238854824168163    0.4307877272864066    0.3463874932598688 O
   0.8684958612553928    0.4619865327078561    0.8993658254425119 O
   0.8737094588485358    0.4536704395905520    0.4082040251815164 O
   0.3700300495905453    0.9503686687018010    0.9079835112123659 O
   0.3814703915577091    0.0391459247419457    0.1523455679411631 O
   0.3747398859220620    0.0639145561694453    0.6603735884651859 O
   0.3814108496502654    0.5512915451251861    0.1645020178340967 O
   0.3775813502153343    0.5657395770127196    0.6650093340719323 O
   0.8800722893972892    0.0420109952287373    0.1528294118303917 O
   0.2892601385266279    0.2003313698986103    0.2877296713622094 O
   0.8797383828807871    0.5390197230572038    0.1478093780732794 O
   0.8776734645980176    0.5635330738823900    0.6496253203325877 O
   0.1290819580946695    0.2966200272284983    0.0974302232436652 O
   0.1240657614475990    0.3244268218981692    0.5988417139328308 O
   0.1270089452818643    0.7899223136848705    0.1004015422722762 O
   0.1206438289963916    0.8251140121123895    0.5907733899830210 O
   0.6287625873387377    0.2910499974495045    0.0965903254200904 O
   0.6243988021342686    0.3047810365132401    0.5916227319547331 O
   0.6281169925671489    0.7921018001882518    0.0997595088543945 O
   0.6223778756003869    0.7979102263261429    0.6027752305053123 O
   0.3771068151144942    0.4384216773283581    0.4073918385631931 O
   0.3724705087645234    0.4530428136587213    0.9087820331900439 O
   0.3755268710795888    0.9374633653378814    0.4075325495569947 O
   0.3712648742210639    0.1753033831903538    0.9111825686274783 O
   0.3782856089641476    0.6806462750339816    0.4090773956947548 O
   0.8751579800226563    0.0633573658920922    0.6512004917994250 O
   0.8777195608003823    0.1724725877218240    0.4121862341176377 O
   0.5515341478734966    0.0822389605923573    0.7047314569494684 O
   0.5589051825505146    0.5592404529239398    0.2015416175909604 O
   0.5547211676561828    0.5508096720330610    0.7001306146872126 O
   0.4749918199773947    0.3112128019735489    0.0358398016692510 O
   0.4677967739419046    0.3129012297929025    0.5332757671705306 O
   0.4667189776148712    0.8284405553757871    0.0473768688771625 O
   0.4635201469823451    0.8318397326617397    0.5432324491476381 O
   0.9669414877110315    0.3242124234152141    0.0437458146327756 O
   0.9609979233226896    0.2927263002040922    0.5425501200814016 O
   0.9619603433707562    0.8299442165440843    0.0482104332721521 O
   0.9435511579653887    0.7895729634106868    0.5469650370641022 O
   0.2108897033990044    0.4586241858304215    0.4605379290983636 O
   0.2021660324716263    0.4390135239013369    0.9628237058829900 O
   0.2112588190192442    0.9547859139522312    0.4593384766414900 O
   0.2002890938442118    0.9587506519631592    0.9603684746705350 O
   0.6966100157220035    0.4142745544846168    0.4525297039936563 O
   0.7126443263353979    0.4205716460234878    0.9574410154160349 O
   0.7128966228001511    0.9193575270104579    0.4550239619054429 O
   0.3696223831446517    0.6758636741794991    0.9099954146309902 O
   0.5392772178711122    0.0849966184883370    0.2079980076621481 O
   0.0410647037915989    0.5450070329162620    0.7037553509783050 O
   0.9625092821740451    0.6717538020423240    0.7863901860081729 O
   0.0408302839830574    0.0460691852425036    0.7027578962481510 O
   0.0402735869458064    0.5789637086840141    0.2063715865234604 O
   0.8771241962845115    0.6743415515890488    0.4119345494560827 O
   0.8709985739012540    0.6728833913224058    0.9104895170635906 O
   0.8696999715286703    0.1683500124207589    0.9046823289100269 O
   0.1244917268872889    0.0495183789920203    0.5875989222987157 O
   0.1329596105109894    0.5758311193554760    0.0919889292301948 O
   0.1294799578902166    0.5542619052462576    0.5876484789143525 O
   0.6294173700658903    0.0775915395725199    0.0876215291022226 O
   0.6252103068826333    0.0707019346196426    0.5858450713055882 O
   0.6281322185157485    0.5743931591838762    0.0852583143819470 O
   0.1294976741106739    0.0721734589605070    0.0867042483023698 O
   0.3788525712348803    0.3196597423934089    0.1604903236452683 O
   0.3752482335262589    0.3039271619614836    0.6577795591151708 O
   0.3789559331697699    0.8277150811533684    0.1620629013789208 O
   0.3702748081843168    0.8131523678183680    0.6607073279387691 O
   0.8788190258290040    0.3285425813622652    0.1580437325616336 O
   0.8736948421117218    0.3157868314956896    0.6604802826645622 O
   0.8769359060489664    0.8262145366194332    0.1650721830718949 O
   0.9597576789868860    0.6775740137664605    0.2912256365652484 O
   0.0492830380130939    0.0769690926877672    0.2068480780127610 O
   0.6244729720743796    0.5744805157750549    0.5879879287892108 O
   0.2492126853662131    0.4374737113184902    0.8799207688189780 Ta
   0.2513184524024226    0.9385529926455192    0.3720375257640977 Ta
   0.2452252882541849    0.9354300347468371    0.8770965048387943 Ta
   0.7498946945379162    0.4429633456540556    0.3782580864272965 Ta
   0.7424680359729812    0.4453023199727775    0.8748118748173338 Ta
   0.2497593460203995    0.6892220571267790    0.3771187462059353 Ta
   0.7408923053169758    0.9433279226257009    0.8739266763520319 Ta
   0.2499969992344871    0.1876980704443449    0.3760291360869829 Ta
   0.2468407327898315    0.1854731552690432    0.8761725823064610 Ta
   0.2427595586533508    0.6888732353156475    0.8801666371844354 Ta
   0.7560477792286823    0.1916386006432674    0.3811310203392661 Ta
   0.7520565675219215    0.9408635037036752    0.3739510730350450 Ta
   0.2514042716708634    0.4396477354797880    0.3785076867509950 Ta
   1.0053134070194114    0.5579265923346746    0.1233330135589750 Ta
   0.5046573704333388    0.8086906029897615    0.1305141029997736 Ta
   0.5056050804369158    0.0562088627445807    0.1253389870264635 Ta
   0.4982477068090553    0.0621048547656692    0.6252743743810920 Ta
   0.5008969146359499    0.5604262386781561    0.1250166858420677 Ta
   0.4960868509321400    0.5631217061816163    0.6243348895721240 Ta
   1.0054064707510297    0.0570451939336319    0.1261255645434904 Ta
   0.9987580754303464    0.0624639077871821    0.6205305256123126 Ta
   0.4955808696701183    0.8133885744782062    0.6287412593320069 Ta
   0.7467343501246045    0.1930683521200437    0.8785209060565059 Ta
   0.0019150345961834    0.3077005459415865    0.1290916334571645 Ta
  -0.0034632063529018    0.3146915611589361    0.6256066542693711 Ta
   0.0026677950063005    0.8082366325228775    0.1305250271140066 Ta
  -0.0035647354601597    0.8144513295152753    0.6242594383847621 Ta
   0.5017953847890249    0.3067689114351349    0.1261338650788344 Ta
   0.4992225439206897    0.3098645643817853    0.6249522891240041 Ta
   1.0023583161824088    0.5641011718485257    0.6214513494763909 Ta
   0.7528779779725948    0.6931975249181789    0.3789554391288809 Ta
  -0.0085227541834148    0.9398102233628195    0.8704910804927474 Ta
  -0.0001191089972361    0.4379264175060290    0.3743226625700667 Ta
   0.7528199898912957    0.8102949968956406    0.6287426740876658 Ta
   0.7567012780126995    0.8088451900594656    0.1306453860855112 Ta
   0.7516233486003606    0.3104959508642633    0.6201799556838492 Ta
   0.7558721568059180    0.3068550154600682    0.1258852834027905 Ta
   0.2460198356413481    0.8139298007271484    0.6258219246885506 Ta
   0.2561317785393790    0.8113866640781624    0.1283331997464075 Ta
   0.2498864523511392    0.3125316521310756    0.6266317779062399 Ta
   0.2542261054253147    0.3114302661906577    0.1244224981402695 Ta
   0.7475884822664188    0.6946741579185329    0.8799243007965775 Ta
   0.7485205504969649    0.5597668494281371    0.1177144079113335 Ta
   0.7461496275485804    0.0602381602615467    0.6189918329822048 Ta
   0.7487531123165667    0.0559851179474998    0.1207071914692824 Ta
   0.2495622046462073    0.5626041337740521    0.6248722404940549 Ta
   0.2554671880169868    0.5625388983472157    0.1248132657525797 Ta
   0.7462299225884697    0.5603194434470231    0.6178375622986531 Ta
   0.2530462129058303    0.0585565111421525    0.1220746829659274 Ta
   0.2460352321046851    0.0606920969886582    0.6227580665029773 Ta
   0.0021877036949916    0.9380574874793530    0.3722631035270166 Ta
   0.5062334831290043    0.4379710944655914    0.3745442530066501 Ta
   0.5002808992276702    0.4424566480013298    0.8703971888765544 Ta
   0.5002760893022782    0.9364949216048351    0.3703715069447175 Ta
   0.4964815914530606    0.9401719481446399    0.8724374559833514 Ta
  -0.0037126974380703    0.4423756570007765    0.8687151844845254 Ta
   0.4951341637556519    0.1905054558947353    0.8748977007862880 Ta
   0.5014576927608765    0.1883033768127517    0.3743948700678094 Ta
   0.9915909837867884    0.6910995450437137    0.8726038462599807 Ta
   0.9933750099134039    0.1901632210214302    0.8706870436104351 Ta
   0.9984300134133786    0.6875749874457645    0.3766606088943970 Ta
   0.4926158795943324    0.6917763682599704    0.8767537946242592 Ta
   0.5005768890848441    0.6876792121862095    0.3753274723321732 Ta
   1.0023306811385850    0.1844057686877195    0.3740813374206789 Ta
   0.8730552468435777    0.9340943733193590    0.0047066695748576 Y
   0.3853376952586745    0.9386943348300478    0.0084708023008551 Y
   0.6337086916043071    0.1903701192712607    0.7429818542241419 Y
   0.6254327827061611    0.8142598904949946    0.9974306099275776 Y
   0.6244798755731196    0.3119017349228236    0.9944688261418606 Y
   0.6124322360938914    0.5726767491024821    0.9778052435549874 Y
   0.6177668638193277    0.0637305953814463    0.9780297377880476 Y
   0.6410565394432191    0.0571190124502238    0.4817928763976536 Y
   0.1058665136507670    0.0624565767878994    0.4824174485668174 Y
   0.1166000533885987    0.9342252781263316    0.7418434466039884 Y
   0.8554811023300792    0.6835747650315994    0.5162089083010392 Y
   0.3524753613154716    0.5658733836461738    0.7644367341093066 Y
