Hf39 Zr38 Ta38 Ti38 Nb39 C154 N38
1.0
  13.5566549636397280   -0.0007435412067753   -0.0011850713223679
  -0.0009914264609321   18.0752166702070234   -0.0014697215196401
  -0.0015802428052439   -0.0014697955562489   18.0753027662874999
C Hf N Nb Ta Ti Zr
154 39 38 39 38 38 38
direct
   0.1634693746880962    0.6246535015471227    0.3701580184654463 C
   0.6633526113431253    0.8741696993732837    0.2511835107475512 C
   0.6660986338174081    0.8724984654806253   -0.0000922159431239 C
   0.6705437110334853    0.6199732449142229    0.7511137466065062 C
   0.6702102362101261    0.6215542113282148    0.4958002314279257 C
   0.6684339812779367    0.6237653638989589    0.2477906314502584 C
   0.6686264957845440    0.6228612470683641    0.0051350186623985 C
   0.6679236986426016    0.3741230077543494    0.7484044798035939 C
   0.4960392077851278    0.6250268264661457    0.8812389769897494 C
   0.6677898066096997    0.3718764033453195    0.4989059143224618 C
   0.6677200052348147    0.3761269689989221    0.2522131259351909 C
   0.6609559878301015    0.1273386603055136    0.7475329404313609 C
   0.6643336673299427    0.1251636146521890    0.2530387544086407 C
   0.6652197127186201    0.1259090653251036   -0.0016411864044167 C
   0.3340841524081503    0.8744766545422042    0.2498489969469408 C
   0.5025260666516290    0.6199419388673404    0.3722125826611769 C
   0.6669076853357968    0.8797222781481574    0.5003736693091285 C
   0.1730022350523042    0.0021638173982421   -0.0001164770083989 C
   0.5014755500873922    0.8751685499271902    0.3741011993325688 C
   0.1714240593657524    0.0005508492152765    0.2535759874048607 C
   0.4995852707287431    0.0009662103286628   -0.0027851487515161 C
   0.5023997638722265    0.1251795413575254    0.6241129934058420 C
   0.1708974832284577    0.7476463290236887    0.2519781467973705 C
   0.1652730463461603    0.7430827993195115    0.0028315664285507 C
   0.8370726857095335    0.1291478216235142    0.1227925319599046 C
   0.1610768164424433    0.4990925843858011    0.7531716591868397 C
   0.1658865563750110    0.4955975752947600    0.4966889559434942 C
   0.3390649940108770    0.8762839242617210    0.0014152032811842 C
   0.1655112349496392    0.5007530595659029    0.0017707031567433 C
   0.1633355332741409    0.2514496137426464    0.7492843394032370 C
   0.1610924198344929    0.2550997328456756    0.5004509247458155 C
   0.1625620069974501    0.2525352042490229    0.2510036106376361 C
   0.5008498190781416    0.8751762137376392    0.6245938554252886 C
   0.1685197522433056    0.2535953155786456   -0.0017909037235857 C
   0.1646658146910579    0.0021660421755611    0.7474396569167837 C
   0.1655419408571030    0.0001183622300602    0.4991816787216318 C
   0.5022122724688755    0.8765567460296954    0.8767311050627183 C
   0.4997090742117557   -0.0000341358337419    0.2497644402795010 C
   0.3261991299690219    0.6234484260181086    0.7554184741983848 C
   0.3298145091990815    0.6234596555436615    0.2480238405206694 C
   0.5017281411155807    0.3739475747529770    0.6206702523028499 C
  -0.0037822190833245    0.1270360566785028    0.4981727406668097 C
   0.0027835460463095    0.1291022264857106    0.2493636870797273 C
   0.8390585720254397    0.8734592829016969    0.6264586115811787 C
   0.1597611424153824    0.6274198930357334    0.6295924264260302 C
   0.1664930294468942    0.6213433965466454    0.8780573490386663 C
   0.5046674103989730    0.3747537999973425    0.3730419824355281 C
   0.4993029740809019    0.3772344093346972    0.1280216379497180 C
   0.1646910379035728    0.8711838619395916    0.1292042888303890 C
   0.1617790164701225    0.8723134646928108    0.3740801492879442 C
   0.1620497510921735    0.8729350053906778    0.6251042963457099 C
   0.1637504266717591    0.8747999270184560    0.8717924115547271 C
   0.1626409143503001    0.6215657186173636    0.1247288305224105 C
   0.5001086287859462    0.1260331384306277    0.1243248923517832 C
   0.5017018201030236    0.1293365412413644    0.3751226773215239 C
   0.5021716471912109    0.3756769546676181    0.8794205952333103 C
   0.0051291513306159    0.1261522782061142    0.7495421478459542 C
   0.0007252903329330    0.3779030625847227    0.0003498880433556 C
   0.0008330470317341    0.3726793227408080    0.2501001368324380 C
   0.3267938387140403    0.3743953717738984    0.7481783086108875 C
   0.3314525233533025    0.3793285140829378    0.2480057515504202 C
   0.3330670389901557    0.3755909178152998    0.0025760737695037 C
   0.3351970756357866    0.1263760391343245    0.7518694820085801 C
   0.3379349214136388    0.1231645603205600    0.4995686975412140 C
   0.3327467920945008    0.1216197173588771    0.2510489586302599 C
   0.3382094502884670    0.1256460965602084   -0.0028963534417825 C
   0.3336596575490661    0.6207475398564738    0.4982449370658996 C
   0.5023986896549204    0.6239778276081303    0.1226614078534564 C
  -0.0009146822945938    0.8771323166865020    0.5010291694978292 C
   0.0017503523358766    0.8748991573220992    0.2522892846506685 C
  -0.0037495599364041    0.8723368693529057   -0.0004285419073223 C
  -0.0025936062295073    0.6212141913047176    0.5011927575149934 C
   0.0003477263942205    0.6230706560248218    0.2475067111816594 C
   0.0050303482919819    0.3748775094526729    0.7480333189034124 C
  -0.0003753565679167    0.3750042849586669    0.5003766218645226 C
  -0.0023616789031483    0.8745996037626583    0.7465442136229842 C
   0.4994971448559296    0.2492555369665038    0.0003309791965612 C
   0.1587143920067402    0.7481521739120781    0.7474959275657759 C
   0.8317083999569069    0.1260280735245430    0.3747180127744758 C
   0.8340413922058949    0.6266802791998374    0.3719319620470988 C
   0.8339158974603422    0.6205088061842103    0.1240440545837454 C
   0.6653102238742408    0.0013277713002411    0.8735615868460544 C
   0.6674587411730696    0.0026404235815850    0.6234880531831499 C
   0.6673775866969204   -0.0005221185188362    0.1274551436714194 C
   0.3376191397205529    0.7459155588826810    0.8775082527709672 C
   0.3291818990436168    0.7509556781182118    0.6239992635466820 C
   0.3265635144347164    0.7471216053648615    0.3719318732364132 C
   0.3338275131297487    0.7483634937819762    0.1278669158701279 C
   0.3344989924758771    0.4974272456429876    0.6228090358156517 C
   0.8342218785762747    0.3756334929159275    0.8791010437588701 C
   0.3305298056380045    0.4995198738977180    0.1257917732110136 C
   0.3299570770929804    0.2492150762932730    0.8757132312400037 C
   0.5038508536680659    0.2514000903593069    0.2521488018776439 C
   0.3332052080705426    0.2519157902744346    0.3752122809519907 C
   0.6721055481998195    0.2537907608788969    0.1266155623043301 C
   0.6673808215631842    0.2510707886473210    0.6239160148417845 C
   0.6670660169036070    0.2517361559773190    0.8723075766667577 C
   0.6695738453859634    0.5025199068772608    0.1235744213539153 C
   0.8363666162430151    0.8737596318418023    0.3754859436124881 C
   0.1637911183039709    0.3743277753622696    0.8754617778679310 C
   0.1659238418793326    0.3712013340972594    0.6239849182241530 C
   0.8353978096124446    0.8739203146177199    0.1240353219087799 C
   0.1660529602205344    0.3773141420204048    0.1263039450219755 C
   0.1712338018796922    0.1306408004945053    0.8725024800170594 C
   0.1675870884538337    0.1287706198148469    0.6283984029535012 C
   0.3310041769196472    0.2542543113661925    0.1219365034358469 C
   0.1613726120782792    0.1295131750620176    0.1282139555681653 C
   0.6670986381081032    0.7491030809009103    0.8787751058929554 C
   0.6698329445960284    0.7498034310118763    0.6267587815693885 C
   0.6719024589859219    0.7471388967538479    0.3704187491548557 C
   0.8404812022485616    0.6262011061138519    0.6224328273691406 C
   0.6655222336950574    0.7442464188016600    0.1247978691124088 C
   0.6683085009931915    0.4974142579546728    0.8771760014252874 C
   0.6640256727214134    0.4984517104638561    0.3712063052660097 C
   0.8382516913726336    0.6238861517436006    0.8819817623675380 C
   0.3396056773112326    0.0035431254014886    0.8769031981129988 C
   0.3283591399039799    0.2514872063296943    0.6266644915541417 C
   0.3300528886118508    0.0008115618694456    0.3759346157973970 C
   0.8318113271525064    0.1238984099829501    0.8782617938595332 C
   0.3325646394126501    0.0000134833380706    0.6229261626605792 C
   0.8280550572114381    0.0009983268607082    0.2514004804839269 C
   0.8296956184634697    0.0011584282237680   -0.0016198056292772 C
   0.5029900676285193    0.7525422430867972    0.7523790130521344 C
   0.4981108436963682    0.7512099825510198    0.5017375541390391 C
   0.4992277269235222    0.7501077453609704    0.2469533564663396 C
   0.5046000208744286    0.7493715473014021    0.0003986474430999 C
   0.5043565966074833    0.4991667038169989    0.7520131186923309 C
   0.4970072089642186    0.4964311739402642    0.4966013056673227 C
   0.4983744188037110    0.4981574057171416    0.2497280192559969 C
   0.8287786537103561    0.1259936534287782    0.6218350244670645 C
   0.5041158849050082    0.5021046544425219    0.0012544022338253 C
   0.5015020600895836    0.2454146200344845    0.7507904421330437 C
   0.5045345308058057    0.2502506331996348    0.4973268159800377 C
   0.8339925049700099   -0.0027073063302293    0.7519074970150764 C
   0.8349403879830523    0.3757817249466227    0.1268677892136031 C
   0.8340407759824369    0.0013675607061878    0.4989236041947022 C
   0.8375200510932459    0.4979706072559306    0.4990485398554975 C
   0.3348836118468556   -0.0012754316216493    0.1251732044461027 C
  -0.0034832907581793    0.7475295103516227    0.8728284204063124 C
   0.0014472163155636    0.7500452110621664    0.3769034888255091 C
  -0.0008638357918997    0.7469941882553062    0.1228007331606646 C
  -0.0012273046089665    0.5003339150322382    0.8735767961449031 C
  -0.0003641420606468    0.5003037746311928    0.6258507164615559 C
   0.8309392401041396    0.4986233873311326    0.2447443420032325 C
   0.0022881602183699    0.2524389115763326    0.8702448531315734 C
  -0.0041880590847595    0.2507445384929547    0.1271060214297283 C
  -0.0013639261491878    0.5007023805490377    0.1223823784005014 C
   0.8309689457880896    0.3736542604993055    0.3737369987172680 C
  -0.0039795232384013    0.0016288064657035    0.1255815184796116 C
   0.8391734127118508    0.7535963343349917    0.7512340812300311 C
   0.8369148365666752    0.7485386036047620    0.4987073487985355 C
   0.8303507526286442    0.7469674115169646   -0.0000248759852567 C
   0.8350782937409946    0.4990878695265795    0.7539330139545973 C
   0.0013931981330826   -0.0030180426051921    0.6237590289360755 C
   0.6685393259251953    0.8746116877062470    0.3753814311712319 Hf
   0.6686966975383821    0.3782504689675842    0.1261867187261845 Hf
   0.6616417244556733    0.1252163200605682    0.8739214451758285 Hf
   0.6713342308528832    0.8749629876079084    0.6259531048257508 Hf
   0.3316577512185542    0.8755319195649578    0.6246463168065777 Hf
   0.3318382207782472    0.6216883687113387    0.3720996254000015 Hf
   0.3313952491083839    0.6247485791853006    0.1250810158596297 Hf
   0.3319274435793723    0.1265072017553203    0.6266196812443754 Hf
   0.3347668334131639    0.8736106917756259    0.1269076469889392 Hf
   0.1626059480746473    0.8756816530640864    0.5003423479070448 Hf
   0.5037540216117279    0.8766680321906620    0.7513731867197615 Hf
   0.3301413978258829    0.1258616582310404    0.3733964068554454 Hf
   0.8324559528058985    0.1277015716353615    0.2485435609040172 Hf
   0.1692511519264822    0.1277946725990335   -0.0002697684911450 Hf
  -0.0004183039718325    0.1263825094097157    0.3752525688547974 Hf
   0.4999353661444279    0.4970120259322493    0.6247195537884387 Hf
   0.6720499769633618    0.7490777541055378    0.7518414895281884 Hf
   0.8328265478238053    0.8751808793060192    0.2503390177854818 Hf
   0.8357157344804037   -0.0007627886766987    0.6254997887736512 Hf
   0.6680800047373625    0.4964697652696507    0.4968322906692543 Hf
   0.0012768660995081    0.3742213066244947    0.3748244120643441 Hf
   0.4989898925981642    0.2491910159895642    0.8757089305890448 Hf
   0.4985584890879488    0.0012164800518990    0.1235477302918579 Hf
   0.6675241680333593    0.2529413273493427   -0.0003000809684186 Hf
   0.3311625088107204    0.7484522683013597    0.4991566795835052 Hf
   0.4981607210452323    0.2496419368039006    0.6264774427694457 Hf
   0.3358961869697485    0.7476160263960884    0.0021905717827720 Hf
   0.3297066571834984    0.4993178225197780    0.7514366805284031 Hf
   0.8323057508433405    0.2501453293033903    0.6238194217756068 Hf
   0.3347866797171229    0.5008808783381862    0.0009027997882676 Hf
   0.8297715440273035    0.2512558177083211    0.3751947604999987 Hf
   0.3337089794568974    0.0029447386022821    0.7504690487397554 Hf
   0.5012505055368742    0.2520923159076135    0.1250960875780710 Hf
  -0.0029260293389952    0.8731360756467531    0.8726696889335004 Hf
   0.0004466004247984    0.7487477223576015    0.5017983192529332 Hf
   0.4997650956910522    0.6224753529095418    0.4988976000360457 Hf
   0.5013939930063472    0.0013976708096863    0.6240400625971988 Hf
   0.8335657428710825    0.2516561691777853    0.8745213457511308 Hf
   0.8315073916515350    0.7454091478550878    0.1232867167900612 Hf
   0.4998378302037890    0.0024328248659448    0.7517600718262165 N
   0.1656274007480025    0.7508395391887750    0.5000287817896570 N
   0.1707076034220915    0.4988748530286513    0.2502218092571836 N
   0.4989422395775363    0.8752566331158391    0.1248044654115211 N
   0.6692099581780729    0.3787401292330236    0.0016094125133434 N
   0.6619861240618894    0.1246413977998162    0.5006462903311198 N
   0.5019797997090161    0.6232274123279178    0.6239308428504511 N
   0.5015941910389163    0.0032387362176713    0.5013520053707361 N
   0.6697684493798782    0.8754292480201220    0.7488071278420092 N
   0.8294751055398608    0.5029647005164249    0.0036863856506760 N
   0.8361240625804977    0.2534008512747829    0.2501241259678329 N
   0.1642850150670206    0.3763368739766148    0.3731324289610432 N
   0.1633297266850217    0.1279894396491464    0.3715886203965452 N
   0.6665917466764731    0.4947791321424077    0.6247899252257153 N
   0.6678903305440682    0.2524311802994432    0.3783110062094202 N
   0.6665878496802136    0.0006244882827498    0.3783247928639428 N
   0.3335904487666017    0.5029977952138818    0.8769429369910181 N
   0.3312771817281306    0.5002231585247882    0.3734000056851643 N
   0.0033365158089555    0.7485092141824957    0.6267792267665974 N
   0.0038222047965802    0.4980511790907816    0.3774545804153023 N
   0.8318264758219852    0.3721309811466964    0.6209293575539448 N
  -0.0009480913050357    0.2527990687744525    0.6242689628866114 N
  -0.0036565658246170    0.2506344257819931    0.3772007936563423 N
  -0.0053467988988571   -0.0016422679858922    0.8714079441270788 N
  -0.0005500215850534    0.0006438222301258    0.3798783230259601 N
   0.8298262176743264    0.7476895186860838    0.2496901892622884 N
   0.8354579155677387    0.2508792061900733    0.7485874977408740 N
   0.8329276783441942    0.2526759547996093    0.4994857467968488 N
   0.8316414049354762    0.2511768728119054    0.0009605301630288 N
   0.3357356181923464    0.8782847170796196    0.7484798269322256 N
   0.8359636747863061    0.8779875528962571    0.8718470533582157 N
   0.3300022009081550    0.3801002419594641    0.4984963155661217 N
   0.3313490060945161    0.8764089119966985    0.5013861500886049 N
  -0.0014684817749172    0.1261454634243260    0.0017998075927734 N
   0.3333218073215877    0.6232637875222021   -0.0008370178587591 N
  -0.0017668976550035    0.6237203422455111    0.0010581548418268 N
   0.0058065783752702    0.6244465364354855    0.7487290031140376 N
   0.4975400144775468    0.1231770271645356    0.8744186934340425 N
   0.0001477630912098    0.6230036197792092    0.8785090646669156 Nb
   0.5035400861660838    0.8735608078554996    0.5005839201204433 Nb
   0.8336005381331726   -0.0002736644753099    0.1232622042745371 Nb
   0.8313026867778905    0.0018959359592763    0.3769546516723342 Nb
   0.3291774427729851    0.2493798190147243    0.7507142783562156 Nb
   0.5002341149807811    0.6218935682523803    0.2459924265067170 Nb
   0.0021463464231167    0.4979334534623752   -0.0010660530299140 Nb
   0.0007819226392351    0.6268548237318797    0.3742066765467305 Nb
   0.5025049334792402    0.7444642154979080    0.1243694942453810 Nb
   0.6681807203804311    0.3770957754534153    0.8754305208423794 Nb
  -0.0036730125010587    0.3760247707637249    0.1258547905081523 Nb
   0.1585165759019801    0.8753356360404290    0.7473433598688247 Nb
   0.8355997996121042    0.7462153096746436    0.8792684920716499 Nb
  -0.0036894107770371    0.7490324855535969   -0.0004549761276374 Nb
   0.3289684691028599    0.3736732263018358    0.6271404187915859 Nb
  -0.0007891720241766    0.8725524913376448    0.1247789717790669 Nb
   0.8362753152485374    0.4985219468189697    0.8760779483094334 Nb
   0.8384432983922846    0.7512056417129400    0.6259777468627689 Nb
   0.4980036363714292    0.3778659267869666    0.0011759106928692 Nb
   0.8343991340271498    0.1221030144764243    0.4977743613880330 Nb
   0.5007185046168331    0.7538983002965304    0.6251913969483542 Nb
   0.0065296190062160    0.3758174290632835    0.6249555897138827 Nb
   0.0031222331764108    0.3756653996701315    0.8733436350746823 Nb
   0.6675077350966688    0.1272079593499306    0.3721794660732899 Nb
   0.1638259999171833    0.7463822176791480    0.1253594628362023 Nb
   0.1577907381093581    0.5001117334314397    0.8748991168096422 Nb
   0.1634943256013038    0.5023012791883450    0.3767741776193702 Nb
   0.6650332056205978   -0.0001906155830454   -0.0001596814181400 Nb
   0.1675563557233524    0.2542944663370653    0.3743653840457254 Nb
   0.8387661765746913    0.3819977677508398    0.0019747427806262 Nb
   0.1650953006954842    0.0007276995826702    0.6264474933197824 Nb
   0.5033945524944879    0.5005023514411572    0.1249699087462653 Nb
   0.1692742152670772   -0.0038357745005676    0.3738551783778898 Nb
   0.1652058027302459    0.2537480354765290    0.1250366814207432 Nb
   0.6641952984922299    0.2529753690980093    0.2493510798190531 Nb
   0.8384146316657995    0.8758972815064289    0.4995427051499565 Nb
   0.5070204346994907    0.4987496312221946    0.8782238032138294 Nb
   0.8323166863890710    0.8730436893185041    0.0025864590317338 Nb
   0.6684569440938722    0.0044173966319364    0.7496677980017323 Nb
   0.1652050632778588    0.3753741398945297    0.0003874881101566 Ta
  -0.0005049346709973    0.8732855541214001    0.3765835624815967 Ta
   0.0007941815105218    0.6225538308670520    0.1236028043907322 Ta
   0.6661021322917410    0.5004224332758129    0.2474095357747293 Ta
   0.3328562425868450    0.4992684761940510    0.2452399635479052 Ta
   0.3320490067543290    0.6235929577433618    0.8764755730597207 Ta
   0.6642643245352371    0.3722813209333447    0.6255943921422876 Ta
   0.6657445053418652    0.0005173035314892    0.2484100124327266 Ta
  -0.0011981153180490    0.1277899762367507    0.1273609929105526 Ta
   0.6736664749443605   -0.0002730385931790    0.5019391200305433 Ta
   0.6679467711620052    0.6237420085157520    0.3711936661838156 Ta
   0.3338983500807813    0.2507121014114427   -0.0003018829414537 Ta
   0.6655985968905448    0.1262431446722266    0.6270070246260249 Ta
   0.6611043260467613    0.7458169500876689    0.2470236309907803 Ta
   0.6626844203068398    0.2541821952483231    0.5018542922556001 Ta
   0.3279713561215031    0.0019283798168170    0.4998030182262470 Ta
   0.3340775910986548    0.1265378791713783    0.8744883640598642 Ta
   0.5008173412441320    0.1257093372091273    0.2506454978196360 Ta
   0.8327438887196950    0.6203907126292574    0.2466586119436328 Ta
   0.0038444272036385    0.2522022578602216    0.2463451914682484 Ta
   0.0046140713205478    0.2534575073261149    0.5025656076753615 Ta
   0.8354352228086206    0.3767182841713206    0.4964609449233550 Ta
   0.8351230879356379    0.7472410670538882    0.3764743016275545 Ta
   0.8286515060302123    0.1223609082070595    0.0008341846073271 Ta
   0.5023148868264141    0.7487030470572974    0.8784618376327187 Ta
   0.4988405177518335    0.8745193736237754    0.2515455113984170 Ta
   0.5018292864578801    0.8749416018590612   -0.0023874818422597 Ta
   0.5030883992143016    0.3752820568487534    0.4971129214875125 Ta
   0.3332705561376282    0.3766234343688875    0.1259826007028128 Ta
   0.5007040194908201    0.1286294494217111    0.4984365722360069 Ta
   0.0019665048429656   -0.0001602146142167    0.7465247732359602 Ta
   0.1631940694958795    0.4995553775562198    0.1222453710743880 Ta
   0.8283251721220690    0.0015623289887027    0.8733982269575887 Ta
   0.1675164683027859    0.8728807853063080    0.2509472578189292 Ta
   0.5012854880760488    0.2524176926559263    0.3732904700719507 Ta
   0.1609017888428662    0.7488190285534517    0.6298328173305388 Ta
   0.8375898010108117    0.6232340225580300    0.4997994825497582 Ta
   0.5036015308114620    0.4979155380656859    0.3717120897732052 Ta
   0.0011211327674816   -0.0005708948914055    0.5004602104888775 Ti
   0.3321116515749146    0.0009589550014437    0.2498013607859851 Ti
   0.0014015207022454    0.4990385744516711    0.5021915072672556 Ti
   0.0005100531947921    0.6211654383423244    0.6259855819540235 Ti
   0.0021660598542369    0.4974066222089271    0.7499442165131394 Ti
  -0.0017815286562983    0.7498618083325505    0.7499387244606855 Ti
  -0.0005520463002993    0.8767231146057435    0.6252774006949051 Ti
   0.3353358182896001    0.0010091339796963   -0.0000845894801272 Ti
   0.3313700330982364    0.4980784612327421    0.5018453275884994 Ti
   0.0077963787808946    0.2527295410909829    0.7507031477817918 Ti
   0.4996987519145594    0.0012769897730279    0.8788580110586898 Ti
   0.6625709362522613    0.2507186993312192    0.7512462751925176 Ti
   0.1680109660010409    0.7471621837490108    0.3701947113829825 Ti
   0.1658995759252617    0.2512602834159418    0.8718057419079218 Ti
   0.1676927498041962    0.2522141465308644    0.6282381430680762 Ti
   0.8402136886609153    0.8730776826361366    0.7466931360219421 Ti
   0.8293041486716998    0.6215370024825733    0.0028115507560504 Ti
   0.8322439967001649    0.3751783355179276    0.2486345595446880 Ti
   0.5084688867196669    0.6232602121544306    0.0029878803998161 Ti
   0.5023876881311651    0.3768614789143594    0.2498939157350879 Ti
   0.4996716969174843    0.1269028076499315    0.7485901321112565 Ti
   0.4991808748670262    0.1246491407439954    0.0013107571185939 Ti
   0.1586047325927130    0.6221634278328895    0.7510807069716038 Ti
   0.3315091867012793    0.7469427132724712    0.2489125884854483 Ti
   0.8325549440899245    0.2546120870394099    0.1258527438844625 Ti
   0.1667328792274539    0.6260671239778134    0.2498112428439592 Ti
   0.1618149593354334    0.6243703953353957    0.0001099863752192 Ti
   0.1638615023049513    0.3737195877386062    0.7506399969663491 Ti
   0.1643334927657564    0.3739193660961153    0.2472357533119868 Ti
   0.1661639209491439    0.1295038521123338    0.7492839643599071 Ti
   0.1662471024341641    0.1264742362229138    0.2497376440266109 Ti
   0.6668298387848692    0.6218663591438793    0.1223165194299258 Ti
   0.6668426471437376    0.7468746585269251    0.0009913560223137 Ti
   0.6696293130125582    0.4987990449606848    0.7545743156733554 Ti
   0.6681897656738379    0.3768915056876199    0.3695080752215544 Ti
   0.6662367737895961    0.5009116804847663    0.0024151469801847 Ti
   0.8329391834373155    0.5002724268204348    0.1247347534205787 Ti
   0.1630196935292262    0.3760282774434356    0.5022990714031162 Ti
  -0.0014696357329501   -0.0003376138517054    0.0006467870421848 Zr
   0.6692207733373243    0.6229038630556214    0.8791682999868096 Zr
   0.8356637220133856    0.3744348891655618    0.7505700691704154 Zr
   0.8335228097961541    0.1270690293377995    0.7497478760837774 Zr
   0.5012506272370587    0.6241670925322090    0.7523519131773139 Zr
   0.5004846990150219    0.3740408191597847    0.7514887212379324 Zr
   0.1671083565656122    0.8733167421722348    0.0015927561930051 Zr
   0.1641449134092103    0.6229243797341780    0.4989496487548121 Zr
   0.1652023751911298    0.1265044328929265    0.5002459805457401 Zr
   0.6691197458616339    0.7495619650752856    0.5002697852310291 Zr
   0.3310674922741487    0.7497636687363866    0.7506372606679620 Zr
   0.3301845921278837    0.2541998549159389    0.5004182587741299 Zr
   0.3315750296443891    0.2521549884907776    0.2493633967340424 Zr
   0.0017975139761431    0.7477800212239987    0.2503106544381454 Zr
   0.0025853908979412    0.4986983803113690    0.2481847535741057 Zr
  -0.0008377485197760    0.2530558659524536    0.0001220977794970 Zr
   0.0001259543047922    0.0007167628678470    0.2520959230802838 Zr
   0.8410878471008382    0.6245656666080373    0.7520993350479253 Zr
   0.6655243253900501    0.8725585044426135    0.1242951856106309 Zr
   0.1674566389317729    0.0005371528863364    0.1271302214007282 Zr
   0.1649533374327873    0.4980673919191224    0.6254186286808715 Zr
   0.6700562329039234    0.6238542552958526    0.6253000414413257 Zr
   0.6676000821228070    0.1267839397693120    0.1246713202172254 Zr
   0.3339495159393919    0.8762362537690684    0.8759625033242269 Zr
   0.3319771047894010    0.8737804497488982    0.3737820335613281 Zr
   0.3314286104975793    0.6246669781324135    0.6257817618914994 Zr
   0.3296625795232100    0.3751592943899187    0.8753230165699522 Zr
   0.3317791604417488    0.3781379362350278    0.3734608380063905 Zr
   0.3327093676872868    0.1253970753146394    0.1253042948680135 Zr
   0.0020277312490803    0.1269502133805663    0.8728119583759716 Zr
   0.0015609810860844    0.1264000319872041    0.6247512388059121 Zr
   0.8358192815296058    0.4982084361035836    0.6257618423326482 Zr
   0.8346314529721980    0.4995304032028318    0.3725037039920184 Zr
   0.4985984620483679    0.7477000706463651    0.3724422609565295 Zr
   0.4985038194596906    0.0013202375724463    0.3755605612998071 Zr
   0.1638667222888095    0.7470474801124758    0.8743125374879490 Zr
   0.1679627107808995    0.0018173682182451    0.8735158480739610 Zr
   0.6702269983747781    0.8751181158494451    0.8755385221854565 Zr
