Ba12 Na48 Sr12 Ca3 Ta7 Nb59 Bi3 O288
1.0
  15.9162065968891611    0.0039972777313574   -0.0045060782058189
   0.0047358850164134   18.8191742417033971    0.0162768810698730
  -0.0060183013155675    0.0184343100353058   21.3221960834075830
Ba Bi Ca Na Nb O Sr Ta
12 3 3 48 59 288 12 7
direct
   0.8897852200385108    0.0150447858681595    0.1512452280147342 Ba
   0.3210074242619152    0.1477875494523430    0.8807898363646074 Ba
   0.5949986215681116    0.0128128022799829    0.6301107891042925 Ba
   0.6489983132869247    0.8204667095132923    0.5951110877992388 Ba
   0.6478110384771564    0.4964233222486920    0.5839130110602637 Ba
   0.3679169477738145    0.4786574239016092    0.8946048413884066 Ba
   0.6618851015314050    0.6417514989676671    0.3056278381767712 Ba
   0.5809534211241820    0.1056401365313705    0.9348860274176433 Ba
   0.3661054041326271    0.3155093866446527    0.3102510056274374 Ba
   0.1507102867426351    0.3176297673150455    0.8401179707642729 Ba
   0.8920252577774779    0.1454208888381947    0.4208557951225499 Ba
   0.6421413582686579    0.8070542662255963    0.9132098358261168 Ba
   0.1142545895856435    0.8216773900442509    0.9315522068303278 Bi
   0.3730193801844798    0.8666811453367600    0.5698821596361409 Bi
   0.6406523855887420    0.4519606143658201    0.9551880475549706 Bi
   0.4088434381263232    0.6700187102607990    0.8292679902557643 Ca
   0.6591688120739214    0.3317691484744613    0.6917222447453749 Ca
   0.1603081564586551    0.1618677961444959    0.4177316834588954 Ca
   0.2499801347257549    0.8369350757906286    0.7768968403408243 Na
   0.4916759586354879    0.1495373748188440    0.2526649188769376 Na
   0.5245575500009313    0.1479261300726302    0.7358573287943786 Na
   0.5144557667710835    0.5066214610212129    0.2439883010537763 Na
   0.4689559841117781    0.5093849223526835    0.7425831211074724 Na
   0.4710159683561127    0.8329490170831158    0.2409839835132456 Na
   0.7530935407943599    0.1599019039748061    0.7725174886525538 Na
   0.7830810893482648    0.1611229145298264    0.2350330442992297 Na
   0.7722626619737183    0.4843414985635712    0.2563400769576150 Na
   0.7377090038932960    0.4767899967001821    0.7832817842499922 Na
   0.7197895324621483    0.8403844071612435    0.2376146523768459 Na
   0.7759822150995387    0.8346473679612610    0.7600680982225130 Na
   0.2535800483472639    0.8454506199380851    0.2503638184787187 Na
   0.4786323976848718    0.8376774288075516    0.7428633234133976 Na
   0.2594441788599094    0.5173876334677406    0.7059290382841206 Na
   0.0113297979617289   -0.0042624294803364   -0.0164063230494601 Na
   0.2390083047830644    0.1766326028479178    0.7111641366067075 Na
   0.2353825564960422    0.3442606641734169    0.4880788373326470 Na
   0.0156533894170620    0.6444981496974211   -0.0196453395232062 Na
   0.2398234043716316    0.0006633313147997    0.5265497879481004 Na
   0.0350055215074954    0.6605338187504092    0.5056141415481714 Na
   0.2750462210805841    0.6670637169011167   -0.0195106345916203 Na
   0.2420670363981894    0.6920655434227216    0.5447064192408276 Na
   0.4763989873159682   -0.0159538047160057    0.0196667124703506 Na
   0.2553362269286734   -0.0142846594305992    0.0062401000244270 Na
   0.4824345667752090   -0.0347178473455240    0.4726911320385830 Na
  -0.0311533107455513    0.3217643973777514    0.0003608543072565 Na
   0.4937210803420695    0.3179017377523207   -0.0212449595720218 Na
  -0.0019975415233305   -0.0194655655128512    0.4949211284143624 Na
   0.4888683961048925    0.3140376872356928    0.4665877641124334 Na
   0.2272687079705780    0.3219113444886136    0.0064760520141306 Na
   0.5176825953122129    0.6269049065530948   -0.0174468714471224 Na
   0.0210584753026223    0.3546927430639827    0.4905053444497287 Na
   0.0108503283270362    0.1723546811987992    0.2377316198490528 Na
   0.0145600618835353    0.1848598613442884    0.7327249219703059 Na
   0.0120463547586816    0.8477148808284771    0.2575984302299119 Na
   0.7237835207361327    0.6504764957399769    0.4792562520595048 Na
   0.7711649689910907    0.6355063860895297   -0.0087920489680397 Na
   0.0249845403614085    0.8379343104534800    0.7465735240578817 Na
   0.0240951632797829    0.4902003015902183    0.2418827630137730 Na
   0.7774217302332335    0.3465640360304968    0.4745159723291028 Na
   0.7536578547470241    0.3296138522785569    0.0339740484344442 Na
   0.7697728863691485   -0.0189725985878141    0.4785015445903315 Na
   0.7724899403217483   -0.0070831169028255   -0.0102983618755863 Na
   0.4728228373397153    0.6815298633030291    0.4925250348546211 Na
   0.2545535289987377    0.5031471570495640    0.2832418335821703 Na
   0.2699126306826771    0.1516777863152627    0.2515154590622842 Na
   0.0207679596576369    0.5227516624075543    0.7195463748059646 Na
   0.6537614378725348    0.5273652462327642    0.0986418551807606 Nb
   0.6310396360054127    0.8883052776753709    0.0971707979112117 Nb
   0.1429965924100411    0.5261934677108875    0.5684292853046783 Nb
   0.3747091294175749    0.8590264624168619    0.0828469535048256 Nb
   0.1576344978309662    0.5257371244611578    0.0842185590935577 Nb
   0.3930472919644093    0.5528340709877664    0.5751653893378365 Nb
   0.4038687053495275    0.5152786604334013    0.0727305876896768 Nb
   0.1204212245688445    0.8667433288051181    0.0788617909573297 Nb
   0.6339164389850223    0.1903651798285487    0.0859004322471076 Nb
   0.3622214739660545    0.1836746205091696    0.5674947257679042 Nb
   0.3750814507449832    0.0205977243004320    0.1737658311416110 Nb
   0.8968978239763522    0.2125871057946527    0.5889798119124887 Nb
   0.8384078733652391    0.6850756774778402    0.1744386425068165 Nb
   0.8746045549704159    0.3905236497089824    0.6713881411675638 Nb
   0.8895635593584666    0.3676001688356466    0.1717146434913296 Nb
   0.6282681590046768    0.6754697208216724    0.7111414216340693 Nb
   0.6295586224776445    0.3472272732824082    0.2004927891495923 Nb
   0.3585229053874154    0.7131178466204698    0.6804936665891224 Nb
   0.3443492161222697    0.0196528506002347    0.6827990693873779 Nb
   0.1379625613235490    0.2150524384925746    0.5729265884295842 Nb
   0.1081944809919043    0.6920866218509591    0.6742647927979697 Nb
   0.1197773139579427    0.3614030013334548    0.6764920778537015 Nb
   0.1438286017485026    0.3535075122415011    0.1782742128420643 Nb
   0.1011974770125593    0.0245915048315958    0.6615972137207147 Nb
   0.1396334675886018    0.0222171150814180    0.1884620189210595 Nb
   0.8730305606215267    0.8637882560580697    0.5923125853955565 Nb
   0.8962733533996591    0.5348520977770643    0.5496209389190986 Nb
   0.8851981467376505    0.1980730866300381    0.0825893053788684 Nb
   0.1280894380006189    0.1877085714441008    0.0731055595930277 Nb
   0.9090540613627336    0.5183886980065007    0.0746715070741060 Nb
   0.8614500145626437    0.9756581683220511    0.3280616577603827 Nb
   0.3647006476295022    0.1190249544245610    0.4087169689125250 Nb
   0.3441781471576707    0.8165700789857209    0.4293026403712148 Nb
   0.3605798329803015    0.8202103081018722    0.9327901795860537 Nb
   0.6250634285353032    0.1033244314322436    0.4347691801069337 Nb
   0.8677488782482151    0.9956840378919003    0.8274763493974485 Nb
   0.6240895279514297    0.4696966701508553    0.4037515168313370 Nb
   0.6046327137155968    0.8219710542406965    0.4224157080744150 Nb
   0.8546087046412033    0.1500926747611361    0.9422109903425647 Nb
   0.8912828015193959    0.4838843999816018    0.4060598880577366 Nb
   0.8770080941533793    0.4710600656284970    0.9315072875940692 Nb
   0.8543466611955719    0.8040887707417109    0.4431037628570164 Nb
   0.8705194152332913    0.8015062484990358    0.9134550668672303 Nb
   0.1163968680348165    0.3092717361707871    0.3391368572474091 Nb
   0.1483844120287084    0.6552452318025260    0.8347073699114778 Nb
   0.1236357495046617    0.9819412571506202    0.8263881376769157 Nb
   0.1486170210168598    0.6523387950994980    0.3116671825967292 Nb
   0.3805372539713713    0.6725014585567607    0.3197534709428705 Nb
   0.8850837014680661    0.3090055740551623    0.8263337953421734 Nb
   0.8670227906566959    0.3016133824808294    0.3228811437597171 Nb
   0.1006856326401943    0.1455313893666098    0.9265200954678529 Nb
   0.4087542694009846    0.3178414768657868    0.8034303710282084 Nb
   0.6068029753727103    0.6057561820863494    0.8507642731375819 Nb
   0.6372068071361460    0.3027897106774825    0.8485962210466407 Nb
   0.6361423804549209    0.2704849201706312    0.3547749583792528 Nb
   0.6236709548251663    0.9629667055386435    0.8008434725284093 Nb
   0.1218026859761665    0.4822707894894168    0.9399661095911649 Nb
   0.3834167637092691    0.9739869338945549    0.3151519681316926 Nb
   0.3800211971524664    0.9733599971516456    0.8236883389165864 Nb
   0.3899705694443413    0.2860489722959370    0.5522850832862469 O
   0.8672158170003095    0.6170589346828306    0.1122620153180213 O
   0.9041306372602566    0.3269130343877414    0.6088434189113059 O
   0.3776927398551866    0.6255198512308007    0.0761052002616490 O
   0.6362596871891688    0.2915076875271979    0.1278927994434327 O
   0.8706266605148086    0.3048863962921614    0.1015305152689628 O
   0.3477044446693607    0.9711091224980861    0.6027857846238956 O
   0.5870518862885726    0.9873444088730412    0.1007565116659006 O
   0.5892844459535388    0.3502743906682023    0.5863774625896998 O
   0.8918428854262556    0.6463559836412027    0.5433005013666924 O
   0.3698448916299449    0.9701579282071461    0.0962541144870984 O
   0.6497977348967594    0.6246915887915682    0.6389158287276513 O
   0.6530663859011583    0.6293847881350515    0.0607153817581607 O
   0.3727311159823735    0.6520036818732960    0.5965919033697710 O
   0.6170329639381569    1.0024982880509645    0.5037621005902162 O
   0.3681729636462519    0.0598921842576913    0.2707730155089048 O
   0.8749402056059993    0.9727521812966593    0.5618531173422416 O
   0.5921659883885280    0.7513345814333423    0.2435832100479243 O
   0.6511063841219976    0.3734645806658496    0.7893924488952350 O
   0.6681229603202512    0.3572042739906566    0.2934102384811408 O
   0.6202422265833525    0.0494552044740318    0.7586102654060140 O
   0.6120872803516350    0.0615230920897746    0.2666281716964253 O
   0.3589947989694200    0.7520127960074321    0.7614912972671930 O
   0.3603887396105802    0.7493686030096136    0.2689267823256227 O
   0.3948496592890451    0.4090701085272152    0.7722589170406904 O
   0.3816224104902319    0.4563400707281322    0.2446818806647207 O
   0.3479537797524971    0.0623361414172637    0.7758133843867837 O
   0.3561590213082936    0.2834172114788941    0.0515995170928678 O
   0.1317519719407634    0.7297943001689030    0.7672491566635117 O
   0.1824306601920437    0.7190875630788456    0.2522879674525212 O
   0.1766422036820463    0.4181285671262532    0.7493452200958683 O
   0.1160849620202722    0.3885831117744746    0.2710535313819156 O
   0.1083557964337245    0.0591795104444433    0.7587333111475019 O
   0.1313530690830233    0.0875347563207125    0.2687013345963083 O
   0.8991708072600583    0.9446955433416265    0.0392342636845757 O
   0.1187708718437779    0.9576311091054173    0.5953770829967839 O
   0.5966291678461642    0.4800323006440345    0.7071118937782004 O
   0.1237004605601676    0.6331671893096089    0.6030962247310347 O
   0.9084005745495484    0.2104505316667315    0.3091494477043543 O
   0.3595309901800875    0.1300986585687192    0.6459438543195579 O
   0.3777025834412859    0.1324477348017506    0.1419435268241574 O
   0.1026273471040925    0.7902984008256130    0.6473828492278819 O
   0.0831996050160930    0.8288627208900109    0.1611249678848932 O
   0.1241140630551158    0.4757410696923149    0.6441009275745547 O
   0.1324212484521628    0.4510789617466046    0.1488705384699739 O
   0.5589183463195959    0.6835996228827772    0.7948308231755616 O
   0.8599522898480478    0.2055486671368304    0.8552395318596149 O
   0.1163480497574483    0.1278039228799024    0.6369828712385336 O
   0.9189975033970184    0.5120036101672347    0.3218660988316847 O
   0.1167542398842820    0.1311312428225376    0.1439092078289737 O
   0.8617877051869368    0.8873983981843592    0.8543081053290166 O
   0.8429752854881295    0.5207905734356089    0.8622553126604547 O
   0.8583075322887285    0.8626098186734423    0.3709968896784925 O
   0.3923153986372432    0.4846238456621416    0.1606607155580375 O
   0.3950055601374640    0.4995447866793975    0.6484604439398240 O
   0.3722910261050631    0.8042587539797273    0.1543116984466164 O
   0.6263228206531145    0.8517383129447015    0.7921578941441284 O
   0.1785212007035133    0.6141157501919620    0.1213453838419301 O
   0.1343409019076906    0.3241135661955472    0.5940313022506180 O
   0.1472636988190637    0.2861170662646683    0.1096085185210418 O
   0.8704244399606115    0.8185231106534216    0.6710449504519682 O
   0.8559667645457285    0.8165304114235253    0.2722196528206773 O
   0.8984218676255881    0.4882720520600637    0.6367684488123114 O
   0.9019817717228775    0.4690005077993504    0.1586946425999933 O
   0.1033805693171992    0.9718827608265170    0.1122027020443941 O
   0.8708100154352214    0.1867368271276025    0.6709978271818686 O
   0.5506299057363879    0.7490424667148508    0.6738287531774516 O
   0.5953278202543252    0.8349642253200298    0.1704296300487717 O
   0.6429508926486120    0.4510773380601136    0.1752181427535495 O
   0.6603353119911071    0.2038532936165341    0.6780221848479592 O
   0.5985236218586076    0.1511394955691411    0.1684523800574788 O
   0.3908112638610619    0.8049790677153151    0.6502482739372811 O
   0.6239069132386732    0.8619860133660242    0.3414155728151340 O
   0.8951563970246311    0.1568590213262817    0.1602480593860936 O
   0.8523728865321332    0.0631900613086488    0.2897327795105512 O
   0.6302967618202925    0.5600890994110536    0.7518932504772287 O
   0.8784855350080761    0.3930638602573852    0.2682218591218253 O
   0.1433360542870798    0.4449510265345998    0.5132901293197862 O
   0.1398790785220949    0.4303687358044126    0.0211377757371946 O
   0.1724787762598707    0.1155150403504304    0.5395254811139176 O
   0.0972671388472073    0.1000738855870600    0.0191691587703343 O
   0.9111195336868891    0.9171724190623218    0.7597148430423354 O
   0.8759084971879113    0.9094434891797486    0.2434652237820984 O
   0.8668837238308924    0.5673277961418780    0.7109369896188780 O
   0.8173868105071516    0.6222365395269368    0.2472593919073991 O
   0.8410879234920363    0.3032121225706425    0.7323144279059977 O
   0.8368629967652663    0.2930201968652275    0.2306386319790661 O
   0.6281353174008969    0.9033071566993301    0.7135937968315690 O
   0.6384511791427500    0.9488182714688167    0.2163189795685108 O
   0.6414231130120097    0.5853546785266696    0.1736913385501127 O
   0.6304923123472774    0.2269671777294978    0.7629087636612540 O
   0.6577779493762209    0.2569533156971809    0.2586948496090277 O
   0.0882307889100729    0.7840120938672744    0.0271930713923455 O
   0.3469560841744050    0.9347834109842084    0.7333559156373128 O
   0.6540119719805437    0.5105286845897564    0.8711621023231879 O
   0.4152852193401463    0.1041822114584659    0.0059499533549432 O
   0.8651394694802329    0.4529024703309310    0.5047794408333770 O
   0.9138352726951544    0.4330354026836654    0.0294024110493880 O
   0.8931475806273783    0.1232738410589609    0.5518609002392078 O
   0.8802566441583772    0.1101651352801406    0.0289693887020954 O
   0.6049291029733418    0.7415732482030972    0.4945388141871029 O
   0.6371815239245866    0.8028452600142411    0.0422320907304672 O
   0.6228838968377473    0.3554325145149790    0.5020689971323889 O
   0.6364993327795843    0.4298570295420684    0.0550071992608186 O
   0.5808872093240190    0.0956106113195664    0.5232399955247060 O
   0.6371227593952079    0.0940761632676780    0.0555143481027911 O
   0.3695928559368611    0.7729718347370859    0.5141078389818573 O
   0.3528019247260072    0.7803795845215337    0.0259816321454344 O
   0.3835184607813752    0.4571123206335185    0.5231508018648011 O
   0.4061512774576060    0.4274771990023059    0.0306638497787519 O
   0.3670326543601048    0.0959914507510323    0.5122627010774701 O
   0.1179532458171693    0.7626287362441461    0.5190099345177256 O
   0.3657741473215544    0.9351164515423566    0.2231963467649886 O
   0.3965398460783011    0.6143050792673402    0.7272531441339702 O
   0.4164948504139861    0.6158739997613794    0.2366489367589341 O
   0.3766545909854142    0.9017315759733384    0.9827424614204766 O
   0.3450230815314359    0.9071026996650517    0.4781525781026854 O
   0.3824135167631747    0.5744940729389689    0.9935397255734407 O
   0.3810631166809136    0.5540438922624092    0.4736904427944857 O
   0.3779636259951706    0.2360521146547971    0.9737456692779614 O
   0.3141222227629992    0.1886924823851644    0.4732911416920224 O
   0.1279532795201610    0.9128235447916137    0.9883794459776571 O
   0.1017384351460301    0.8874880374022178    0.4802901221552869 O
   0.1515788706968241    0.5637927149055393    0.9936247477364636 O
   0.1332096778116857    0.5730958784620024    0.4758300288048220 O
   0.1304380371676256    0.2296093078523561    0.9771717439755915 O
   0.1358378464572844    0.2461263608565834    0.4909887451589557 O
   0.9152166261325507    0.7459813416189414    0.7460295494732629 O
   0.8219628139390983    0.7210736647798144    0.2716657476241096 O
   0.8639637141670953    0.4002050116375563    0.7702094618784311 O
   0.6284172392594014    0.2158604992342443    0.4406567732775835 O
   0.5942721077835909    0.2268018983828863    1.0047010667936047 O
   0.6470611127747217    0.5418844250679657    0.4593969654525220 O
   0.6486726373949950    0.5529561145225775    0.9996988498838267 O
   0.4520380354441038    0.2789504081679006    0.7204164002344513 O
   0.3812611491701711    0.2255322802281407    0.1976244389805167 O
   0.1180712499223590    0.9490515451379363    0.7310171450281527 O
   0.1564081586590051    0.9428980235457800    0.2376946158238523 O
   0.1480604005612904    0.6170431556758692    0.7405572284221661 O
   0.1389479619757554    0.5762252080347097    0.2378518948890545 O
   0.1240971621890565    0.2741890013940091    0.7175405834058339 O
   0.8479879308752697    0.0662860294608668    0.7691684193222799 O
   0.1057710715100551    0.2773415627636176    0.2452928551684659 O
   0.8880997957789868    0.8948122585759275    0.4950351325556801 O
   0.8817318593008010    0.5572816532920045    0.9877863258893481 O
   0.9110477661145612    0.5735935673903414    0.4539021212622630 O
   0.8551239318147846    0.2377126280338595    0.9857635698221053 O
   0.8877509015474441    0.2652378616944290    0.4980187646251676 O
   0.6268226828258608    0.9095316147325683    1.0008064509758536 O
   0.6499657009738449    0.9095449450979460    0.4814203046082043 O
   0.7986697978835127    0.8479892299841292    0.9687380774679198 O
   0.6213674671472567    0.5065735363068874    0.3238640813008603 O
   0.7727994888276020    0.9261567015770311    0.6130977470188722 O
   0.6347447268382309    0.1621971312311553    0.3503891673121483 O
   0.2731846483885482    0.9404322464457057    0.3395527733988257 O
   0.2422532074195684    0.9931205839125234    0.8312684945137784 O
   0.5233067869677666    0.2874687726358174    0.3514367199377693 O
   0.5056528690543847    0.3210472898982081    0.8544684209080121 O
   0.4870235396718316    0.6204548500765014    0.3299999511932408 O
   0.4949526536711700    0.5791911300175536    0.8695629995860870 O
   0.4999802415799177    0.9423692009517232    0.3019806739744684 O
   0.4929647131942405    0.9474177187967694    0.7994065346068329 O
   0.7718718879447597    0.2690743869053735    0.3682087495851694 O
   0.7588054207490399    0.2827172593230267    0.8491939723660634 O
   0.7988422273402337    0.5548476868424039    0.3629291770488258 O
   0.7087001177562009    0.6308339049793458    0.7854280303159075 O
   0.7396173920987242    0.9571966965086176    0.3222370601481721 O
   0.7486254522949665    0.9590471630857617    0.8099732809531311 O
   0.2612614160556030    0.6496530794971096    0.8578851355368328 O
   0.0039672884517522    0.2151731857814903    0.0662157496139907 O
   0.0229021266537814    0.5473285945421759    0.0806654828145163 O
   0.0134779735025925    0.5424664752405639    0.5598974543645033 O
  -0.0076646409369159    0.9035603687060754    0.0834031629466233 O
  -0.0060295745388557    0.8624183970897459    0.5850595088934939 O
   0.2523048416645088    0.1753201554902898    0.0605173742946651 O
   0.2545632102405211    0.2221686563190194    0.6033846005216776 O
   0.6002178685229813    0.2024367390572004    0.8459058417217385 O
   0.2583794889198657    0.5484163664878730    0.5762115731341015 O
   0.2416521144510811    0.8825501224361604    0.0819111095458258 O
   0.2375465319894034    0.8538296186998529    0.5805690158554253 O
   0.4985473091967232    0.2092038161453274    0.0770729771368818 O
   0.4802485566108852    0.2056912973956608    0.5771769585268426 O
   0.5210471266883051    0.5325532066115517    0.0847810873558543 O
   0.5064283870199713    0.5681482705116970    0.5585700449445492 O
   0.0180019500611548    0.2208116816972710    0.5925394527409398 O
   0.4925685369814241    0.8694464379221751    0.0779283324451306 O
   0.2747793015797621    0.6242646097696307    0.3237711082141934 O
   0.2141143847506026    0.2560271270484230    0.3475394496843192 O
   0.0411792273097639    0.0759387662305214    0.4035021060920632 O
  -0.0162360945563213    0.1546801362680241    0.9165666444019949 O
   0.0128989586038185    0.4670264217501849    0.4233529296338356 O
   0.0033724638682168    0.4784054604779205    0.9205409855750530 O
  -0.0240710005973501    0.7769268737349680    0.4381731275118250 O
  -0.0144843658830669    0.8372385119330065    0.9180006677996121 O
   0.2580012587486414    0.0802358339898849    0.3899084385442149 O
   0.2101237973345457    0.0976912512941287    0.9712779192741188 O
   0.2582396636175495    0.4801879613704758    0.4176293289562465 O
   0.2098628957163289    0.4433252112133523    0.8951575599669219 O
   0.2293150796413529    0.8001840252817478    0.4224140487787567 O
   0.2432083865426021    0.7912262806694556    0.9275994433591089 O
   0.4939830776723215    0.1312482228889110    0.4342649111822196 O
   0.4494977914537463    0.0469468181022777    0.8744713935486970 O
   0.2965954224094554    0.2583604272059757    0.7890720782475913 O
   0.5053011367680270    0.4549393521868013    0.4224411070013442 O
   0.4914988660154894    0.8418236285637201    0.4346421028288331 O
   0.4747191099365645    0.7954227297792917    0.8997398225393590 O
   0.7376564007134230    0.0999179909444427    0.4534295259795252 O
   0.7436929858219359    0.1253594125450453    0.9340916870677771 O
   0.7610305114549314    0.4594909538602135    0.4026414200956396 O
   0.7702733920192193    0.4320623050816610    0.9615198974618981 O
   0.7269549662427660    0.8369664026197441    0.4547987204721484 O
   0.7954357136498303    0.7549996378573600    0.8565170992725616 O
  -0.0141728227300378    0.3225726391800194    0.3574960870119220 O
  -0.0077944656902410    0.2811113047890471    0.8094345041585822 O
   0.0352810851899343    0.6440382123960285    0.2722823953377156 O
   0.0255126967329894    0.6061515727125533    0.8166221589214531 O
  -0.0213376864655953    0.9554698006766783    0.2999535883115031 O
  -0.0095642878381650    0.9803437012528919    0.8212820895643246 O
   0.5111025977750938    0.4401731693814014    0.9493425373341352 O
   0.5002110621471410    0.8951082715402933    0.5768315764669696 O
   0.2722317322025233    0.5012688099646835    0.0793942385654236 O
   0.7885425995794209    0.2483275059970901    0.5474556604675536 O
   0.4161742277859424    0.0235390425221463    0.3927291293440028 O
   0.3484366625792383    0.0050732764409351    0.9146684395471322 O
   0.3622769966997599    0.3591275791304446    0.4287753509306814 O
   0.3255180657415213    0.3202956353821726    0.8733193310674437 O
   0.3906881253328465    0.7220767714204168    0.3986972112198744 O
   0.4079973589788061    0.7160978725154079    0.9300396565419590 O
   0.6050641178458288    0.0201240192804217    0.3849715049949781 O
   0.7525652019979774    0.2017551207189763    0.0834149313508674 O
   0.6478966155912111    0.3614684134500987    0.4150986279330798 O
   0.6406059700392833    0.3396429637569462    0.9322217396918255 O
   0.6138852337653148    0.7215422424978140    0.4014468484116131 O
   0.6401488253307557    0.6644618179435599    0.9151640113626327 O
   0.8839297153166055    0.0037317166258294    0.4099362000132609 O
   0.8719295378478600    0.0390018349369603    0.9075692230564985 O
   0.0992751497818255    0.7127036754767168    0.9002155868115729 O
   0.8757897187341993    0.3780988585408455    0.3958442400192917 O
   0.8153521430704428    0.7168425018217598    0.4159773025905940 O
   0.9087837954388066    0.6928647434759616    0.9141064328739386 O
   0.0497753133115701    0.2261315091310213    0.3715749554349410 O
   0.1575996811623067    0.1771703007684570    0.8555496242426526 O
   0.1318483460071485    0.5466570056365595    0.3469948902776116 O
   0.1187985065426591    0.5600427584058089    0.8652021406341938 O
   0.0880748069952097    0.8541686765005679    0.3530572002020484 O
   0.1284553946048227    0.8788862595267679    0.8439041554278882 O
   0.3812039887702708    0.1801538469226391    0.3425260771565912 O
   0.4151067051326321    0.2062948113451286    0.7838621507247820 O
   0.3832629023938099    0.4628377235075435    0.3327969233719638 O
   0.3349958864031593    0.5663065623785658    0.7910781148988197 O
   0.3669840174580472    0.8645967223813530    0.3479876004362369 O
   0.3474236064985298    0.8780670328048366    0.8547847753223493 O
   0.8992889416350721    0.3699176565408944    0.8964740809526208 O
   0.1074087368480642    0.7042451055805731    0.3834040821524141 O
   0.6164533996779025   -0.0250299904325316    0.8878013674293290 O
   0.1406603603137473    0.3818925818328682    0.3990493252320002 O
   0.7711192416588101    0.5179934905983037    0.0897696168812537 O
   0.7890264978190602    0.5850514390914069    0.5685494232185555 O
   0.7443976072058961    0.9040669465814897    0.1107696895756127 O
   0.8855159452217017    0.7364159339365085   -0.0059852031977454 O
   0.0250859201315562    0.0489973092097379    0.2235653152588947 O
   0.0863034493765008    0.3720586918248727    0.9552932338986727 O
   0.0049311147812806    0.3517963326433067    0.1767812527348603 O
   0.0061734990007978    0.3918386551522172    0.6946418284001852 O
  -0.0692126990605249    0.7450512931410266    0.1628581291472190 O
  -0.0074158477498498    0.6725602425216006    0.6834102409864332 O
   0.2536523505779008    0.0511618177703334    0.1758145875538263 O
   0.2303763903219240    0.0478379223579881    0.6751770682049735 O
   0.2566662346645182    0.3504941978580898    0.1989578426467840 O
   0.2493639724974816    0.3833046297721430    0.6806651960407997 O
   0.1878182556985890    0.7824890960418416    0.1274659384837728 O
  -0.0127315477216312    0.0346831423388389    0.6631840615784187 O
   0.4910228094818062    0.0412146553206868    0.1815460172435667 O
   0.2440211722601633    0.7058450250832700    0.6660281444144656 O
   0.0988141616497704    0.0394263579288352    0.8979735768845650 O
   0.1106748932700441    0.0626712073236307    0.4756557045816941 O
   0.7142665638009676    0.7416116069507014    0.6987236274595743 O
   0.7485248779704585    0.7368126551102274    0.1440869440128447 O
   0.7602403483632403    0.4060676401491810    0.6544845248378856 O
   0.7534079069668423    0.3867580601775400    0.1780618520944897 O
   0.8254611852011279    0.7850030120867461    0.5475155233665613 O
   0.7380102278009826    0.0609730066514396    0.1673492445486899 O
   0.4849299618586363    0.6682774334339190    0.6904704222110978 O
   0.5054238495716713    0.6834971808946008    0.2407343999969629 O
   0.5516860078603399    0.4048346881018209    0.6589993773591445 O
   0.5148296370670141    0.3560869949589787    0.2116525672756358 O
   0.4590270289261131    0.0575431867546720    0.6782330176552360 O
   0.6997188136765395    0.1251864338680144    0.6296196421393906 O
   0.1272072150589596    0.9831284452673132    0.3505121842891404 Sr
   0.9173895360040939    0.6530217129305228    0.3490067951312895 Sr
   0.8651896850932552    0.6378508363693058    0.8156408167805086 Sr
   0.6361831120105571    0.2184484373808967    0.5590171712811874 Sr
   0.8578969568250375    0.8243407612884471    0.0788126460568924 Sr
   0.0712698538340819    0.6935673417295363    0.1640415318793198 Sr
   0.4018753513207302    0.3701856581388945    0.6401404103430846 Sr
   0.3046997340817457    0.6887342977875158    0.1658935923689236 Sr
   0.5913529407199208    0.7107475787863188    0.1340434037267664 Sr
   0.8383215857128163    0.0550969731960946    0.6532513843950878 Sr
   0.8405737476963266    0.6873699806650958    0.6470787646281111 Sr
   0.3923052895902429    0.3530385839511351    0.1424498846920921 Sr
   0.3824867091851531    0.1766904913204826    0.0586344574496934 Ta
   0.1196268826752417    0.8488056910903159    0.5679822721021018 Ta
   0.6190714519603002    0.9668523967122945    0.3067162589427117 Ta
   0.3786868529387381    0.4560436950833021    0.4243451839977632 Ta
   0.0972659639737809    0.8011283822093909    0.4246340127423495 Ta
   0.1343787996120933    0.4914092506029137    0.4235674134072446 Ta
   0.6242763633366125    0.0486647097115956    0.1726493837325728 Ta
