Li32 Mn32 Cr32 Fe32 Co32 Ni32 O256
1.0
  16.6618033077523791    0.0132980375847264    0.0060672621936629
   0.0132947129778404   16.6534142658499391   -0.0047102022213324
   0.0060656045184470   -0.0047103574750077   16.6622937231171520
Co Cr Fe Li Mn Ni O
32 32 32 32 32 32 256
direct
   0.1239538175534994    0.3789779889394319    0.1287949247621754 Co
   0.8111083957277263    0.5612695872665989    0.3111364413240794 Co
   0.3714558957726347    0.1230877157985621    0.6262914287269662 Co
   0.0648878776501117    0.5645414563023478    0.0651362120785491 Co
   0.4974059138736520    0.0020304484388582    0.2499840932374710 Co
   0.4343849099824971    0.4387047653189777    0.5624273883883016 Co
   0.3094074042108286    0.9395240332900030    0.6858738785567604 Co
   0.3754080103649671    0.3789215144898801    0.8774013432382604 Co
   0.1854198933494094    0.5649761468457116    0.1923393687180822 Co
   0.0598008684378733    0.6856076051152443    0.6882655399916240 Co
   0.0636498326369260    0.6857792442599344    0.1906649225993678 Co
   0.7528733536760644    0.0005540250717606    0.4981191055598796 Co
   0.4367225507995331    0.8115154095627053    0.1886116031387256 Co
   0.0637040526969480    0.1902216988546774    0.1865416116809041 Co
   0.9403020320620735    0.3107008196209805    0.1870228908622001 Co
   0.9365361510407618    0.3086455027988758    0.6878352939892938 Co
   0.7510443089979052    0.7536140890006380    0.7470605657300297 Co
   0.8768877523742503    0.6257459538115941    0.1303867005863142 Co
   0.5641086669289609    0.5631116275029755    0.0613498968095832 Co
   0.1826344738048152    0.4390438316544529    0.3116060711400928 Co
   0.3109544326699989    0.3145315589935188    0.5620789483639562 Co
   0.0085389501249538    0.7449668692451265   -0.0005530414238595 Co
   0.6243044260097873    0.8769827391599238    0.6231011042065718 Co
   0.6314297993976614    0.1196621200133377    0.3736202056507281 Co
   0.5660328764213188    0.4411020549118420    0.9376340898179937 Co
   0.5614431091663001    0.9380036623969172    0.9386399566868844 Co
   0.6291222995657862    0.3770174638913267    0.1254812145902879 Co
   0.6860439006498951    0.9374437213698702    0.8108632923084693 Co
   0.6876058783129835    0.9375543278593823    0.3098287774780354 Co
   0.1281837791033433    0.6263203943262118    0.3796849135657200 Co
   0.6910501372168822    0.4376849068242852    0.3113222721347323 Co
   0.9398932047727072    0.0546326733408783    0.9402659326825876 Co
   0.4325700684561786    0.6878890694619113    0.8096333063869467 Cr
   0.9380971969311933    0.5577531473537395    0.4348046621162537 Cr
   0.7486909280915951    0.5001349543188652   -0.0005332157333697 Cr
   0.2488175871693096    0.0037598223016526    0.5024689130489826 Cr
   0.4341678842469542    0.1878010277749009    0.8147569139969737 Cr
   0.4363670874165181    0.1868893462383251    0.3166980929016279 Cr
   0.6871206315751590    0.6889767486432149    0.5605703087593418 Cr
   0.8135259365999540    0.0599242795809543    0.3103043393915817 Cr
   0.0583959333626221    0.3089388900900646    0.3136090459606982 Cr
   0.1871426800795433    0.0664522943785591    0.1883687712719718 Cr
   0.9389370333753830    0.4316556344417667    0.5568793459672927 Cr
   0.6854503695507480    0.5626318059293612    0.6884707880152918 Cr
   0.3093801314292485    0.4420480608762862    0.6859813960680285 Cr
   0.1900441878838758    0.8043413946810192    0.9328523126596100 Cr
   0.1870604916663829    0.3126784948763093    0.9364116502750700 Cr
   0.4407302937195564    0.4418607224985012    0.0623557338995641 Cr
   0.1843307928021519    0.3143865054787103    0.4333220871640562 Cr
   0.0634448416487054    0.8095113885515124    0.3160301888551701 Cr
   0.8797941260778571    0.1276201664014388    0.1303703092132413 Cr
   0.4377575854439220    0.5639774488016106    0.9353852230517076 Cr
   0.9355628086612635    0.8166647026433779    0.6886743454900144 Cr
   0.1206933533943183    0.8738544970852685    0.6259955819057575 Cr
   0.4959297632544068    0.7489926996884866    0.0001091599690662 Cr
   0.4956539903555723    0.7501347694261106    0.5004267043805974 Cr
   0.3131209277011333    0.8089740516062492    0.0602021454931995 Cr
   0.5643003767254259    0.6860050761183336    0.1846415826261387 Cr
   0.5624130354352006    0.1871276006176686    0.6895925696070615 Cr
   0.3766159305300302    0.8741153562724857    0.3761470253166189 Cr
   0.6253326376934065    0.6259009156798725    0.8746646059803821 Cr
   0.7516356496498153    0.2514915122877824    0.2530423710137673 Cr
   0.2504828450073449    0.7482265459122639    0.2507013926517111 Cr
   0.3770208402021420    0.1266690561192622    0.1203254953531744 Cr
  -0.0022218316748293    0.4967306876450430    0.7499139907109577 Fe
   0.0640924883529584    0.5584018914767340    0.5622103628246109 Fe
   0.7553806446133327    0.2459998437679728    0.7518552220985103 Fe
   0.5576369515087597    0.0624218816440684    0.5597160284214699 Fe
   0.5581404276420927    0.5603983687886400    0.5659247064311163 Fe
   0.1873351059951653    0.9391336997106549    0.3163885451766544 Fe
   0.7515721771769769   -0.0030359815000878    0.0033531807300390 Fe
   0.4977826031908029   -0.0004525045385735    0.7509456828590431 Fe
   0.2468673576909524    0.2492758196041336    0.7504731620374022 Fe
   0.8157947013683975    0.1805535475401390    0.9292321273942287 Fe
   0.0005827146774553    0.7497340413730776    0.4969778933106834 Fe
   0.8174278058569442    0.6940187816993130    0.9378652267737848 Fe
  -0.0008019115979024    0.2449689218825684   -0.0084858481150420 Fe
   0.5663425723442258    0.3221322220281552    0.8157822440940450 Fe
   0.5597461987149807    0.8142221983110954    0.8124429344207973 Fe
   0.6277697003252387    0.8750392656778311    0.1276895575848448 Fe
   0.6259148770242599    0.3762249427314033    0.6254520704434865 Fe
   0.8107358613783959    0.8143658973768184    0.5587687575809055 Fe
   0.8135851396658236    0.3090001916111247    0.5562158962451426 Fe
   0.8146516710739983    0.3117141140509201    0.0604212250682467 Fe
   0.6246109812800806    0.1212979005649670    0.8743266443035940 Fe
   0.9453770936036906    0.4393215565696416    0.0603872058708271 Fe
   0.7513200097749902    0.4975296870860212    0.4949466386405552 Fe
   0.1891527151589114    0.1902707917490257    0.0587849723700016 Fe
   0.1785422793900152    0.1896866490716547    0.5638195631870924 Fe
   0.4350710626247090    0.3161603693851301    0.6881585129759109 Fe
   0.4348195353744482    0.3162514642554800    0.1887391987589877 Fe
   0.6893310555216985    0.1867062408249136    0.5578073615212606 Fe
   0.8129852705953335    0.4406853767402175    0.1925503097855218 Fe
   0.9410583310904469    0.9375122668201459    0.0723882886068010 Fe
   0.6894366954489766    0.1829175164281007    0.0649329810340157 Fe
   0.3092450473427182    0.4442151871605168    0.1903882739677375 Fe
   0.6847100263046371    0.0556452870379367    0.1878984523125342 Li
   0.4984020034147091    0.5011096542916881    0.7495860445742222 Li
   0.0596983982797691    0.4354559962026741    0.4326006992939707 Li
   0.0559869432257893    0.0727814190287300    0.5612503141627563 Li
   0.0627736567884335    0.4428707785128350    0.9349476828907876 Li
   0.0624699910098770    0.9415681284865912    0.4389819368965068 Li
   0.0655183038552301    0.9362751402832421    0.9366031352836346 Li
  -0.0021136642002360    0.2462234882446264    0.4987670374151618 Li
   0.4370836695135729    0.0638556241362744    0.4403401202305761 Li
   0.9430526748121185    0.1883433406750871    0.3179948065287917 Li
   0.3724670292794395    0.6234273966682656    0.6234869721064716 Li
   0.3086672093177154    0.6866421950638227    0.9339498096063092 Li
   0.3089640797185944    0.6861436186303517    0.4542983881089902 Li
   0.3102068565897363    0.1847352278222364    0.9335236453404686 Li
   0.8110750491209054    0.9383802236611370    0.6862656628406061 Li
   0.0572534163460172    0.1840228049099100    0.6885905128848323 Li
   0.3092158791640866    0.5649015405510049    0.3149882201001292 Li
   0.3105585544966109    0.8121211438938895    0.5617485008968752 Li
   0.8146624525658087    0.0568833570286674    0.8062364157604764 Li
   0.1834766419851450    0.5629265879308575    0.6929850378201740 Li
   0.1268498273529193    0.6266049154538903    0.8736604646870670 Li
   0.6890351402147352    0.4366800816302746    0.8104641025040507 Li
   0.9399011308891276    0.1894670566369758    0.8080241276143717 Li
   0.1223827470642853    0.1260346159552712    0.8750466297582771 Li
   0.7505624825553789    0.7461964179675554    0.2481403458003978 Li
   0.6899554411843523    0.5647457245072359    0.1890368610906320 Li
   0.1867077094861717    0.8064394387569186    0.4425859579024772 Li
   0.8767933824026851    0.3706101630592625    0.3751032974256993 Li
   0.6924601001128468    0.3114689918652152    0.4346062250852092 Li
   0.2447016412704625    0.2521401511998679    0.2483407926333532 Li
   0.1219248362026345    0.1276208204327685    0.3763986642313018 Li
   0.8097504349670038    0.9299315262068160    0.1923059078146258 Li
   0.8177588231798331    0.8134489546317131    0.0650574933510002 Mn
   0.9417689577945376    0.0647993534362632    0.4372898233276943 Mn
   0.5629588400115130    0.9395843889481662    0.4347987565663818 Mn
   0.3126976248922815    0.3170062423727381    0.0619276375240887 Mn
   0.9369248206905016    0.9404467461132396    0.5623024640526100 Mn
   0.4354235771078229    0.8153123856875186    0.6853660462313383 Mn
   0.3100475256372024    0.5629716465114403    0.8105055375471700 Mn
   0.5642497531977104    0.1854599616078704    0.1894022055857330 Mn
   0.9382040109196846    0.8095070415673260    0.1906600975478776 Mn
   0.3135982676533777    0.0643920911127475    0.3129065696056974 Mn
   0.8115252135015418    0.5607062819336768    0.8131981748298752 Mn
   0.2476936818425685    0.5046645479874072    0.4942288722049393 Mn
   0.0619748862669041    0.0643982865415518    0.0612907219333785 Mn
   0.3706875522442047    0.3816915824437247    0.3749828079194747 Mn
   0.6915663073871727    0.0587112180786111    0.6885583999063708 Mn
   0.1860227292044429    0.9344232382645525    0.8119018010100124 Mn
   0.2406639803091996    0.5061522854119708   -0.0057749147632510 Mn
   0.8757403365785411    0.6248437330090333    0.6233494639029777 Mn
   0.6899147974809374    0.8163626544638650    0.9359772082864387 Mn
   0.3105813794041255    0.1891974766096161    0.4406312175777030 Mn
   0.6277802138777800    0.6225716734841440    0.3712428002054751 Mn
   0.2514837558842017   -0.0047227738505213   -0.0044053552015401 Mn
   0.0578789887924928    0.3085320284508974    0.8122796224260089 Mn
   0.5006325233077777    0.2496754986495181   -0.0036615234087814 Mn
   0.5661953516353522    0.3139056328888210    0.3126295993079461 Mn
   0.5637714861118185    0.8134702341759686    0.3105243793074202 Mn
   0.1278121418899512    0.8746029771336029    0.1280100362431532 Mn
   0.1216854391458005    0.3710892970962647    0.6277345818758470 Mn
   0.4357535311779656    0.5626767620507740    0.4380410047346031 Mn
   0.9397714626688508    0.6905257486335126    0.8119743123138340 Mn
   0.4996877500702803    0.2534506842424408    0.4996516351929438 Mn
   0.8806523707687861    0.9072165838222690    0.8709039304117804 Mn
   0.2720994948969037    0.7248657510733832    0.7073533131281576 Ni
   0.8759543047631682    0.1246039436019249    0.6273132061460008 Ni
   0.3737173360490563    0.6262595431722767    0.1271021414423906 Ni
   0.4359748628784982    0.0612378806609227    0.9377507716185125 Ni
   0.3714481382339040    0.8795068220148167    0.8746662543130883 Ni
   0.5034457093190925    0.5041311281193082    0.2505420098622713 Ni
   0.5601922208431560    0.6892484691035968    0.6865186945866978 Ni
   0.0047726679173008   -0.0007444715789544    0.7506994327989249 Ni
   0.0040246750322630   -0.0006403583697376    0.2567168514293923 Ni
   0.8759834571820800    0.8789896468445902    0.3746198926783963 Ni
   0.0003005956229421    0.4976038397619100    0.2477994275730448 Ni
   0.8779930579611313    0.3775624398555832    0.8751394604073605 Ni
   0.1836174949397578    0.6850377937189465    0.5647963516616060 Ni
   0.1893207814328752    0.6869007577112298    0.0608753331160699 Ni
   0.9353161528834452    0.6826665266053760    0.3125100375676726 Ni
   0.4332725202076603    0.6856600800792952    0.3142237379090199 Ni
   0.9453319620731016    0.5627373316187667    0.9414379580473092 Ni
   0.0661968329436860    0.8100494599447177    0.8155761326784339 Ni
   0.8111264028164777    0.6884421254394697    0.4325864477362650 Ni
   0.8145907838222745    0.1860515011277488    0.4356575344747731 Ni
   0.3067600054922879    0.0627603189156031    0.8124294239285458 Ni
   0.6891495241405267    0.8135146083257914    0.4334318392585520 Ni
   0.6918973163999270    0.3117162910201987    0.9359729235489609 Ni
   0.5650742686818578    0.4361989980444643    0.4367697519776513 Ni
   0.5651819553632861    0.0593476900223799    0.0657036377169250 Ni
   0.6894093657694083    0.6874915015104210    0.0640562344764371 Ni
   0.1838105202882116    0.4413106623852058    0.8121236575018916 Ni
   0.3167306123442644    0.9382393915806664    0.1867985188288666 Ni
   0.4335783465955961    0.9399135608331586    0.5594800207207331 Ni
   0.1797077641238457    0.0632678926468733    0.6912718054444018 Ni
   0.8101343178312534    0.4347572222733155    0.6901934448341911 Ni
   0.4396487541465817    0.9362612480835666    0.0636122078032938 Ni
   0.8163561960566225    0.1785385786684608    0.8155991368794363 O
   0.8179132149281412    0.0685941626452168    0.4294937921035793 O
   0.8227165181762316    0.0582395902137684    0.9411833359524487 O
   0.3222229672239841    0.5646885047837619    0.4366954581973748 O
   0.8163985411785688    0.5630057220304181    0.4293451834899153 O
   0.3199595748144219    0.5627606796686951    0.9279322386146894 O
   0.8107520819753893    0.5673337977143893    0.9341880346407361 O
   0.3165969482748051    0.1842602030782421    0.3245921606323912 O
   0.3160846145962019    0.1863709631199245    0.8115786688276427 O
   0.3088816919815537    0.6916850243160200    0.3099928472985068 O
   0.3156998154296042    0.6780768562293430    0.8081519324735953 O
   0.8118508939883206    0.1833952812491889    0.3064204928795685 O
   0.8138608752599981    0.6711127911943359    0.3138565978803078 O
   0.9462413969570221    0.9393981661857158    0.9572409570326824 O
   0.4408193804766257    0.4461989103141288    0.4465848455443612 O
   0.4503187800371814    0.4438905410801952    0.9431408244455621 O
   0.4435196639745072    0.9365396046761926    0.4351981063194793 O
   0.4490283375092289    0.9402550174243431    0.9414992294943919 O
   0.9384478883577723    0.4396781198445443    0.4476799534813051 O
   0.9401790544753993    0.4437909891802590    0.9462495335125464 O
   0.9409057788246967    0.9450436017249750    0.4478347244497635 O
   0.4277608988083979    0.0691601436075890    0.3152137559380261 O
   0.4338202459249471    0.0667382607241143    0.8119681848114098 O
   0.4350870246567862    0.5655975232358675    0.3239927740376296 O
   0.4294337324207849    0.5700981812526912    0.8167162095439441 O
   0.9314429249448041    0.0625514546460205    0.3216134538928275 O
   0.3165908450417637    0.0613215675831143    0.9341175667555085 O
   0.8206620863973105    0.6818112729293869    0.8176181679051233 O
   0.3096155384905955    0.0696999139354046    0.4440842650344365 O
   0.6762111666014025    0.6880771149019972    0.1804886593360278 O
   0.8002282120604098    0.9419491374528949    0.3107315421567874 O
   0.1894424784368805    0.1845080784347478    0.6812571454490907 O
   0.1829654617454382    0.6842076187178159    0.1912656514176865 O
   0.1674881976403897    0.6814620383931611    0.6808244979586814 O
   0.6821184969166978    0.1894563867096963    0.1881072232187645 O
   0.6833064416157212    0.1775049741809828    0.6864556669267202 O
   0.9254128164980276    0.0148885578417323    0.8324043122550053 O
   0.6837725798028548    0.6838162569333992    0.6813947562649960 O
   0.1981845130782938    0.0589295682819775    0.3074671697786152 O
   0.1871173812776617    0.0482208060538352    0.8095279372363556 O
   0.1821929858712552    0.5557679580121764    0.3068373122966819 O
   0.1980744136180211    0.5573049382661842    0.8139518457605677 O
   0.6942463530578227    0.0513362442412146    0.3076521000367939 O
   0.6874843590053045    0.0535509955388841    0.8054561844898844 O
   0.6966652456994374    0.5508493850169242    0.3095227181781127 O
   0.6955780415061001    0.5659201128690492    0.8090564313518552 O
   0.3096283585296307    0.0649310056304095    0.1857979377633433 O
   0.3046393584187678    0.0515566427969277    0.6884058335488329 O
   0.2989879903340178    0.5607328790383406    0.1898904322034971 O
   0.3088395686108086    0.5562128991037312    0.6967595394103098 O
   0.8229704956221605    0.0652432942249832    0.1878151495046230 O
   0.8004046362608158    0.0585398107786997    0.6873106470282598 O
   0.8128809413967588    0.5580017616875338    0.1959306768079619 O
   0.8067846034411550    0.5592320918318606    0.6991644228509559 O
   0.2968249918795445    0.4411274796826140    0.3061050242861420 O
   0.3111404617546336    0.4450304498339456    0.8058114870735142 O
   0.3138248729469738    0.9410370943034227    0.3143482386524011 O
   0.3028107064463075    0.9399370661707294    0.8000447173682593 O
   0.8043891380269541    0.4444899388591194    0.3095407443437060 O
   0.8101242305157558    0.4495736029522496    0.8117273276390369 O
   0.7933043893219202    0.9277904379169060    0.8053603323944895 O
   0.9275088675941984    0.5604094460175797    0.3160629390703562 O
   0.3061728990171754    0.1975394150875410    0.5566801041684143 O
   0.1867158933478785    0.4338712855697235    0.4266254340951120 O
   0.3236330707379569    0.8277733837968362    0.6831134703648056 O
   0.8213543262143639    0.3129771840746914    0.1848200081956858 O
   0.8201508649896023    0.3127562350799273    0.6838940973485776 O
   0.8246939705584780    0.8090131990557883    0.1780636396558236 O
   0.8191572386351483    0.8126450163847703    0.6780387590686441 O
   0.3176149924343444    0.4334571720535527    0.0654873719962023 O
   0.3179253079882555    0.4313015710059576    0.5639981459352500 O
   0.3171423633570874    0.9300864365783487    0.0664195597760353 O
   0.3092372714932709    0.9429281842424951    0.5655684660738838 O
   0.8126593385950704    0.4362525781328024    0.0639532122422929 O
   0.8175671529593147    0.4328427198352583    0.5635107564004025 O
   0.8187456215976099    0.9291729802783343    0.0682261486579399 O
   0.8222499970222734    0.9330478838060027    0.5616285831127897 O
   0.3173036740053440    0.8111362550946538    0.1869380822049687 O
   0.4442030637281932    0.1924058551023809    0.1915459560324803 O
   0.4424266677346095    0.6984543752857025    0.1913265005125517 O
   0.4374668648880485    0.7017718308772287    0.6907173587669854 O
   0.9452086358555231    0.1928735971941938    0.1852719542230877 O
   0.9361957509662132    0.2018716951458454    0.6882111223912525 O
   0.9486406701261807    0.6936188362149591    0.1912341786690783 O
   0.9435298566797109    0.6953790732796439    0.6967925558554516 O
   0.4294976349784277    0.3200807637148031    0.0674548407024038 O
   0.4260268024293024    0.3224806113025794    0.5661513949822200 O
   0.4352202116425954    0.8115808481179460    0.0714785163819304 O
   0.4385762299898668    0.8176945556804343    0.5694510462918924 O
   0.9366188351583272    0.3130026439781979    0.0674482645030017 O
   0.9336250985243328    0.3190300424869543    0.5719215021301455 O
   0.1767952608780000    0.1850046850428529    0.1792035390124954 O
   0.4428314131506592    0.1940890084610114    0.6917309718879144 O
   0.3130226599864573    0.3169405627740432    0.6792913327908947 O
   0.3169712885031261    0.3203530025568543    0.1790320781647827 O
   0.8059091172563847    0.6939571551697139    0.5554518601384240 O
   0.1839070357675436    0.4295644177572530    0.9302651602243215 O
   0.1950181642677778    0.9423920418624340    0.4383856282233712 O
   0.1874127519107380    0.9284747256970690    0.9256115660249972 O
   0.6864434701166611    0.4368613722971805    0.4271341114432108 O
   0.6862602628956892    0.4401244537430632    0.9418429688437657 O
   0.6779230182820735    0.9368133717194044    0.4277751346966519 O
   0.6808416532672031    0.9339044121136464    0.9308531355598890 O
   0.1966482013659966    0.3128219924905563    0.0591311777963122 O
   0.1958849420350996    0.3138325439061621    0.5557366238424248 O
   0.1944632114671590    0.8097283892608023    0.0537970311892822 O
   0.1791472026408858    0.8176451845284599    0.5662344663988145 O
   0.6968469688476914    0.3043416628262118    0.0605449216112063 O
   0.6905638693439635    0.3072110242093998    0.5638195103713624 O
   0.6994984132023173    0.8134883386880689    0.0570842161167553 O
   0.6904757022131515    0.8090193422797359    0.5585236346485909 O
   0.3075248506935984    0.3052214723645669    0.4460873975147528 O
   0.3076292987066978    0.3141627985859627    0.9480215946248645 O
   0.3218778279705917    0.8157657122665537    0.4364631621594171 O
   0.3059713343986754    0.8110888205218232    0.9425292640096161 O
   0.8129748048460217    0.3002598189965259    0.4417436588886784 O
   0.8140385842014024    0.3016900113588302    0.9436749603907284 O
   0.8094909417032990    0.8098934723346229    0.4402889933478343 O
   0.8179084243026409    0.8157137055626601    0.9450533910252654 O
   0.3106609337937604    0.1989647059945338    0.0664332850749559 O
   0.3091002374006300    0.6922787161040598    0.0595097617725985 O
   0.2929132315849173    0.6980901466773660    0.5832565578118751 O
   0.8139542652821337    0.1867711899543256    0.0637841362459670 O
   0.8060725429344929    0.1895616197613883    0.5609112600808167 O
   0.8132236813137185    0.6973687794087473    0.0560390193027502 O
   0.9299695987212941    0.5706553556711410    0.8147068619957359 O
   0.6789559256618571    0.8198803392660096    0.8176750021583630 O
   0.5583547227379397    0.9413679082486754    0.5493681011717959 O
   0.6860666895029390    0.3112375287950970    0.8138739689376073 O
   0.0664368163548725    0.0733950802357583    0.1813572710800690 O
   0.0634438701608289    0.0637190374887996    0.6847849743031887 O
   0.0703369292960915    0.5720155155477271    0.1839901325009458 O
   0.0552512335323690    0.5699192057507282    0.6840043877042269 O
   0.5636909739448971    0.0733001103984200    0.1879332451368227 O
   0.5677249043641613    0.0652328366194205    0.6858679271434751 O
   0.5644175893818977    0.5688427774037087    0.1736969549347371 O
   0.5674166501393250    0.5683844881928025    0.6813241252240424 O
   0.0635077681171444    0.1833557088952741    0.0676579235033470 O
   0.0733245764765948    0.1914334859105162    0.5664244278508304 O
   0.0667488918208984    0.6795045727787284    0.0759528904130901 O
   0.0606451249663022    0.6826248753733647    0.5705713501066891 O
   0.5696429947461331    0.1843989078509816    0.0747971457418186 O
   0.9346699451794096    0.8142982841763381    0.0721158453315723 O
   0.5688253427401724    0.1817303897571702    0.5696741526928991 O
   0.5640416974566174    0.6850242387401521    0.5622429929480425 O
   0.1877445053028875    0.4488754751094198    0.1960200937278006 O
   0.1910123870785432    0.4343139735073278    0.6920497700811428 O
   0.1952941736574706    0.9460192404432508    0.1962153164984947 O
   0.1906272240603077    0.9334174867433781    0.6903657666266406 O
   0.6946592750750330    0.4366064201625476    0.1967732326708093 O
   0.6883086391463904    0.4436929011054757    0.6884335832196729 O
   0.6872477532584006    0.9357693480533122    0.1962862225168369 O
   0.6842080400206227    0.9452576204397777    0.6964186648133337 O
   0.1776975396200453    0.0676971978977230    0.0653676073057601 O
   0.1882950867745919    0.0637615852271933    0.5613814816387918 O
   0.1779885764740230    0.5668171866580574    0.0763436207777336 O
   0.1802235408633157    0.5592298398564493    0.5653402283992041 O
   0.5646962700473813    0.6811201618895139    0.0624398596756471 O
   0.6884805693219205    0.0646477599725338    0.0667172047258994 O
   0.5643698661046587    0.9364375093767742    0.0552427988965095 O
   0.5610482590313911    0.4468588227333236    0.0557787774474882 O
   0.4255710043578174    0.1858802357809796    0.4336816550580784 O
   0.4344950001758639    0.1796673703383798    0.9306819545780062 O
   0.4354447639465032    0.6804044994304345    0.4370301433036191 O
   0.4382368311870246    0.6843297703863451    0.9305126137122424 O
   0.9286532153757170    0.1769812440900316    0.4354293975873932 O
   0.9348310047919132    0.1723471873907623    0.9343264121098621 O
   0.9350696994251401    0.6804193541813908    0.4358806800431081 O
   0.9358101584978447    0.6852419544622680    0.9276317359336268 O
   0.4418919795281626    0.0599451288435487    0.0638577891673520 O
   0.4424752500779861    0.0600150643305006    0.5625398235829689 O
   0.4484786993797658    0.5605645014656351    0.0566020239083998 O
   0.4392214135428922    0.5538659388995938    0.5553868012930662 O
   0.9424229171416041    0.0631085558803275    0.0625706621080383 O
   0.5525010646115677    0.4378772050956627    0.5613950156608790 O
   0.9369615774389985    0.0532666830839949    0.5549025139333125 O
   0.9423851190108281    0.5507296916756951    0.5558962795875263 O
   0.0489656619897532    0.0622947669559897    0.4381546151119091 O
   0.0509518469110857    0.0613197997938638    0.9496880776968276 O
   0.0572726856986194    0.5614128751280588    0.4411214276272803 O
   0.0646540955665797    0.5668532653103074    0.9588163854913827 O
   0.5600569806111146    0.0534257675701209    0.4392108591597146 O
   0.5623898429041854    0.0535237608239415    0.9404018218081066 O
   0.5529221637171925    0.5594197066419784    0.4435921574001051 O
   0.5615736635644427    0.5587986163329722    0.9434210394248974 O
   0.0622543135158965    0.4504863039765872    0.0658788519594969 O
   0.0556290010740473    0.4373215169016997    0.5603469638877471 O
   0.0590084317484724    0.9522314832773663    0.0674837778817774 O
   0.0573043179821833    0.9329457443426379    0.5674112362572610 O
   0.9478247420394814    0.5601892178608480    0.0652773790439579 O
   0.6817148132562535    0.0628870765945936    0.5719771528688249 O
   0.6843795243210923    0.5628635074228693    0.0564158471776085 O
   0.6835114296645997    0.5655748394620917    0.5646409363265716 O
   0.0645779674443240    0.3132158277203387    0.9305077357428880 O
   0.0645894662264248    0.8111336782962899    0.4322538570380189 O
   0.0756426714372630    0.8117544464929860    0.9368952463908968 O
   0.5677974378256517    0.3154579456490613    0.4235889701364320 O
   0.5706568273106615    0.3257846516607008    0.9357649085793606 O
   0.5608132141966468    0.8197565793044567    0.4284027960346997 O
   0.5600723631328162    0.8201231310106566    0.9345908042734334 O
   0.0707674880581486    0.4282739393704489    0.3096797839439182 O
   0.0614293335713767    0.4313696365092803    0.8135625322358966 O
   0.0732144499479749    0.9277348293524587    0.3168660851783789 O
   0.0733005979410812    0.9281832631664092    0.8124600894022345 O
   0.5733207581693960    0.4284035339333682    0.3123101907555861 O
   0.5666339187303131    0.4377716448141401    0.8280962685356075 O
   0.0664416531378150    0.3104146066538931    0.4219017556193836 O
   0.5682008453358088    0.9318302432943448    0.3179658744801347 O
   0.1963107190471521    0.1948197676746755    0.4425680207766560 O
   0.1885500898204806    0.1964871132646614    0.9466566877266620 O
   0.1881908811367512    0.6845657335887793    0.4461548850284090 O
   0.1892828386402208    0.6981722146703935    0.9403616358756469 O
   0.6960582190462468    0.1847306985645161    0.4403777807421405 O
   0.6926306549340522    0.1843035976855801    0.9429013722784394 O
   0.6889075353277142    0.6927497404819271    0.4416570500688598 O
   0.6940509735422140    0.6988398049386952    0.9368221477710500 O
   0.1800705251598887    0.3232758530906158    0.3148555578404045 O
   0.1783868064474722    0.3160336252935458    0.8162483215186509 O
   0.1883624696890612    0.8148440043275287    0.3111919967980060 O
   0.1882614241706891    0.8164915404482824    0.8181220050785096 O
   0.6835502717418268    0.3177161390978481    0.3089163879438916 O
   0.5663310189791840    0.9365959952674084    0.8203798022392846 O
   0.5572760011203407    0.6933240192738817    0.8119317677360247 O
   0.5585651181671240    0.6991533090918127    0.3053000158938332 O
   0.5584120286873913    0.1916382603933906    0.8109362880225478 O
   0.4327224808335703    0.4361844830055918    0.1838015434954021 O
   0.4298128694266333    0.4336198232909366    0.6763013495416631 O
   0.4363097790762671    0.9259165966106979    0.1863712237630161 O
   0.4295931158989607    0.9341991994789398    0.6849227907394089 O
   0.9324684875145788    0.4251134150530451    0.1810080828598999 O
   0.9333549152441845    0.4296067982969468    0.6817432598298427 O
   0.9388700200522390    0.9245912975614498    0.1881177633136089 O
   0.9363702878622406    0.9333534095219633    0.6778791758983165 O
   0.4477483599918405    0.3091983377551898    0.3084689271156142 O
   0.4426640663906129    0.3090900853810397    0.8090731975818657 O
   0.4418712979083980    0.8133532671216439    0.3073075553689575 O
   0.4396830740499216    0.8108754403548155    0.8027307353493102 O
   0.9481207594976100    0.3114640408244796    0.2989418074423549 O
   0.9436135479560540    0.3115732149094505    0.8033312213338677 O
   0.9432246127628037    0.8067228535932229    0.3044675398714032 O
   0.9390635479589282    0.8067063106671033    0.8089126253087797 O
   0.0553550116150883    0.3052572980482154    0.1892529811801161 O
   0.0506984458169242    0.3132390481793959    0.6963480146578780 O
   0.0557957955552170    0.8011421672269285    0.1939069859036089 O
   0.0599114733629392    0.8054327600913898    0.6878827862409368 O
   0.5576426962575775    0.3054650535328445    0.1935319514479591 O
   0.5583166615824944    0.3086117752013595    0.6917249315146780 O
   0.5544414628623242    0.8100655877283439    0.1927425188540658 O
   0.5528036203419046    0.8140803990225209    0.6928623785429333 O
   0.0654820297498128    0.1989100452271004    0.2978811941691416 O
   0.0591256908605195    0.2009256629617830    0.8111624337108694 O
   0.0621411753037340    0.6883711752024012    0.3057667152989451 O
   0.0521885916375179    0.6893354752584931    0.8032837152934154 O
   0.5590644493672964    0.1945171091028126    0.3067325449238341 O
   0.6761833300554162    0.8211480456522805    0.3122972389264014 O
   0.9357821634222387    0.8205243318142530    0.5657596620021735 O
