Mg38 Mn38 Zn38 Cr39 Fe39 O256
1.0
  16.9872100842855147    0.0001732613577179    0.0040300175824394
   0.0001730705065023   16.9957670312129103    0.0002973694211804
   0.0040300715945023    0.0002970027621046   16.9880039994161649
Cr Fe Mg Mn O Zn
39 39 38 38 256 38
direct
   0.6867177245076430    0.4371333193725899    0.8144183309409302 Cr
   0.4361519456020778    0.5642164867225569    0.9359535591580580 Cr
   0.1909430761384953    0.1905206680579840    0.0603227864642235 Cr
   0.9374721754184667    0.9360945046550130    0.0621285160405465 Cr
   0.0632346710535362    0.0613988576198169    0.5652798170709376 Cr
   0.5012671150290577    0.5026922375338368    0.2486845318905705 Cr
   0.0632440508144885    0.0632318508144721    0.0631985463760218 Cr
   0.3752108607977366    0.3798697501733805    0.8733353845749636 Cr
   0.7478570261495124   -0.0025252542443714    0.5021668236285376 Cr
   0.3742000970393987    0.8742314941764538    0.8751339693058735 Cr
   0.9358084818925745    0.3114277252974051    0.1876067337635136 Cr
   0.4363947158933840    0.4391568670161746    0.5596830398690148 Cr
   0.6883409889354662    0.3126964364793668    0.9379035067874190 Cr
   0.8108696855441327    0.5612971572839501    0.3118436922845312 Cr
   0.2506448674338030    0.5018217133911379    0.4962654455978380 Cr
   0.2510383001863832    0.7491092237062232    0.2475679922083474 Cr
   0.8127344576532595    0.4373450931625147    0.1864606600810381 Cr
   0.8736229370468129    0.6254860949559549    0.6270128307730861 Cr
   0.4361996882690333    0.0607828925731570    0.9349543318495692 Cr
   0.4379968103292253    0.5630782626134683    0.4358489220459471 Cr
   0.0615604825601691    0.4366138858202995    0.4375177200800813 Cr
   0.8757873775347095    0.3737191784658540    0.8736516202192041 Cr
   0.5620863700998958    0.8130324157138895    0.8129184290253839 Cr
   0.9369479952391826    0.0590946421028201    0.4417967631857815 Cr
   0.0629448984654322    0.1859893818072732    0.6890775657086942 Cr
   0.8103094135171734    0.3143833182018820    0.5641156336809962 Cr
   0.9372967517757362    0.8103975146701065    0.1868534072885658 Cr
   0.6222938799320960    0.3794510753680434    0.6245310106914272 Cr
   0.8158367320384069    0.1864542798905925    0.9374547572691390 Cr
   0.3126843753235435    0.8108211598206742    0.0631830157553820 Cr
   0.6869102236155001    0.6894339327973977    0.5639698795336084 Cr
   0.3144241487908856    0.1856593336540843    0.4371892969021317 Cr
   0.6232591834128074    0.3755301845412172    0.1238374157441348 Cr
   0.5614690446861368    0.1861399755453934    0.1868508529788058 Cr
   0.6886592579577492    0.5615837405352356    0.1860726512639437 Cr
   0.5649101288726874    0.8125258641011903    0.3125748601431378 Cr
   0.6263544350159629    0.1258465972304109    0.3757654085929044 Cr
   0.1277138526902583    0.8758348006122892    0.6260437668570373 Cr
   0.6883425479765680    0.9368424277614892    0.8124827924640555 Cr
   0.6890757169272356    0.0624466994964032    0.6904823373400863 Fe
   0.8761147360170737    0.1226533766550477    0.1236062688240715 Fe
   0.3122616036295118    0.6925870788572349    0.4390142180853539 Fe
   0.1904166224868615    0.5625227261956610    0.6886988997811732 Fe
   0.1904389015738145    0.0626144866258587    0.6880933334219724 Fe
   0.7517824920801388    0.4997959403270042   -0.0001007674740541 Fe
   0.3131564248562493    0.4388362110907894    0.6843605561817168 Fe
   0.0603658872634969    0.3110946031697420    0.3127205054312353 Fe
   0.5633550763542939    0.3125047619887641    0.8139577643524650 Fe
   0.7480145459459908    0.5011461383418627    0.5020792240451888 Fe
   0.9344443609114870    0.1849404627691076    0.3155749051547888 Fe
   0.4372266011836350    0.1834130037312026    0.3126153075813341 Fe
   0.5624623631307193    0.9354867635677941    0.9361244804422089 Fe
   0.0623312525878498    0.4397241859114032    0.9407904250610918 Fe
   0.1240025866487248    0.3726555153301651    0.6241870306665527 Fe
   0.1255181320856679    0.8753280023052679    0.1256206584834218 Fe
   0.6244115332248219    0.8744153316380634    0.1238967152173218 Fe
   0.0018979964012954    0.2514859463145106   -0.0009568355010209 Fe
   0.0012003013683178    0.7499022985838222    0.0020353224805227 Fe
   0.8147787363433812    0.3124136568836436    0.0624670569530949 Fe
   0.3139545315890182    0.8159865915862272    0.5640555357300646 Fe
   0.1878021709996655    0.3086041980323966    0.4384033133994048 Fe
   0.5603562691338961    0.5649444301415754    0.0612303019328974 Fe
   0.0644648027427216    0.6891664983520153    0.6867674589177716 Fe
   0.5594431747247184    0.0615793769545394    0.0634154385679482 Fe
   0.8123382274878165    0.4357151444869092    0.6881629691304710 Fe
   0.6208081486188898    0.6275487954151834    0.8738243700792314 Fe
   0.0613316555989645    0.5632936930011695    0.0635098460612832 Fe
   0.0015460884616139    0.5018844063207256    0.7508030578819486 Fe
   0.3760121563052798    0.3708864720921423    0.3750995185104473 Fe
   0.4354511450639921    0.9348972695284438    0.0669461331113142 Fe
   0.6893309083264499    0.8112915045734806    0.4388891813219006 Fe
   0.5607867878957904    0.9374948301941284    0.4374541826477074 Fe
   0.8126929525901297    0.9374597840870187    0.1835368315371635 Fe
   0.0622761792912563    0.9385347236587112    0.9373693898282637 Fe
   0.0637368931160678    0.9336831103818520    0.4366389386120070 Fe
   0.7507630396086252    0.7481633065027382    0.2511254020022707 Fe
   0.0609001302070827    0.5617678137781671    0.5610848083803868 Fe
   0.3121771828278327    0.4355316275443384    0.1868039602027295 Fe
   0.1874728476097046    0.3115838055449799    0.9381383825857723 Mg
   0.1844107501908750    0.8146793006778280    0.4372494343072199 Mg
   0.1863323814662169    0.8101981461558236    0.9365085141965936 Mg
   0.1267940556325523    0.3731089387363090    0.1237661585118622 Mg
   0.4334473783856928    0.6875243903822924    0.8125114019578604 Mg
   0.8102361323566120    0.8096528421719009    0.0617669932756327 Mg
   0.3141798101702702    0.3102471748927800    0.5612147330942059 Mg
   0.3126595795630421    0.3128746639269899    0.0640789726148702 Mg
   0.5640868116940477    0.6882191608205294    0.1865875932876699 Mg
   0.0601403113638261    0.6883510522875176    0.1870399426097458 Mg
   0.4366639952640010    0.8122954646369321    0.6848809460244181 Mg
   0.8112991660168778    0.6872927690485263    0.9388649806854164 Mg
   0.9388572881047448    0.9345287478068661    0.5657882711807759 Mg
   0.9391862150435495    0.4395941948898780    0.0624639947698876 Mg
   0.4365749441255322    0.4386860464153581    0.0634499944774942 Mg
   0.5622470208114881    0.4399672677589361    0.4378508442484613 Mg
   0.6874872403349419    0.9378683071710492    0.3085328697366000 Mg
   0.4360687331329359    0.0637191174546925    0.4382156718680695 Mg
   0.9366327423272430    0.6866032325904651    0.3118746443345593 Mg
   0.9366759373764170    0.4381932995531647    0.5622966927757678 Mg
   0.9384909466835237    0.0623645711487978    0.9369212247485705 Mg
   0.5630758119705703    0.4374547917431759    0.9384670765728769 Mg
   0.7518989654842233   -0.0008867074636728   -0.0012687200774847 Mg
   0.1880783953353038    0.6883149545270876    0.0583557203378478 Mg
   0.5006681817861008   -0.0021139519507882    0.7461998993115306 Mg
   0.1276001744872641    0.6252729374855300    0.8771190704037025 Mg
   0.6869838581230441    0.1882855137475415    0.5661444264340689 Mg
   0.1260935797189816    0.1216251422259236    0.8763163541650613 Mg
   0.7506216594444305    0.2478935340671174    0.7496003293620453 Mg
   0.3768683076190886    0.6280486975740805    0.6262660176158090 Mg
   0.0003631684658491    0.0008004097068952    0.7505438824824231 Mg
   0.5008319504798961    0.2469132048982732    0.5006423547282016 Mg
   0.3743680524386604    0.1263385528523825    0.1234817595655996 Mg
  -0.0023907191926137    0.7496337318700974    0.4997589209545373 Mg
   0.3756398690598560    0.6256367864636314    0.1237833786153178 Mg
   0.6247605787134144    0.8749900410469620    0.6260055126804641 Mg
   0.2486991964196230    0.0012211934023413    0.4981032929175274 Mg
   0.4992689976632411    0.7456269245663198    0.0011376331220559 Mg
   0.6855760418975986    0.4402854038652749    0.3121024563158157 Mn
   0.7473055997047207    0.2489209815553644    0.2497070000751495 Mn
   0.3128931856439749    0.5619249477771897    0.3102836540246461 Mn
   0.2526447021965246    0.2512661442130961    0.7509871879461074 Mn
   0.8737306425179003    0.8731312864680435    0.8771066335201299 Mn
   0.8108765250091092    0.0619652431729310    0.3122870891625466 Mn
   0.8122115715413173    0.5633941421665410    0.8139899990744141 Mn
  -0.0021934458416113    0.5020567016893254    0.2477811098689711 Mn
   0.5007335734736785    0.5000042639899190    0.7514143604668968 Mn
   0.4377104179961387    0.3153692148057561    0.6840186455222977 Mn
   0.9363523514297448    0.8132310143685646    0.6856359251096968 Mn
   0.0620112077944568    0.1877563175444275    0.1872407860530813 Mn
   0.6224567503020797    0.1256536593493515    0.8756574302642466 Mn
   0.1237548432494092    0.6264103255459257    0.3731587097983907 Mn
   0.1251099200668399    0.1215537064869288    0.3761642051906685 Mn
   0.5616250425312729    0.6913407846278061    0.6873932898188790 Mn
   0.4951396983086374    0.2501377527335848    0.0001211096358870 Mn
  -0.0024175859652814    0.2491189499447741    0.5039776382059001 Mn
   0.1856999929374023    0.9356563378781738    0.8136499236253280 Mn
   0.8776284040960658    0.8773898250745357    0.3716948111790115 Mn
   0.8745987175325062    0.1262423695247037    0.6247409385068600 Mn
   0.3756146761607451    0.8758240610552581    0.3772957388379544 Mn
   0.2504459589956164   -0.0014642021021863    0.0003273884160452 Mn
   0.1885947208486667    0.4343829304248332    0.3127242413560915 Mn
   0.1860801957122769    0.4366681694526490    0.8129683432436915 Mn
   0.6855841891344736    0.3147392555435988    0.4403722771523784 Mn
   0.6846434116582213    0.5651176670255545    0.6888629314629163 Mn
   0.6862560760187719    0.8114283568387369    0.9368297551592923 Mn
   0.1893381174835016    0.0644290066740330    0.1869476807709891 Mn
   0.8123400716662831    0.6858382825015574    0.4380328758025021 Mn
   0.5640988830891451    0.3142427294419597    0.3134006528940865 Mn
   0.6864041938792085    0.1860899575808588    0.0611283235749313 Mn
   0.1879254091781581    0.6876726121324284    0.5618182784877243 Mn
   0.5627793041387351    0.0625069675450089    0.5621694585407501 Mn
   0.2499228947610883    0.5015455409261195    0.0018328856548977 Mn
   0.9397242613356315    0.6878095924458592    0.8119173353289962 Mn
   0.9391058159196960    0.1864025746001991    0.8131082156060060 Mn
   0.4398744832284410    0.6893901156742108    0.3102471193019259 Mn
   0.8036120719930058    0.4420602982641220    0.3055709758548744 O
   0.5689903933704684    0.9306971021089707    0.3201483266617496 O
   0.3050351001947239    0.9314517100442862    0.8157397616955576 O
   0.3085495033013400    0.9385565700694428    0.3101117309327413 O
   0.3059735274590594    0.4344280983874426    0.8064595115246453 O
   0.3053896515678194    0.4346114072488548    0.3126476813533253 O
   0.8160942904947607    0.1772590262773385    0.3182173458498944 O
   0.8081086040462616    0.4454364783092685    0.8092065403160242 O
   0.4396478706595743    0.4393415354523788    0.9353872240237041 O
   0.4463927411644535    0.9416434285755176    0.4403663988897656 O
   0.8066255938997742    0.0599491152883323    0.6903253675906441 O
   0.8094413552951882    0.0590526207140362    0.1844721388432273 O
   0.4398775803173648    0.9369540271010550    0.9384974150548759 O
   0.8028668255183929    0.5594171101815242    0.6951812722125990 O
   0.8060239320389273    0.5550738252020460    0.1935529692237015 O
   0.8079650160686525    0.9485801899126818    0.3034241653876551 O
   0.4379525909012885    0.4420049692852263    0.4392830211842239 O
   0.3150373323828464    0.6857738264067360    0.8145947868590360 O
   0.3188566576547499    0.6907420644252501    0.3137553013750615 O
   0.3182890658669300    0.1874553830866190    0.8186488562554252 O
   0.8108617842399920    0.6810144521891905    0.3216555855602333 O
   0.3201883082270519    0.1884388017771508    0.3186198826841742 O
   0.8238966151304099    0.6788656766880738    0.8143159674202579 O
   0.8131052451769246    0.5638109655930484    0.9295830479123947 O
   0.8082060435091782    0.5681778216589705    0.4332199345434981 O
   0.8179726134638400    0.0718984372550486    0.9367541174626761 O
   0.8126518843542863    0.0584326560008295    0.4424693405331704 O
   0.5685338590468242    0.9305222696550700    0.8178640876054625 O
   0.3168032725531941    0.5686636765426418    0.4275383108454566 O
   0.3222082763323237    0.0613229938298707    0.9332813297038822 O
   0.3150325074992233    0.0721097410421822    0.4340398135010490 O
   0.8048403164865870    0.9402566019986756    0.8126002453224661 O
   0.8247593726698804    0.1886675011203233    0.8202516889849680 O
   0.3200977404684150    0.5573352304657795    0.9343969816545131 O
   0.3108785987022040    0.5559134003494117    0.1972502717909896 O
   0.1898657293576472    0.1916690783718102    0.9435191558294272 O
   0.1919462968180249    0.8064838866292523    0.3114504451645186 O
   0.1817577789439149    0.8230089690574197    0.8141854072547426 O
   0.1910174015045056    0.0501211046742598    0.8080688805485582 O
   0.1900505241569033    0.0627880604883355    0.2978493381324882 O
   0.6793227268427514    0.6886527849196162    0.6826210126007803 O
   0.6868149702193874    0.6798417064260340    0.1909468469482023 O
   0.6846662399372205    0.1788202435867503    0.6856102172035003 O
   0.6787442202193710    0.3252700246399928    0.3148436623142944 O
   0.6800889205311723    0.1846579485664817    0.1748937269380447 O
   0.1822894524820486    0.6816347676005506    0.6787286469171464 O
   0.6853550530538342    0.3190045485923174    0.8198495608303517 O
   0.1897262558690007    0.6873705076096152    0.1894105719647156 O
   0.1808526047112815    0.1822555204934517    0.6888339012334971 O
   0.1851054891502894    0.1798471459453270    0.1812408823966608 O
   0.6812404326149969    0.8165881333084853    0.8209431827270557 O
   0.1965228813245328    0.5489110934619631    0.3139400179548008 O
   0.1943582263368129    0.1950321460115698    0.4403289137694288 O
   0.9453548429465976    0.4406278180601632    0.4413811253440512 O
   0.1834964936022898    0.3245355471496344    0.8160560092684320 O
   0.3069254238711576    0.5550689690878037    0.6873181517249274 O
   0.1934871071386680    0.6892569160117776    0.4476348755977661 O
   0.6857312999176040    0.8136323017977548    0.3182267696267504 O
   0.1924482675968466    0.6933110881624065    0.9401856800080274 O
   0.6864034788051590    0.1961802019207353    0.4388026973702586 O
   0.6966797668685826    0.1951689844408825    0.9455366272919884 O
   0.6950500019434291    0.6901829888092621    0.4444245465328358 O
   0.3070907015392869    0.0591401913848380    0.6903103640696057 O
   0.3005511628579995    0.0618130435491900    0.1879385864619553 O
   0.6841883884983473    0.5582617784114310    0.8076926264595503 O
   0.6865894507394714    0.6965226473843060    0.9321129287914555 O
   0.6908271115711069    0.5550196841761296    0.3056239709744787 O
   0.6895116704512674    0.0545583122809473    0.8081850933858368 O
   0.6936222485467778    0.0622478660653066    0.3116154125289684 O
   0.1810594437167404    0.3194376506220066    0.3167710487232998 O
   0.1887681661285310    0.5517431352225618    0.8053286054065318 O
   0.9407791443440489    0.4369656301685863    0.9369602356937894 O
   0.3090052889501303    0.3097177761691889    0.4394535101630234 O
   0.9444444969887781    0.9412364142651295    0.9439142518123890 O
   0.3109186949924533    0.8094673452629804    0.1846147136270251 O
   0.9391202083411365    0.6954619704672416    0.1915712027130896 O
   0.9426252921614362    0.6936624307670595    0.6919357185431854 O
   0.5717482320616819    0.4301176006602717    0.8177964330153836 O
   0.4370326415730144    0.3188550519462018    0.0659173504286232 O
   0.3234525156191260    0.3206403983531079    0.6815993662883634 O
   0.3153943196710820    0.8147665062092614    0.6787655177951571 O
   0.3170971604057602    0.3209397932452944    0.1852602094455470 O
   0.8044860609493071    0.6905306823990175    0.0561854328784738 O
   0.4370501645271421    0.3201937625238976    0.5703502158666018 O
   0.8072069057040149    0.1979571573077435    0.5598071739229712 O
   0.4317249445983648    0.8164997716792174    0.0653987314098922 O
   0.8144628503997896    0.1927141601354211    0.0578195124315821 O
   0.3032163837846198    0.6901137928516811    0.5575203329538411 O
   0.8067020581313578    0.6838735810162452    0.5551718224446519 O
   0.9432354614892999    0.1896200099760128    0.7000764699652403 O
   0.9359830293256737    0.1905165699664767    0.1924388419141186 O
   0.8176314660243431    0.3182220309905381    0.1794162920574317 O
   0.3124576508248428    0.9300056228909437    0.5624124282343337 O
   0.8145625340311731    0.4317444160826197    0.0649255954480078 O
   0.8126368564479468    0.4377369589722711    0.5691140600779815 O
   0.8197587661976564    0.9324526872540702    0.0668980552387274 O
   0.8121190189662465    0.9383237918908692    0.5609967331684936 O
   0.4449290702609950    0.1901727093136019    0.1942653683411887 O
   0.3188039901997906    0.9299482539988210    0.0681505048674087 O
   0.4407476325356585    0.2034787119428277    0.6881637011662696 O
   0.3154913959987993    0.4367326564864941    0.5633901802380480 O
   0.3149203894655425    0.4373625693462297    0.0708625251405844 O
   0.4424675308792720    0.6892427053916224    0.1991329937618944 O
   0.8238919553552372    0.8127210796014208    0.6852203614416450 O
   0.8147261924903949    0.8158431889003115    0.1865102800485821 O
   0.8136861044135326    0.3217014801706395    0.6835207900479279 O
   0.4505709078782860    0.6906093051139411    0.6916661040754353 O
   0.4299989494160648    0.8115604008671807    0.5632895239212335 O
   0.9440306958569814    0.9423664123157087    0.4450702760834030 O
   0.3091706414854797    0.6956359929332355    0.0596329188455915 O
   0.3106720934298892    0.1921946667823860    0.5543304481379404 O
   0.6884490885173046    0.4329146849284927    0.9339590829507350 O
   0.6838892475712417    0.4351575695946460    0.4401194397790565 O
   0.1810875431184872    0.9334818565357036    0.9269581063636398 O
   0.1789717187098995    0.9341812252036479    0.4331607581244741 O
   0.1827104926656044    0.4359427869879375    0.9263203746623019 O
   0.1845571583385050    0.4321559282765008    0.4300621701352365 O
   0.6893197958596554    0.9339468036950539    0.4364060478936717 O
   0.9384010743368044    0.5727237155043550    0.8116971196375208 O
   0.9368009444654067    0.0746118996242459    0.8163288646186775 O
   0.9285830188075378    0.0654061869498650    0.3199165232696731 O
   0.4331233265454438    0.5650810661315261    0.8196988124334084 O
   0.4325655096005279    0.5706102210788112    0.3149453720263091 O
   0.4373280387535143    0.0626307494652056    0.8195722835971672 O
   0.4370045031309376    0.0689487827193947    0.3170177605418335 O
   0.9253640902152764    0.5653739819444364    0.3164626047045376 O
   0.6824634844977174    0.9269921686734919    0.9331156478571255 O
   0.1924608736546572    0.3061484133060776    0.0576123226286616 O
   0.1902079261095149    0.3144319729669512    0.5573042972886152 O
   0.9266141170614476    0.3192151572772257    0.5673242243259625 O
   0.3066247964849313    0.1929486267161086    0.0564549094136297 O
   0.7971826813224048    0.8075917477612492    0.9392651628387896 O
   0.8084752944830875    0.7999524382548850    0.4389796445523887 O
   0.8096808853579186    0.3095540130049376    0.9429080522956034 O
   0.7996383102412018    0.3138415824215258    0.4446576099720124 O
   0.3133386087974850    0.8189159710843954    0.9423022743232536 O
   0.3067757297026835    0.8061525713903643    0.4433939428560165 O
   0.3157945188940472    0.3210444855552393    0.9358719646461900 O
   0.6914332688687597    0.8061660072617117    0.5565953842505045 O
   0.6861851398356136    0.8129367789465757    0.0512569501586180 O
   0.6885808170992309    0.3126178269812672    0.5649847740143216 O
   0.6928852401177972    0.3067636978141510    0.0587105703064065 O
   0.1879103410288980    0.8057206184684007    0.5618857941732059 O
   0.1928597017460913    0.8136991251075970    0.0610282426708290 O
   0.9341735156315737    0.3128456133703026    0.0668013549142207 O
   0.5683477485719606    0.4405692429779635    0.3142334553126092 O
   0.5652434313474760    0.9475769425052499    0.5547203387648841 O
   0.0653322357048073    0.9340061411547950    0.3186399947514998 O
   0.5609695088503226    0.4423310871813718    0.0601395631524063 O
   0.5550835872257813    0.4406596421378848    0.5609368740427085 O
   0.5579722847350231    0.9390565064753509    0.0573057924048330 O
   0.9342809011550881    0.8167566051825165    0.0652780080059063 O
   0.0695395489103249    0.0722752655540019    0.1831500364014138 O
   0.0715282888079544    0.9361424882408029    0.8181548643047127 O
   0.0682402971693652    0.5673128688610360    0.1805604488524213 O
   0.0675846979643662    0.5660486075561573    0.6824151577346046 O
   0.5645965437810235    0.0682603159907350    0.1800310771685419 O
   0.5697246337135260    0.0617452670941634    0.6746710342327831 O
   0.5686228423768025    0.5631497770803076    0.1829352919903994 O
   0.5706618950950630    0.5751326999517427    0.6843479930847116 O
   0.0647445151981604    0.1844832460887636    0.0680670315277159 O
   0.0647538625939691    0.1794654579667307    0.5717603196926360 O
   0.0656128399501727    0.6837527201507583    0.0643920700362011 O
   0.0706715866560005    0.6809960987280053    0.5664882990707329 O
   0.5614370545968713    0.1832621693424137    0.0675265532105499 O
   0.5680608876840221    0.1752549513554303    0.5636207760550991 O
   0.5689727787875749    0.6792604418153407    0.0673027338824200 O
   0.5688637908782450    0.6884301823619915    0.5731453177661360 O
   0.1920371000064356    0.4363804870410981    0.2005916878102464 O
   0.1905629075152629    0.4392217604380400    0.6931525582365405 O
   0.1859023387109880    0.9498173916929904    0.1864191356369683 O
   0.0626052490951109    0.9398566590631030    0.5625047178272365 O
   0.0590201639357540    0.9438715683043934    0.0603805175875449 O
   0.0611777590957211    0.4413149561252829    0.5585052340234586 O
   0.0595199543595440    0.4419612048259169    0.0571502978972165 O
   0.4329766938727886    0.1858051997813866    0.4306095080702415 O
   0.4388577928808002    0.1775691642725660    0.9350239953501559 O
   0.4317538956069468    0.6816524743625768    0.4270579901626609 O
   0.4339454653888680    0.6779726479627299    0.9328401723754850 O
   0.9327060479025752    0.1786007426077952    0.4314756756600439 O
   0.9362892468823548    0.1876946105157279    0.9308762371067508 O
   0.9235506205870636    0.6829436030646113    0.4361207617892545 O
   0.9356756057353052    0.6898534915011761    0.9266018863629261 O
   0.4410165239398336    0.0545420903810605    0.0554102661465534 O
   0.4518591173097554    0.0616256598718299    0.5588875924569231 O
   0.4447311583400241    0.5582302404332553    0.0554845792986187 O
   0.1854464783427422    0.9400688144503802    0.6977968492358722 O
   0.4363747813333322    0.5568010137417582    0.5529447410477887 O
   0.9438915147737692    0.0572372005491644    0.5592889468382952 O
   0.9425224012629231    0.5583724694746270    0.0598389476886343 O
   0.9427860377457306    0.5619472459279244    0.5643995681092705 O
   0.0543510579166775    0.0555670735554736    0.4466990706873450 O
   0.0595159788188178    0.0563860283162528    0.9466908188652258 O
   0.0610968627025689    0.5545600497510434    0.4455123733785403 O
   0.0597877393123982    0.5557043412362467    0.9422986960211982 O
   0.5654384986772448    0.0592696535800701    0.4448814869373545 O
   0.5552983545335692    0.0518191826046388    0.9435939988144944 O
   0.5540415801744071    0.5598606044617054    0.4404580272897349 O
   0.5588078149726718    0.5599544179080036    0.9391854808622450 O
   0.9436791427858988    0.0577768832082530    0.0621959048797758 O
   0.6921001181533660    0.4407939422451713    0.1860672448369399 O
   0.0679854931894753    0.0679620105808633    0.6835329543763974 O
   0.6920483499381805    0.9386317652575378    0.1865033161901567 O
   0.0543217118183480    0.8077237905910218    0.6845877923794436 O
   0.5650235376643112    0.3083616063426235    0.1953895297962751 O
   0.5540097056249867    0.3182594588939921    0.6910943521062562 O
   0.5663641809939086    0.8099307986588196    0.1933586638550727 O
   0.5598327329562964    0.8034748998299375    0.6950400397449987 O
   0.0542810737594153    0.1919176803450389    0.3044127166600014 O
   0.0531726150716643    0.1887801253764361    0.8085542128970417 O
   0.0568933886914538    0.6904778233155476    0.3085327161924334 O
   0.0541296037301520    0.6883639145441014    0.8046151335447884 O
   0.5630847756988329    0.1883295075618206    0.3071367292915940 O
   0.5577947203733057    0.1995965305608595    0.8071925423974408 O
   0.5536520741428682    0.6925899443653786    0.3097988912772604 O
   0.5597329724110491    0.6928279428361437    0.8040057256830084 O
   0.0677265342790057    0.3175568051316308    0.4307820555005383 O
   0.0636169868765639    0.3184377477494366    0.9371362343806023 O
   0.0645497066298089    0.8172186064210630    0.4353014639145658 O
   0.6910229291652527    0.4395030574575677    0.6948800083190914 O
   0.5708573714263120    0.3176254972265743    0.4310707637483576 O
   0.5702313556523858    0.3152068809197676    0.9336793896650889 O
   0.5718064582842768    0.8170010368898345    0.4317781407880998 O
   0.5694280690898857    0.8155075959671267    0.9321261646976542 O
   0.0728981899699601    0.4320261505720746    0.3179844635608838 O
   0.0689521559469245    0.4375679313675889    0.8152772079950457 O
   0.0568011714017739    0.8119394995348264    0.1867261144091421 O
   0.0604562623432424    0.3072863060928541    0.6875464884375230 O
   0.0626283432796831    0.8179127686726156    0.9379699722286766 O
   0.9403449048563944    0.8014310210832822    0.8015463325993541 O
   0.0556946734759037    0.3038364235719899    0.1923427106547302 O
   0.6909929283198180    0.9417812764979885    0.6948602706325656 O
   0.1809371523262377    0.0696696925587511    0.0709665500114885 O
   0.1802634086944914    0.0629463233489051    0.5707641513846118 O
   0.1823820810647528    0.5646842264381876    0.0659629129544108 O
   0.1841131143446006    0.5657421657080366    0.5664912241464717 O
   0.6789924285061357    0.0703528455394361    0.0585625405329873 O
   0.6845740410071630    0.0622048758261670    0.5627524881393785 O
   0.6837602240479490    0.5590061890249326    0.0662491501273638 O
   0.6866957872416279    0.5674642481637463    0.5706892492493909 O
   0.4339720036429983    0.4392974396618118    0.1891131089605049 O
   0.4314398381017145    0.4320464326382857    0.6780658651632293 O
   0.9330862913071751    0.8136162943507688    0.5741542947050186 O
   0.4371122886849134    0.9300270487585753    0.6827142045910740 O
   0.4356301941429475    0.9320698413912033    0.1825564465472430 O
   0.9389749985505871    0.3040703973956857    0.8113348099723109 O
   0.9372205332025314    0.8077237311089502    0.3025304897596645 O
   0.4410906591791317    0.8143061671783849    0.8155720728885897 O
   0.4460121476365728    0.8024651740588244    0.3123336346638936 O
   0.9400033084176966    0.3064392777955747    0.3070813092587885 O
   0.4486849765204754    0.3101599044403691    0.3137969520462134 O
   0.9353392678342527    0.9248425940966686    0.6866956050678441 O
   0.9315502329760620    0.9315730266645922    0.1808773761945676 O
   0.9314392724652978    0.4412652385746219    0.6881160123048170 O
   0.9294785502978837    0.4274438686096423    0.1835878514061466 O
   0.4400759828319066    0.3235111934662602    0.8037836569910007 O
   0.3192958983690946    0.9384291072204978    0.6843752620311483 Zn
   0.3139978273597250    0.9404314888064735    0.1903966730007853 Zn
   0.6856844367954830    0.0604389329930231    0.1837407356517036 Zn
   0.1869656414846548    0.5605093251492321    0.1861449420550092 Zn
   0.6881742101499825    0.6871840440138324    0.0636524168109586 Zn
   0.1912978882536492    0.1844194120233703    0.5645857118477057 Zn
   0.8750705919828673    0.6299731448291441    0.1220129911066657 Zn
   0.8739995206227983    0.3768005678036389    0.3773507641303265 Zn
   0.7521664149110522    0.7513137465169195    0.7525706410806007 Zn
   0.2516718213314449    0.7539712731748668    0.7505955099242662 Zn
   0.2537117931492197    0.2496993118606234    0.2484599718840214 Zn
   0.8128706614509712    0.9375680445566766    0.6906322335261481 Zn
   0.4996142236307459   -0.0013135764355200    0.2518645036516593 Zn
   0.0000432697315203   -0.0030200713383744    0.2508085713872787 Zn
   0.6225711176260017    0.6248640462973196    0.3762015499775642 Zn
   0.5003928204156055    0.7525482794118333    0.4988606518462682 Zn
   0.3759632787285404    0.1261393571666521    0.6230761510249696 Zn
   0.5587929300352551    0.5667899215361553    0.5599631100642021 Zn
   0.0593823851664996    0.8111438593626666    0.3132825909740022 Zn
   0.3111228817970126    0.1852954584440089    0.9376689391907865 Zn
   0.8123978074452232    0.8127752215657100    0.5633574406440508 Zn
   0.5630968438348822    0.1854573137221333    0.6854958923928371 Zn
   0.9374992620454611    0.3140895237670737    0.6867265372588901 Zn
   0.4411462884904078    0.8115869835612300    0.1859248652805084 Zn
   0.4358858921230538    0.3105842507897916    0.1862045558711855 Zn
   0.4370693526908108    0.9374932010914823    0.5645879482137475 Zn
   0.8145402837233617    0.0616787123871449    0.8149839544890936 Zn
   0.1871526655450291    0.9395299311725041    0.3135763740678771 Zn
   0.3150598298721473    0.0644613070036854    0.8104460518746590 Zn
   0.9391187430233841    0.5654102320652300    0.9411620049450194 Zn
   0.9367590069831191    0.5614609617453790    0.4357463212043351 Zn
   0.4374623519802407    0.1833271046970397    0.8095057861688214 Zn
   0.0631025922736042    0.8122869835964023    0.8150755046503515 Zn
   0.0635273149781774    0.3106434276959444    0.8133544208607671 Zn
   0.8104112730672820    0.1887501305329029    0.4406371021534430 Zn
   0.3100540495304762    0.6862726265308220    0.9363247882421448 Zn
   0.3144795877881356    0.0616152953309610    0.3128672365106556 Zn
   0.3117108621691841    0.5683758162869411    0.8112505804944590 Zn
