Mn38 Cr39 Fe38 Co39 Ni38 O256
1.0
  16.9349508673989497   -0.0030106578719896    0.0090685928553596
  -0.0030112008182163   16.9251428008880715   -0.0041008941545590
   0.0090695882551640   -0.0041008886761472   16.9290574146810258
Co Cr Fe Mn Ni O
39 39 38 38 38 256
direct
   0.4376382916860788    0.1877688839375007    0.3130248414843655 Co
   0.8771847834181707    0.8784882381001522    0.8774970931575978 Co
   0.3727813528999321    0.1228775291303963    0.1291489288256616 Co
   0.3766019611529600    0.1257905324157953    0.6247087897063188 Co
   0.9392504821016427    0.4397074668573141    0.5629954196984209 Co
   0.8740910041459254    0.6254322662838677    0.6248148979134672 Co
   0.4363611724639206    0.9364385282066474    0.0637843660631986 Co
   0.1865538956892307    0.1859901864694737    0.5603480932723384 Co
   0.6869094392274755    0.1891424477538556    0.0623765299111134 Co
   0.6891189453019489    0.1885424037719301    0.5617823069992597 Co
   0.6856370841645657    0.5644592008377457    0.6898339510347391 Co
   0.3147966610845801    0.4384586319265438    0.1876837609293220 Co
   0.3103874675050898    0.4350138564487726    0.6882626752454963 Co
   0.3132150654914363    0.5622727698232632    0.3093458204606220 Co
   0.9381072525564647    0.6879075794986880    0.8128816882203029 Co
   0.0620069430474987    0.0624684584630532    0.0632511013003388 Co
   0.5637222689872258    0.9356794711983368    0.4387415805690332 Co
   0.0621322220314073    0.5613833878145602    0.5621369418841976 Co
   0.0664530567517334    0.9315909243826742    0.4357622447956004 Co
   0.1827679655045461    0.4366007243280807    0.8125301425342050 Co
   0.6867599974687932    0.4370944870425748    0.3132577171814947 Co
   0.0662229653838139    0.4389327699167399    0.4407772606873924 Co
   0.6896557260624203    0.9426424118605219    0.8140615567934973 Co
   0.9396503452793350    0.0623959003246783    0.9438099358395518 Co
   0.6866074265005691    0.8122794251454217    0.4398973123953222 Co
   0.3134690889973240    0.1843078944248046    0.4384580969524999 Co
   0.4358552478979300    0.5607154953711796    0.9383361619691083 Co
   0.3114738259515154    0.6859536382505246    0.4363472941493501 Co
   0.8746048150429387    0.3749747012700714    0.8721342295312653 Co
   0.4998994957270610    0.5006443145116185    0.2512053806317769 Co
   0.8121387693069201    0.1886128061912070    0.4377195345560732 Co
   0.5022532988029295    0.7522324600675383    0.0005217662564128 Co
   0.6211432358943437    0.8752372667229721    0.1225182732849864 Co
   0.1260332576646959    0.8724202811293293    0.6219164754715482 Co
   0.1197541342860908    0.1224650738745406    0.8753293382171556 Co
   0.5623763536558021    0.3111635701532369    0.8131927498788967 Co
   0.5610306955535990    0.1890436746444507    0.1896509657631510 Co
   0.6225795139691646    0.3754342570139451    0.1282148710944729 Co
  -0.0002593060925729    0.7525474423247097   -0.0002322953150443 Co
   0.8162071455932104    0.3140956036641136    0.5603715834248941 Cr
   0.4426648245763415    0.1861959783706400    0.8131958594923733 Cr
   0.0614803803356587    0.4387819742821391    0.9356838482047199 Cr
   0.6258964206181483    0.1231535014570924    0.8772126705356103 Cr
   0.1895393460088775    0.6902451590092720    0.0610366070886972 Cr
   0.0007203087299794    0.2510158954003429    0.5001469444617753 Cr
   0.6221817876764569    0.1274571192160929    0.3786951993879393 Cr
   0.6865615345682344    0.6881244286497554    0.5627236578913007 Cr
   0.7517801867167637   -0.0004697782410468    0.0016230472785548 Cr
   0.1855269067368890    0.0617330203053202    0.1884571944971793 Cr
   0.1948404305783396    0.5634433547273170    0.1845699838515316 Cr
   0.8118143683664871    0.5640581737961378    0.3158045512146723 Cr
   0.0608964520911469    0.9388479027386272    0.9382255910126860 Cr
   0.0023932239997389    0.7489781135144473    0.4984374752564991 Cr
   0.3135064106314231    0.3098806969690817    0.5633877423418912 Cr
   0.5583131887835482    0.4371923739284424    0.9370499230397010 Cr
   0.3125514483427784    0.9377749049352979    0.1877892861844788 Cr
   0.8091490069201474    0.4391305554935785    0.1893167927080383 Cr
   0.5617314958127773    0.5627828185155039    0.5623404578843166 Cr
   0.8114723631842532    0.9359326893145542    0.1893873984414658 Cr
   0.2520039795484247    0.4963595572373475   -0.0003930343096126 Cr
   0.2537167379806201    0.5028869115231420    0.5006757684697906 Cr
   0.8736827172343029    0.8689150303391805    0.3718543037472867 Cr
   0.1250439217197101    0.8752964340514299    0.1242153555756360 Cr
   0.0021107917695731    0.5025942426518467    0.7469029858348377 Cr
   0.2550908164059592    0.2471788569576524    0.2494133404680330 Cr
   0.9349657789925778    0.3142211252792793    0.1885015926609936 Cr
   0.9360764849428879    0.8099336349789306    0.6898614600316931 Cr
   0.6855110196115787    0.3109918295994183    0.9368317852488517 Cr
   0.7472528579312827    0.2517734618462326    0.2499628835554925 Cr
   0.9344764353026528    0.1901338096471409    0.3160521542826852 Cr
   0.9379983858387420    0.6877489190116294    0.3109568169535457 Cr
   0.7484394754362201    0.7518860209904212    0.7525211490889863 Cr
   0.9381855854854526    0.5635600419007891    0.4406081771086444 Cr
   0.4374525952566168    0.3103968313210430    0.1909205006380899 Cr
   0.9369271603537835    0.5638195622900979    0.9354803586393770 Cr
   0.6241501981304085    0.6254492521247526    0.8813650081183484 Cr
   0.8098965935828040    0.8109938068080217    0.5606622075036588 Cr
   0.4387582618684480    0.0622250015621205    0.4359048616005763 Cr
   0.5013998054123312    0.2489022144734341    0.0007127483121342 Fe
   0.1221706518350189    0.3726032455385865    0.6251793376665302 Fe
   0.5008482634656065    0.2484119547430514    0.4980932307264840 Fe
   0.6830045887551148    0.9321324567404895    0.3135127447347353 Fe
   0.8137969447927432    0.8124351268932950    0.0650136340500255 Fe
   0.1851310308622890    0.3100283757725799    0.9342198949927678 Fe
   0.1913657101496056    0.3109660532959514    0.4389983501026311 Fe
   0.1820505544285490    0.9376517256149501    0.8106874792027358 Fe
   0.5633971584668098    0.4373702222716867    0.4328543852790300 Fe
   0.5608981691722298    0.5665816988378317    0.0629960493795144 Fe
   0.5001279572204136    0.5003188634535548    0.7514199747758440 Fe
   0.3110228678776457    0.5583840953146659    0.8114636152177245 Fe
   0.0598483969666710    0.1862870455726024    0.1873929324181388 Fe
   0.3749117890655641    0.8768551828222495    0.8748779299907852 Fe
   0.8731520793195882    0.3775922334683812    0.3780446232632533 Fe
   0.2533469866213772    0.7498571554477746    0.2501287433548599 Fe
   0.2495228418027614    0.7508720663213428    0.7496013299184804 Fe
   0.4416987800009976    0.3103234407401587    0.6896975488890053 Fe
   0.4400114655596454    0.6897503465783615    0.8156028694098630 Fe
   0.9399821466545126    0.9336083710870063    0.5599776461836818 Fe
   0.8749043101356571    0.1224135860441516    0.6206010872783324 Fe
   0.9350465261011417    0.4408186916508461    0.0614511845327106 Fe
   0.4397708795588635    0.9317249441613704    0.5613093220540801 Fe
   0.8092704988891489    0.3114004852420329    0.0596712544808811 Fe
   0.3105516392600567    0.3096708996259599    0.0623666512150005 Fe
   0.7468831719500183   -0.0019196857448746    0.5003135928806349 Fe
   0.7494739556554396    0.4998283740879536   -0.0041636651140526 Fe
   0.1858615320081747    0.1860623463460682    0.0596161992825603 Fe
   0.1897639978467655    0.6894249122756417    0.5585166525275463 Fe
   0.1240605515510604    0.6269170606408199    0.8755725099096768 Fe
   0.4381643858485066    0.4397044309821615    0.0655019354299881 Fe
   0.5046167507618444   -0.0008012781413092    0.7499615992799896 Fe
   0.6860933060015549    0.0636309004706021    0.1869958821299568 Fe
   0.0648831405696174    0.3153606270621629    0.3141521187396741 Fe
   0.8079626387139892    0.0632318896241453    0.3150301123027187 Fe
   0.1239747625053598    0.1228006025042401    0.3766555256374308 Fe
   0.4354570073188326    0.0605224286044192    0.9410577525030583 Fe
   0.1859788423213069    0.0615156909209787    0.6831191647667094 Fe
   0.9380301515041219    0.1858676372265727    0.8176822894502982 Mn
   0.1242641693027560    0.3780283637669595    0.1251628248334144 Mn
   0.9357488219456254    0.0609547327157260    0.4374245371308922 Mn
   0.3126844325492472    0.0650831466716697    0.8110873238557144 Mn
   0.8142473878600227    0.0622415098737801    0.8182272505682068 Mn
   0.4394698085122717    0.8120161062592498    0.1857390453524091 Mn
   0.9371857690156096    0.3142199766966451    0.6861603239880778 Mn
   0.0603184325079974    0.1831625544677199    0.6836062664811041 Mn
   0.0612242797109552    0.6900151700424210    0.6871618334538955 Mn
   0.5631146090689695    0.6885231752061717    0.6897620910058800 Mn
   0.4357265090545940    0.5639001085941374    0.4335374543450178 Mn
   0.4374723574662883    0.4384761281481643    0.5609436129224774 Mn
   0.8136812590946022    0.5623480385113543    0.8079729359667295 Mn
   0.6275373730768222    0.3733861908112559    0.6242787241602147 Mn
   0.7510051450623574    0.2489557550325859    0.7494636565390570 Mn
   0.0631107466233110    0.5671293365275323    0.0621699857600452 Mn
   0.0027890937593280    0.5053433436918052    0.2491003154995034 Mn
   0.4984752828067079   -0.0014613633424679    0.2526626037028041 Mn
   0.8112860967352801    0.9373187203329262    0.6884384650788841 Mn
   0.3147058331078618    0.9354350541169791    0.6861403787731725 Mn
   0.5627992786779077    0.0614069060503617    0.5624117827074383 Mn
   0.6854066405901502    0.5628957826071461    0.1890160541117612 Mn
   0.1858595335563160    0.5606000385063122    0.6861595651808660 Mn
   0.3735605543998316    0.8733265463838229    0.3747205816742546 Mn
   0.7489884026559469    0.5002521948310316    0.5000194714766140 Mn
   0.2493262580512489    0.2475688212418644    0.7482910824014583 Mn
   0.2498418770672603   -0.0017057182337130    0.0014230774136269 Mn
   0.8745967944085614    0.1228075123882425    0.1213343161836796 Mn
   0.3734890110331834    0.3752361186299036    0.8726759949627366 Mn
   0.1932609528584252    0.4383965554009141    0.3120415080608377 Mn
   0.5614517183094039    0.0626949360207699    0.0629511908389885 Mn
   0.6866031111564427    0.4393660080957468    0.8099190796092263 Mn
   0.0005887626128750   -0.0048528768103020    0.2531581603939858 Mn
   0.6883497998082664    0.8187021994601162    0.9387042375894485 Mn
   0.6251550714514472    0.6290301190280245    0.3741965443249402 Mn
   0.3125565873378028    0.6886607722058504    0.9376330346069481 Mn
   0.1260837065353325    0.6256216981322789    0.3737845356498955 Mn
   0.8144539231285965    0.6909096241397384    0.9352395505006957 Mn
   0.5649338899571296    0.8158249280651828    0.8151444144093489 Ni
   0.4402609102636957    0.8102019405129236    0.6886967569919432 Ni
   0.6251755696133943    0.8746846529771164    0.6270550122419537 Ni
  -0.0003695905429020    0.2497028579571533    0.0009276822190994 Ni
   0.4997194812154054    0.7488101603934190    0.4969795563613425 Ni
   0.3150401370470804    0.8078411301679786    0.5618028333539125 Ni
   0.3144504453846065    0.8144904840342603    0.0599862496498738 Ni
  -0.0029282541712606    0.0010480581982281    0.7508230264971480 Ni
   0.3750962146774857    0.3740721537131872    0.3725889996585812 Ni
   0.0635234176130817    0.6911698979376537    0.1861488238485075 Ni
   0.5624099045201603    0.6893561945016409    0.1864103553350646 Ni
   0.5666328829259057    0.1867217264127316    0.6882784696235482 Ni
   0.9383565479571009    0.8118923821943300    0.1861144255589164 Ni
   0.7479367031787240    0.7475348297793587    0.2505795182480668 Ni
   0.5611286633308127    0.8094551321036610    0.3140020417645205 Ni
   0.3757662673683763    0.6265942084714714    0.6247475505178944 Ni
   0.3745507984714663    0.6276868139075796    0.1228254611391495 Ni
   0.4368339448520979    0.6877989541985856    0.3085037912329011 Ni
   0.5623273393537002    0.3117563149485895    0.3118697394790689 Ni
   0.0599640666463239    0.8125460685015786    0.8151057427166335 Ni
   0.0654912450567044    0.8103770201293119    0.3110725010990093 Ni
   0.0602751886367432    0.3116962959843172    0.8130888481371655 Ni
   0.8130380510217035    0.1861815702608540    0.9418549324192970 Ni
   0.3120258850004780    0.1871911742754416    0.9380623110607137 Ni
   0.6875393707092392    0.3111211731865084    0.4356882130242868 Ni
   0.1856248174898067    0.8150731531422925    0.9361245468917206 Ni
   0.1915161346440683    0.8120448426231399    0.4367965747065792 Ni
   0.8118859400495666    0.6891671484313902    0.4375471183211812 Ni
   0.0652493315409029    0.0594019004877382    0.5579066785654313 Ni
   0.5624648874658652    0.9382701345577178    0.9379772132639023 Ni
   0.3116352430062218    0.0633212088135818    0.3144063257409808 Ni
   0.8141436867922263    0.4416239010164020    0.6847092399786530 Ni
   0.6886929455539827    0.0634646286271080    0.6875289760251816 Ni
   0.6875220443199822    0.6886118652478337    0.0606926609275006 Ni
   0.2523957427457036   -0.0007887555870725    0.5003802673592885 Ni
   0.1892041600463904    0.9361653654629654    0.3149698571427121 Ni
   0.8715871523768433    0.6285277506908334    0.1265007672293394 Ni
   0.9387395872917423    0.9368525846308225    0.0645145010945439 Ni
   0.3144928667979154    0.6808468852406717    0.8188441719016342 O
   0.3123129791149649    0.6780696575222955    0.3153799030696287 O
   0.3242075942010222    0.1805745813387593    0.8164806739928323 O
   0.3208650958789259    0.1874398091668382    0.3160964800227348 O
   0.8174506582254881    0.5600068912384212    0.9271856097252965 O
   0.8134825734250959    0.0698600274751436    0.4363544369796091 O
   0.8227097158333386    0.0643515838034846    0.9457652458707912 O
   0.3196936040871090    0.5586826833125121    0.9320315855301617 O
   0.3088674230046752    0.5670621041627449    0.4253944942333940 O
   0.3194657506483203    0.0661154087154555    0.9267686528412487 O
   0.8145284766021872    0.1853587036732505    0.3210144492090277 O
   0.8204913995262789    0.5680544519970075    0.4334118729981861 O
   0.8217397180830109    0.1774026310757418    0.8198344444038538 O
   0.4336208493267942    0.0748754715262681    0.3185381780162336 O
   0.8214884312793072    0.6823236510447067    0.8146702706928906 O
   0.4423409578113486    0.4468116189618571    0.4350274626698925 O
   0.4412130212373490    0.4458006698960484    0.9453685117489509 O
   0.4488411635295576    0.9430210610876122    0.4420893725580287 O
   0.4384944731121347    0.9404508381803993    0.9449602607166215 O
   0.9389005328226957    0.4407498040238754    0.4451770426898622 O
   0.9426782090773278    0.4440904420854793    0.9411076063961181 O
   0.9396872162835641    0.9336095384198116    0.4402691837325424 O
   0.9429858482799532    0.9487948859063662    0.9424589676740182 O
   0.4425638935190248    0.0659331025685294    0.8190400744299847 O
   0.4268559657337705    0.5647619256558861    0.3162472909837198 O
   0.4323045775098251    0.5628607301372162    0.8202274777203314 O
   0.9279858649464506    0.0711282572386235    0.3229574747311250 O
   0.8184406592231123    0.6812919042929678    0.3172254835365531 O
   0.3216934626932607    0.0666718184869433    0.4351904838872706 O
   0.8127917394816861    0.0569213522722257    0.6857898895531803 O
   0.8059060663486340    0.9428831180853838    0.3121175775847085 O
   0.1754973641027849    0.1828199697572196    0.6753331196345375 O
   0.9327668626691391    0.0668062228667057    0.8260320450292090 O
   0.1909539554385837    0.6839659134181763    0.1801140974108169 O
   0.1799476552058453    0.6875449901135154    0.6831843114856549 O
   0.6870538353230307    0.1847846181412500    0.1796467781045142 O
   0.6845504668631938    0.1817901736217708    0.6794720908846066 O
   0.6847203979724306    0.6763173099238038    0.1816386239948315 O
   0.6824590516993724    0.6809779388625036    0.6868968321494486 O
   0.1868123982489624    0.0625602106245422    0.3080028463290180 O
   0.1873319902824651    0.0581879302680850    0.8040438835422805 O
   0.1985654364815454    0.5566514966648012    0.3032223150964615 O
   0.1861017770304124    0.5557392699574076    0.8091899596800247 O
   0.6894086057014789    0.0593089932828970    0.3102127775436823 O
   0.6955097710481836    0.0592940946503617    0.8119153238939791 O
   0.6944566647196603    0.5507982898209054    0.3145680572780912 O
   0.6829351019640431    0.5593775324491237    0.8063057758296768 O
   0.3031052420625636    0.0561234764020729    0.1916142117608242 O
   0.3064603016793422    0.0638101294285747    0.6957319229637521 O
   0.3135534185308613    0.5542770956607956    0.1938617682877022 O
   0.3011719837927354    0.5593371647446551    0.6923781822602947 O
   0.8047298628356809    0.0569871180860260    0.1980509757652470 O
   0.8039465882918269    0.5564836318594444    0.1948705596615528 O
   0.8006999010062069    0.5639250911472297    0.6936365583595312 O
   0.3088190728760221    0.4453195297240706    0.3033561938284151 O
   0.2972257604415686    0.4430772166165127    0.8082343287846976 O
   0.3086111489673880    0.9435392584891730    0.3047317592036530 O
   0.3092511532417551    0.9435376397493401    0.8049136967750086 O
   0.8062724246795719    0.4395616877852525    0.3099905087163633 O
   0.8121961425429657    0.4471298726425668    0.8058622891895068 O
   0.8055128891555678    0.9478393830715972    0.8138888055949033 O
   0.9316110030376414    0.5683423847792880    0.3212346436142775 O
   0.8095331308683702    0.6937865690054379    0.0514977830370844 O
   0.1892535779925838    0.4309569118662526    0.4395285057366911 O
   0.3173178924168853    0.8103868423386582    0.6867867436982185 O
   0.8143297452987995    0.3186405211852004    0.1834831989831227 O
   0.8241406793167584    0.3177973006275460    0.6789618767428156 O
   0.8129995643746812    0.8186960652205922    0.1823287337749333 O
   0.8147471291276491    0.8157414921459847    0.6829694181313136 O
   0.3178707409933313    0.4323930741426381    0.0710122640577608 O
   0.3205499934829377    0.4323145829496623    0.5646635045756773 O
   0.3235578680410849    0.9335412537837424    0.0693754736663765 O
   0.3209319931438620    0.9335744011039785    0.5728071435019980 O
   0.8116250290709229    0.4348619713900101    0.0669550489093900 O
   0.8259195588100667    0.4322449316540526    0.5642767629886397 O
   0.8129675120447293    0.9362932788714006    0.0709253343358524 O
   0.8158976138169486    0.9318120512008927    0.5608340282875091 O
   0.3210402366310814    0.8159048805704894    0.1846209439245519 O
   0.4370321918420290    0.1922188311158021    0.1982057127147038 O
   0.4402966080991187    0.6994056742559590    0.1861941156000485 O
   0.4466681181873854    0.6862722468884720    0.6984135906303152 O
   0.9402802330011307    0.1953441496816097    0.1974525063187353 O
   0.9442655857771746    0.1840351609048675    0.6832026605747188 O
   0.9427018638263065    0.6902437826703561    0.1938096908106293 O
   0.9438967452378649    0.6907962431023656    0.6967719663935983 O
   0.4335632596141020    0.3147033538003666    0.0660456744756215 O
   0.4347374536220021    0.3162264588817468    0.5658602714552257 O
   0.4370982046723889    0.8220839992750950    0.0695025863803349 O
   0.4367121292391439    0.8168563721266980    0.5680558286903035 O
   0.9295065099080506    0.3199430026456779    0.0694000013443025 O
   0.9380004093943333    0.3225814120119382    0.5653308078928631 O
   0.1813383872457144    0.1855032744430170    0.1859623764605857 O
   0.4438881256513129    0.1923192277511751    0.6947706222538135 O
   0.3231330463756587    0.3159508906869224    0.6807816202647065 O
   0.3154128688195143    0.3206501399892121    0.1843079982022442 O
   0.8060926341509290    0.6938747424271916    0.5604270296644180 O
   0.1814784950982813    0.4363037804825119    0.9290325653391432 O
   0.1799503995808393    0.9329529406449709    0.4360083973687545 O
   0.1797354321152607    0.9354487808945646    0.9278726351325365 O
   0.6815337972317500    0.4317211221173638    0.4266767224735470 O
   0.6810405857834847    0.4340296431914625    0.9298893605915615 O
   0.6816726399624183    0.9312849155885607    0.4365358229260981 O
   0.6848373104601860    0.9467383201204863    0.9288477002248309 O
   0.1917851746600930    0.3062684299189421    0.0565056519529260 O
   0.1910341020939745    0.3050444166708836    0.5609315901472701 O
   0.1903847102113841    0.8087770622280953    0.0592764806916014 O
   0.1922141096713126    0.8041630995954543    0.5593002864735467 O
   0.6889179916066670    0.3054823611566443    0.0568635394455288 O
   0.6996926064975200    0.3083828600687005    0.5557446580678107 O
   0.6918523138502609    0.8118991662627414    0.0548608901681552 O
   0.6923666474865178    0.8077530825395576    0.5559801324873133 O
   0.3074107150050744    0.3070856718900502    0.4445240669782091 O
   0.3042247501611280    0.3094433164007708    0.9455860787748093 O
   0.3121716360860010    0.7976284668808749    0.4416540290115178 O
   0.3091132008931597    0.8144242824858536    0.9373791250853705 O
   0.8132772168841096    0.3052163100998854    0.4390656482910449 O
   0.8038601138817887    0.3113733258984234    0.9421545402831317 O
   0.8037997345598507    0.8119805867315651    0.4420983924185469 O
   0.8046846986010571    0.8166585021352430    0.9434994027595194 O
   0.3048321942331320    0.1920869015346264    0.0621229585573302 O
   0.3023560133801478    0.1929663210862911    0.5615323861591901 O
   0.3077463552037859    0.6934501323911161    0.0509676565477944 O
   0.3073041958156538    0.6825668742064414    0.5508166282257125 O
   0.8001892499556542    0.1963090147270553    0.0617294120903925 O
   0.8156094924466785    0.1921261394028400    0.5529169183517807 O
   0.9410820728661587    0.5715802206802189    0.8151124603668318 O
   0.6898300427747507    0.8257477498065734    0.8191356128240596 O
   0.5605183194243654    0.9438192148852591    0.5546979626879986 O
   0.6772765332558067    0.3204141200815575    0.8183381421887044 O
   0.0658646428156585    0.0689023485509430    0.1798774894654585 O
   0.0655554771111097    0.0665148542766001    0.6803275303775617 O
   0.0757410419501833    0.5665229540019424    0.1758271202459883 O
   0.0684439648973069    0.5697643683292385    0.6792390176399827 O
   0.5699850598209412    0.0666209313019120    0.1783175478069675 O
   0.5672130855527697    0.0645751108749470    0.6866756369356675 O
   0.5687830222131675    0.5632117458480356    0.1801441528581520 O
   0.5681611571982372    0.5665745413111906    0.6859907897485922 O
   0.0655227857513158    0.1798619799140516    0.0696591680873200 O
   0.0705262209230770    0.1845825517909249    0.5577681430167319 O
   0.0708887015749468    0.6813173070845766    0.0629743490010135 O
   0.0670074867535845    0.6764225652485018    0.5602153205215212 O
   0.5698360447063958    0.1832913920816497    0.0621633482186395 O
   0.9303263362753005    0.8169113783119452    0.0645085683395066 O
   0.5636173066174901    0.1799705589019544    0.5613425316684104 O
   0.5680797706958525    0.6802009474706131    0.5648273785556394 O
   0.2021937941424677    0.4448281922657609    0.1868305921976625 O
   0.1832493223196601    0.4337663207007105    0.6954630944695877 O
   0.1911333497122055    0.9432275975588692    0.1875777857214171 O
   0.1945055471588419    0.9421582148057309    0.6897929723237072 O
   0.6914684523144717    0.4440579029055810    0.1969774763544106 O
   0.6901808463315586    0.4495876611942048    0.6958569676512474 O
   0.6901956191653122    0.9432072621704152    0.1944744926206890 O
   0.6975224540432041    0.9400214893393942    0.6983493395946646 O
   0.1768767909046373    0.0691026710760916    0.0694762824312792 O
   0.1854244070187931    0.0720641028454860    0.5647893835810687 O
   0.1924171952487698    0.5685547100821637    0.0640407197085674 O
   0.1791837725214634    0.5634964567360707    0.5667869212345205 O
   0.5675275220874987    0.6806793081648237    0.0612182128364005 O
   0.6902199840730904    0.0727359313660814    0.0666274495506348 O
   0.5521551611517245    0.9467397167788518    0.0602227403233766 O
   0.5567141177957087    0.4423398681286608    0.0559552087338109 O
   0.4387480198342824    0.1834060827165326    0.4311377872686045 O
   0.4376910454113813    0.1835739967837908    0.9351247359588637 O
   0.4266511349588555    0.6778669740483682    0.4328814446294963 O
   0.4305138283495246    0.6769586209003048    0.9337907688823445 O
   0.9283020591153733    0.1892462022351441    0.4346421552275195 O
   0.9339426841691388    0.1760287787061860    0.9425808563313880 O
   0.9362298675960541    0.6833441342146219    0.4347566421608133 O
   0.9302648892440376    0.6825042403967470    0.9281888320039884 O
   0.4354158189724631    0.0529040222228455    0.0580993732430923 O
   0.4467276959726148    0.0572364202163725    0.5566844008164503 O
   0.4404333682841465    0.5579407552013208    0.0534229170735530 O
   0.4408925934303084    0.5562192304814698    0.5551462270337592 O
   0.9500865468432166    0.0578963528914172    0.0560918738475378 O
   0.5528216574317383    0.4428967446651242    0.5564747164107101 O
   0.9387460941070491    0.0548388267101556    0.5526864612695065 O
   0.9465832966279339    0.5552253539216938    0.5598248319626660 O
   0.0537212779153965    0.0585663764702326    0.4359459339460685 O
   0.0544897267071828    0.0586687687241002    0.9483503311339839 O
   0.0571173538612487    0.5576092547932989    0.4490533216918116 O
   0.0579322229117089    0.5612412293728912    0.9417947642570752 O
   0.5602839315414420    0.0529409315691772    0.4356608502662208 O
   0.5563913477443856    0.0623710670350155    0.9460273296998335 O
   0.5611624348068573    0.5564675653980511    0.4453721726960321 O
   0.5516659520592672    0.5561041574068964    0.9381611284477124 O
   0.0551484564030053    0.4492117234650891    0.0550566542141586 O
   0.0566527421741224    0.4439827661278031    0.5651333138416801 O
   0.0635709468517413    0.9470220585576816    0.0595323885195853 O
   0.0555917438737727    0.9373898708655175    0.5528535612270432 O
   0.9350724449726968    0.5577781318593021    0.0542617072940786 O
   0.6808920382368815    0.0624902264509071    0.5624930956834989 O
   0.6821020908981662    0.5624330017573332    0.0556034797114619 O
   0.6804279617500028    0.5680945853232625    0.5753444098000201 O
   0.0666927605901012    0.3216624923810522    0.9354884853140953 O
   0.0668169858611541    0.8126130452193553    0.4349744091678738 O
   0.0652775051836036    0.8206578696705495    0.9348669421093816 O
   0.5641746476189903    0.3160826114439788    0.4361801200229347 O
   0.5639292299345220    0.3162837877307070    0.9315370104673555 O
   0.5722548670309362    0.8214063987788364    0.4382056665185511 O
   0.5734197050471066    0.8189040127268031    0.9354652894218657 O
   0.0771959843117411    0.4323177534838872    0.3161916687291934 O
   0.0670149618220088    0.4368520209546401    0.8160086164456797 O
   0.0683100204245239    0.9302230911790025    0.3257643045541784 O
   0.0647755934162647    0.9346120803673406    0.8179816469083330 O
   0.5720291527682084    0.4348903745007193    0.3155505563950725 O
   0.5581048519383462    0.4289168392830712    0.8175698412640611 O
   0.0694151646202602    0.3153515817173894    0.4330442365067388 O
   0.5682872411086757    0.9327304254599877    0.3253359137844201 O
   0.1871230874812325    0.1903316293626402    0.4431524809509922 O
   0.1885526230684358    0.1916031372151447    0.9412888224840344 O
   0.1990377335842129    0.6888777969423474    0.4424666184953963 O
   0.1929959962617638    0.6892939842067985    0.9399428465518241 O
   0.6973267266229775    0.1887089532557609    0.4370473017509873 O
   0.6879672542238277    0.1919616546548237    0.9454149749226080 O
   0.6907472454155333    0.6992921212785010    0.4456215610543033 O
   0.6990868639919416    0.6903311092448375    0.9331308131787529 O
   0.1867391439707543    0.3154371826974556    0.3171893292898502 O
   0.1818607147193211    0.3226280623021745    0.8179079640260434 O
   0.1884787124154734    0.8128342555314033    0.3124541835106904 O
   0.1845589128416423    0.8169603356244952    0.8118321320509950 O
   0.6860095031288311    0.3207868663990683    0.3125855087140486 O
   0.5739767785566466    0.9387718181117976    0.8146509315586159 O
   0.5584340405707008    0.6896286484989370    0.8176192990459694 O
   0.5558346755382548    0.6913774194195479    0.3061875363237923 O
   0.5633922642842633    0.1957926934728473    0.8141890722443678 O
   0.4300903364412216    0.4312042451955562    0.1834369014231394 O
   0.4365093680105755    0.4339391679955056    0.6888513803969036 O
   0.4316910309276838    0.9288478094039559    0.1782444163516218 O
   0.4347641970738785    0.9356515345865202    0.6855952152551223 O
   0.9287623463092006    0.4328001693506092    0.1812345909040924 O
   0.9382482591028266    0.4405784388463399    0.6779725878923335 O
   0.9270974836655737    0.9331462303958297    0.1848796208420755 O
   0.9279013227256971    0.9300867070271190    0.6808209175673059 O
   0.4399258124989154    0.3020249426167304    0.3072992913144292 O
   0.4485527969840065    0.3044478588972841    0.8092947923360991 O
   0.4403643793182823    0.8096117406614413    0.2986780633592268 O
   0.4406096044381460    0.8080972179661943    0.8139673507706845 O
   0.9398616387866078    0.3120444588455136    0.3108186451286423 O
   0.9377107958729282    0.3038992175458905    0.8035443022257959 O
   0.9412474987960331    0.8070009459312775    0.3100618696974304 O
   0.9367435103090633    0.8021456427890283    0.8075955026152366 O
   0.0539279703861136    0.3070577997815284    0.1962190193739889 O
   0.0545814097142196    0.3056081523963353    0.6872764485828504 O
   0.0607806505148678    0.8126411413160087    0.1875951682541129 O
   0.0543436232762616    0.8043754305174109    0.6898287106035624 O
   0.5544053235548512    0.3080769249101883    0.1914825254986177 O
   0.5587909443587674    0.3088172738905647    0.6994640161040975 O
   0.5526273418653073    0.8116392165221019    0.1894841105102770 O
   0.5628803825755126    0.8021449294289973    0.6949561501153576 O
   0.0560326845384184    0.1920585151815948    0.3120236612805891 O
   0.0516170409865838    0.1905180423392277    0.8099936373884542 O
   0.0555507843389761    0.6905897751514515    0.3055547191365633 O
   0.0544927024259314    0.6883081069541390    0.8153428751795261 O
   0.5552185460879980    0.1877409766401192    0.3123489236063142 O
   0.6861048892662444    0.8164917909650882    0.3248315116425998 O
   0.9308924911841652    0.8134869398037927    0.5668422420697333 O
